TITL P2_expF_0_9_expS_1_3_P2_a.res in Pm
REM Old TITL P2(1)-1 in P2(1)
REM SHELXT solution in Pm: R1 0.335, Rweak 0.792, Alpha 0.123
REM <I/s>   0.000 for    0 systematic absences,  Orientation as input
REM Formula found by SHELXT:  C27 N11 O10

CELL  0.71073   7.0400   9.2600  11.5800   90.000   97.780   90.000
ZERR   15.000   0.0014   0.0019   0.0023    0.000    0.030    0.000
LATT -1
SYMM X, -Y, Z
SFAC C H N O
UNIT 15 15 15 15
L.S. 10
BOND
LIST 6
FMAP 2
PLAN 20
O001  4 -0.17196  0.00000  0.14178 10.50000  0.00667  13.86
O002  4  0.54721  0.00000  0.75392 10.50000  0.00216  11.99
O003  4  0.91126  0.50000  0.93679 10.50000  0.00010  10.92
O004  4  0.57421  0.50000  0.10389 10.50000  0.00010  10.12
O005  4  0.56635  0.30952  0.72832 11.00000  0.03486   8.77
N006  3  0.07925  0.00000  0.24379 10.50000  0.00170   8.70
N007  3  0.34642  0.33375  0.29366 11.00000  0.04501   8.51
O008  4  0.52267  0.20310  0.92384 11.00000  0.00752   7.95
N009  3  0.21707  0.12214  0.21796 11.00000  0.01276   7.82
N00A  3  0.58492  0.29682  0.24582 11.00000  0.05753   7.60
O00B  4  0.27857  0.50000  0.42435 10.50000  0.00010   7.58
O00C  4  0.15885  0.50000  0.15008 10.50000  0.00010   7.57
C00D  1  0.26372  0.00000  0.16293 10.50000  0.00010   7.30
C00E  1  0.61250  0.50000  0.19637 10.50000  0.00010   6.68
N00F  3  0.24149  0.17683  0.90305 11.00000  0.03571   6.67
N00G  3  0.77898  0.44412  0.86018 11.00000  0.00010   6.58
C00H  1  0.57874  0.50000  0.35941 10.50000  0.00010   6.49
C00I  1  1.11625  0.50000  0.72098 11.00000  0.00760   6.16
C00J  1  0.41934  0.00000  0.11633 10.50000  0.00010   6.13
C00K  1  0.01743  0.06584  0.31359 11.00000  0.03650   5.59
C00L  1  1.26928  0.50000  0.82222 10.50000  0.01104   5.28
C00M  1  0.13345  0.00000  0.06321 10.50000  0.03589   5.02
C00N  1  0.54141  0.15372  0.43853 11.00000  0.00010   4.89
C00O  1  0.40289  0.00000  0.42721 10.50000  0.00010   4.23
C00P  1  0.01432  0.13695  0.73615 11.00000  0.01970   4.07
C00Q  1 -0.26928  0.00000  0.25981 10.50000  0.00010   4.03
C00R  1  0.36812  0.27030  0.37711 11.00000  0.00010   3.92
C00S  1  0.82494  0.50000  0.78247 10.50000  0.00010   3.90
C00T  1  0.59295  0.13529  0.80930 11.00000  0.00010   3.67
C00U  1  0.64691  0.09770  0.62246 11.00000  0.00010   3.64
C00V  1  0.35273  0.17558  0.23025 11.00000  0.00010   3.49
C00W  1  0.56545  0.38417  0.47366 11.00000  0.04813   3.28
HKLF 4
END
