TITL P2_expF_0_8_expS_1_0_P2_a.res in Pm
REM Old TITL P2(1)-1 in P2(1)
REM SHELXT solution in Pm: R1 0.326, Rweak 1.113, Alpha 0.068
REM <I/s>   0.000 for    0 systematic absences,  Orientation as input
REM Formula found by SHELXT:  C25 N15 O8 Br

CELL  0.71073   7.0400   9.2600  11.5800   90.000   97.780   90.000
ZERR   15.000   0.0014   0.0019   0.0023    0.000    0.030    0.000
LATT -1
SYMM X, -Y, Z
SFAC C H N O BR
UNIT 15 15 15 15 0
L.S. 10
BOND
LIST 6
FMAP 2
PLAN 20
BR01  5  0.68215  0.50000  0.80659 10.50000  0.00461  27.52
N002  3 -0.00153  0.00000  0.83726 10.50000  0.05278  20.22
N003  3  1.06895  0.50000  0.29343 10.50000  0.05196  10.64
N004  3  0.24593  0.00000  0.87569 10.50000  0.00010   9.03
N005  3  0.45863  0.50000  0.92763 11.00000  0.05351   8.72
O006  4 -0.06895  0.00000  0.24209 10.50000  0.12177   8.36
N007  3  0.54243  0.50000  0.31000 10.50000  0.06491   8.35
N008  3  0.01215 -0.11966  0.78730 11.00000  0.04792   8.31
N009  3  0.46653  0.50000  0.85300 10.50000  0.00212   8.20
O00A  4  0.92749  0.50000  1.00991 10.50000  0.05485   7.97
O00B  4  0.23538  0.00000  0.93719 10.50000  0.02439   7.68
C00C  1  0.88803  0.50000  0.72157 10.50000  0.01334   6.67
N00D  3  0.18150  0.00000  0.61266 10.50000  0.03706   6.67
N00E  3  0.20858  0.39019  0.84010 11.00000  0.06787   6.62
C00F  1  0.49679  0.00000  0.15964 10.50000  0.05192   6.53
C00G  1  1.03735  0.31543  0.33152 11.00000  0.10214   6.28
C00H  1  0.68592  0.50000  0.20272 10.50000  0.06923   5.94
C00I  1  0.74525  0.33505  0.31018 11.00000  0.03626   5.75
C00J  1  0.63498  0.00000 -0.00991 10.50000  0.04229   5.42
C00K  1  0.49497  0.34745  0.28196 11.00000  0.01487   4.93
C00L  1  0.18234  0.50000  0.71401 10.50000  0.02384   4.64
C00M  1  0.48971  0.50000  0.99155 11.00000  0.07893   4.42
C00N  1  0.50140  0.62080  0.88039 11.00000  0.03035   4.39
O00O  4  0.34126  0.00000  0.19819 10.50000  0.08834   4.36
N00P  3  0.48743  0.35155  0.33591 11.00000  0.04038   4.30
C00Q  1  0.45654  0.33703  0.14053 11.00000  0.05327   4.00
C00R  1  0.25120  0.00000  0.81866 10.50000  0.01605   3.62
C00S  1  0.30534  0.20905  0.79221 11.00000  0.02133   3.58
C00T  1  0.56714  0.50000  0.50679 11.00000  0.09351   3.54
O00U  4  0.75453  0.50000  0.67004 11.00000  0.02476   3.49
O00V  4  0.57882  0.25419  0.12673 11.00000  0.08161   3.46
N00W  3  0.76867  0.50000  0.61257 10.50000  0.00010   3.24
C00X  1  0.22356  0.50000  0.84435 10.50000  0.05142   3.06
C00Y  1  0.32241  0.16380  0.75304 11.00000  0.05574   3.02
HKLF 4
END
