TITL P2_expF_0_6_expS_0_6_P2_a.res in Pm
REM Old TITL P2(1)-1 in P2(1)
REM SHELXT solution in Pm: R1 0.331, Rweak 0.850, Alpha 0.225
REM <I/s>   0.000 for    0 systematic absences,  Orientation as input
REM Formula found by SHELXT:  C11 N3 O5

CELL  0.71073   7.0400   9.2600  11.5800   90.000   97.780   90.000
ZERR   15.000   0.0014   0.0019   0.0023    0.000    0.030    0.000
LATT -1
SYMM X, -Y, Z
SFAC C H N O
UNIT 15 15 15 15
L.S. 10
BOND
LIST 6
FMAP 2
PLAN 20
O001  4  0.73851  0.00000  0.26522 10.50000  0.00422  11.28
O002  4  0.31457  0.00000  0.26442 10.50000  0.00010  11.07
N003  3  0.47708  0.00000  0.72853 10.50000  0.00010  10.41
O004  4  0.26040  0.18852  0.77153 11.00000  0.11899   9.94
N005  3  0.65758  0.13255  0.77008 11.00000  0.06595   9.75
C006  1  0.47255  0.00000  0.60160 10.50000  0.00010   9.34
O007  4  0.54132  0.09066  0.93815 11.00000  0.17463   9.25
O008  4  0.35911  0.00000  0.43065 10.50000  0.08910   8.76
O009  4  0.95384  0.50000  0.22930 10.50000  0.08878   7.48
C00A  1  0.70957  0.50000  0.84673 10.50000  0.00010   7.46
O00B  4  0.27300  0.50000  0.88031 10.50000  0.00010   7.40
N00C  3  0.67082  0.00000  0.62248 10.50000  0.00010   6.10
C00D  1  0.17113  0.27285  0.71141 11.00000  0.11926   6.05
C00E  1  1.01739  0.00000  0.82925 10.50000  0.01264   5.87
C00F  1  0.89978  0.11120  0.71331 11.00000  0.12549   5.71
N00G  3  0.85361  0.50000  0.76887 10.50000  0.00010   5.67
C00H  1 -0.01739  0.00000  0.56313 10.50000  0.00010   5.60
C00I  1  0.64134  0.50000  0.28743 10.50000  0.00510   5.59
C00J  1  0.26384  0.00000  0.64331 10.50000  0.01641   5.56
N00K  3  0.69369  0.50000  0.52262 10.50000  0.03017   5.56
C00L  1  0.31166  0.00000  0.21379 10.50000  0.00010   5.21
C00M  1  0.06388  0.00000  0.42261 10.50000  0.00153   5.16
C00N  1  0.09580  0.00000  0.14038 10.50000  0.00010   4.97
O00O  4  0.57043  0.50000  0.74928 10.50000  0.00188   4.93
C00P  1  0.32426  0.00000  0.06185 10.50000  0.00010   4.87
C00Q  1  0.56756  0.00000  0.22733 10.50000  0.00010   4.87
C00R  1  0.57541  0.03578  0.83209 11.00000  0.20028   4.50
C00S  1  0.15211  0.00000  0.52275 10.50000  0.00010   4.24
C00T  1  0.55674  0.50000  0.85886 10.50000  0.00010   3.83
C00U  1  0.63230  0.00000  0.56665 10.50000  0.00010   3.36
C00V  1  0.17813  0.50000  0.81873 10.50000  0.00010   3.30
C00W  1  0.23594  0.50000  0.61471 10.50000  0.00010   3.02
HKLF 4
END
