TITL P2_expF_0_6_expS_0_5_P2_a.res in Pm
REM Old TITL P2(1)-1 in P2(1)
REM SHELXT solution in Pm: R1 0.344, Rweak 0.733, Alpha 0.225
REM <I/s>   0.000 for    0 systematic absences,  Orientation as input
REM Formula found by SHELXT:  C11 N3 O5

CELL  0.71073   7.0400   9.2600  11.5800   90.000   97.780   90.000
ZERR   15.000   0.0014   0.0019   0.0023    0.000    0.030    0.000
LATT -1
SYMM X, -Y, Z
SFAC C H N O
UNIT 15 15 15 15
L.S. 10
BOND
LIST 6
FMAP 2
PLAN 20
O001  4  0.77879  0.50000  0.34394 10.50000  0.00010  11.28
O002  4  0.33984  0.50000  0.35556 10.50000  0.00010  11.07
N003  3  0.48354  0.50000  0.81956 10.50000  0.00010  10.41
O004  4  0.29606  0.67595  0.83253 11.00000  0.07362   9.94
N005  3  0.68754  0.62352  0.85034 11.00000  0.03276   9.75
C006  1  0.50598  0.50000  0.69981 10.50000  0.00010   9.34
O007  4  0.54356  0.62458  0.02938 11.00000  0.06952   9.25
O008  4  0.35402  0.50000  0.50413 10.50000  0.00328   8.76
O009  4  0.96198  1.00000  0.29974 10.50000  0.05745   7.48
C00A  1  0.74747  1.00000  0.93197 10.50000  0.00010   7.46
O00B  4  0.28925  1.00000  0.97062 10.50000  0.00010   7.40
N00C  3  0.67087  0.50000  0.70317 10.50000  0.00010   6.10
C00D  1  0.13622  0.76116  0.79018 11.00000  0.09559   6.05
C00E  1  1.03219  0.50000  0.89692 10.50000  0.00010   5.87
C00F  1  0.86402  0.63663  0.79102 11.00000  0.02991   5.71
N00G  3  0.88557  1.00000  0.84052 10.50000  0.00010   5.67
C00H  1 -0.03219  0.50000  0.62563 10.50000  0.00528   5.60
C00I  1  0.66685  1.00000  0.35870 10.50000  0.00086   5.59
C00J  1  0.31215  0.50000  0.74232 10.50000  0.08182   5.56
N00K  3  0.73757  1.00000  0.60807 10.50000  0.00670   5.56
C00L  1  0.32686  0.50000  0.30534 10.50000  0.00010   5.21
C00M  1  0.03652  0.50000  0.50136 10.50000  0.02618   5.16
C00N  1  0.13477  0.50000  0.22988 10.50000  0.00010   4.97
O00O  4  0.52299  1.00000  0.83312 10.50000  0.03459   4.93
C00P  1  0.38933  0.50000  0.14118 10.50000  0.00010   4.87
C00Q  1  0.58939  0.50000  0.30969 10.50000  0.00332   4.87
C00R  1  0.07410  0.32074  0.11425 11.00000  0.06981   4.81
C00S  1  0.21768  0.50000  0.61526 10.50000  0.00478   4.24
C00T  1  0.54424  1.00000  0.93178 10.50000  0.00010   3.83
C00U  1  0.63813  0.50000  0.64960 10.50000  0.00010   3.36
C00V  1  0.20011  1.00000  0.89657 10.50000  0.00010   3.30
C00W  1  0.24156  1.00000  0.69733 10.50000  0.00010   3.02
HKLF 4
END
