TITL P2_expF_0_7_expS_1_4_P2_a.res in Pm
REM Old TITL P2(1)-1 in P2(1)
REM SHELXT solution in Pm: R1 0.284, Rweak 0.622, Alpha 0.058
REM <I/s>   0.000 for    0 systematic absences,  Orientation as input
REM Formula found by SHELXT:  C27 N13 O15 Cl3

CELL  0.71073   7.0400   9.2600  11.5800   90.000   97.780   90.000
ZERR   15.000   0.0014   0.0019   0.0023    0.000    0.030    0.000
LATT -1
SYMM X, -Y, Z
SFAC C H N O CL
UNIT 15 15 15 15 0
L.S. 10
BOND
LIST 6
FMAP 2
PLAN 20
CL01  5  0.55625  0.00000  0.26329 10.50000  0.05793  23.35
N002  3  1.03733  0.34635  0.05509 11.00000  0.00010  12.33
CL03  5  0.56650  0.18981  1.06795 11.00000  0.02999  12.16
N004  3  0.61341  0.00000  0.45282 10.50000  0.00010  10.84
O005  4  1.05008  0.50000 -0.06795 10.50000  0.00010  10.81
O006  4 -0.01012  0.00000  1.00592 10.50000  0.01701  10.36
C007  1  0.29728  0.00000  0.92785 10.50000  0.00132  10.34
O008  4  0.51960  0.24600  0.55193 11.00000  0.01562   9.89
O009  4  0.34780  0.00000  1.03816 10.50000  0.00010   9.82
N00A  3  0.68369  0.46227  0.40538 11.00000  0.08962   9.50
N00B  3  1.16118  0.50000  0.03073 10.50000  0.00010   9.07
N00C  3  0.08904  0.00000  0.54101 10.50000  0.00010   8.88
O00D  4  0.59531  0.00000  1.00708 10.50000  0.00010   8.72
N00E  3  0.79084  0.50000  0.48982 10.50000  0.01660   8.54
O00F  4  0.10319  0.50000  0.41262 10.50000  0.00010   8.38
O00G  4  0.58985  0.50000  0.00675 10.50000  0.00511   7.95
N00H  3  0.16940  0.09134  0.50115 11.00000  0.00010   7.80
O00I  4 -0.35764  0.00000  0.77607 10.50000  0.07054   7.76
O00J  4  0.23632  0.36235  0.53119 11.00000  0.03658   7.50
N00K  3  1.35764  0.50000 -0.01714 10.50000  0.00010   7.30
C00L  1  0.53175  0.50000  0.41342 10.50000  0.00010   7.27
N00M  3  0.78229  0.50000  0.09317 10.50000  0.00010   6.71
N00N  3  0.78572  0.00000  0.38855 10.50000  0.00010   6.66
O00O  4  0.26343  0.17442  0.42284 11.00000  0.06640   6.61
C00P  1  0.91883  0.09937  0.31857 11.00000  0.00586   5.96
O00Q  4  0.80200  0.69582  0.21336 11.00000  0.07257   5.94
C00R  1  0.08841  0.11618  0.87146 11.00000  0.00010   5.76
C00S  1  0.82526  0.35284  0.54109 11.00000  0.00010   5.37
C00T  1  0.49623  0.26737  0.72966 11.00000  0.00372   5.26
C00U  1  0.19265  0.21284  0.71467 11.00000  0.05551   4.90
C00V  1  0.96531  0.50000  0.03857 10.50000  0.00010   4.87
C00W  1 -0.04454  0.12945  0.71866 11.00000  0.02737   4.84
C00X  1  0.34488  0.09204  0.59452 11.00000  0.00010   4.45
C00Y  1  0.66505  0.13931  0.52054 11.00000  0.05848   4.00
C00Z  1  0.37202  0.00000  0.55768 10.50000  0.00730   3.98
C010  1  1.15182  0.23657  0.11531 11.00000  0.06586   3.89
C011  1  1.08728  0.17652  0.24476 11.00000  0.00866   3.82
C012  1  0.44127  0.00000  0.37053 10.50000  0.00010   3.12
C013  1  0.67253 -0.14268  0.33670 11.00000  0.00010   3.04
HKLF 4
END
