TITL P2_expF_1_0_expS_1_4_P2_a.res in Pm
REM Old TITL P2(1)-1 in P2(1)
REM SHELXT solution in Pm: R1 0.370, Rweak 0.599, Alpha 0.041
REM <I/s>   0.000 for    0 systematic absences,  Orientation as input
REM Formula found by SHELXT:  C24 N5 O3 Cl3

CELL  0.71073   7.0400   9.2600  11.5800   90.000   97.780   90.000
ZERR   15.000   0.0014   0.0019   0.0023    0.000    0.030    0.000
LATT -1
SYMM X, -Y, Z
SFAC C H N O CL
UNIT 15 15 15 15 0
L.S. 10
BOND
LIST 6
FMAP 2
PLAN 20
CL01  5  0.07884  1.00000  0.78458 10.50000  0.01525  17.17
CL02  5  1.05652  0.50000  0.59691 10.50000  0.03741  16.96
CL03  5  0.62070  0.50000  0.59513 10.50000  0.08485  10.35
N004  3  0.68805  0.50000  0.79819 10.50000  0.09014   7.92
N005  3  0.39706  0.50000  0.84339 10.50000  0.03150   7.32
C006  1  0.43674  0.64236  0.78109 11.00000  0.00010   6.43
O007  4 -0.08967  1.00000  0.58659 10.50000  0.00010   6.40
C008  1  0.56631  1.00000  0.85571 10.50000  0.00010   6.02
C009  1  0.92090  0.50000  0.33277 10.50000  0.00010   5.86
C00A  1  0.99123  0.00000  0.31024 10.50000  0.00171   5.54
C00B  1  0.76476  0.71288  0.78000 11.00000  0.03144   5.47
C00C  1  0.95011  0.23253  0.10021 11.00000  0.02030   5.41
C00D  1 -0.51514  1.00000  0.50912 10.50000  0.00010   5.11
C00E  1  0.77343  0.00000  0.29817 10.50000  0.00010   4.98
C00F  1  0.83721  0.50000  0.52287 10.50000  0.00010   4.84
N00G  3  1.51514  0.21577  0.29900 11.00000  0.02163   4.58
C00H  1  0.56808  0.77392  0.78946 11.00000  0.02517   4.55
C00I  1 -0.36360  1.00000  0.61047 10.50000  0.00010   4.49
C00J  1 -0.04288  1.00000  0.81953 10.50000  0.02361   4.37
O00K  4  1.14576  0.19465  0.27188 11.00000  0.03999   4.31
C00L  1  0.90337  0.15232  0.26222 11.00000  0.04427   4.14
C00M  1  1.35384  0.50000  0.28648 10.50000  0.01024   4.02
C00N  1  1.00457  0.39027  0.26693 11.00000  0.01187   3.88
C00O  1  0.37270  1.00000  0.79977 10.50000  0.00010   3.86
C00P  1  0.36078  0.62834  0.92089 11.00000  0.05167   3.27
N00Q  3  1.15137  0.00000  0.07911 10.50000  0.00010   3.24
HKLF 4
END
