TITL P2_expF_0_7_expS_1_2_P2_a.res in Pm
REM Old TITL P2(1)-1 in P2(1)
REM SHELXT solution in Pm: R1 0.269, Rweak 0.788, Alpha 0.058
REM <I/s>   0.000 for    0 systematic absences,  Orientation as input
REM Formula found by SHELXT:  C27 N14 O15 Cl3

CELL  0.71073   7.0400   9.2600  11.5800   90.000   97.780   90.000
ZERR   15.000   0.0014   0.0019   0.0023    0.000    0.030    0.000
LATT -1
SYMM X, -Y, Z
SFAC C H N O CL
UNIT 15 15 15 15 0
L.S. 10
BOND
LIST 6
FMAP 2
PLAN 20
CL01  5  0.20016  0.50000  0.34073 10.50000  0.04218  23.35
N002  3  0.69454  0.83400  0.13913 11.00000  0.00010  12.33
CL03  5  1.20960  0.69733  1.14867 11.00000  0.03134  12.16
N004  3  0.25929  0.50000  0.51646 10.50000  0.00010  10.84
O005  4  0.67551  1.00000  0.01786 10.50000  0.00010  10.81
O006  4  0.62295  0.50000  1.08559 10.50000  0.00010  10.36
C007  1  0.90459  0.50000  1.01993 10.50000  0.00010  10.34
O008  4  0.16738  0.77692  0.63627 11.00000  0.05604   9.89
O009  4  0.99727  0.50000  1.11632 10.50000  0.00010   9.82
N00A  3  0.30105  0.95402  0.46878 11.00000  0.05898   9.50
N00B  3  0.92519  0.50000  0.98068 10.50000  0.10730   9.44
N00C  3  0.79024  1.00000  0.12809 10.50000  0.00010   9.07
N00D  3 -0.25613  0.50000  0.62045 10.50000  0.00979   8.88
O00E  4  1.26689  0.50000  1.09129 10.50000  0.00010   8.72
N00F  3  0.38353  1.00000  0.55531 10.50000  0.00010   8.54
O00G  4 -0.26689  1.00000  0.50457 10.50000  0.03014   8.38
O00H  4  0.25526  1.00000  0.07951 10.50000  0.00010   7.95
N00I  3 -0.18902  0.61582  0.59445 11.00000  0.03295   7.80
O00J  4  0.33218  0.50000  0.88799 10.50000  0.12182   7.76
O00K  4 -0.11272  0.87094  0.60827 11.00000  0.08414   7.50
N00L  3  0.00928  1.00000  0.06042 10.50000  0.00010   7.30
C00M  1  0.14624  1.00000  0.50702 10.50000  0.00010   7.27
N00N  3  0.41773  1.00000  0.17031 10.50000  0.00010   6.71
N00O  3  0.44728  0.50000  0.50184 10.50000  0.00010   6.66
O00P  4 -0.11214  0.67633  0.50836 11.00000  0.02826   6.61
C00Q  1  0.61549  0.59863  0.41357 11.00000  0.03999   5.96
O00R  4  0.45284  1.14553  0.28986 11.00000  0.11156   5.94
C00S  1  0.70762  0.62035  0.94872 11.00000  0.00010   5.76
C00T  1  0.47922  0.85121  0.62640 11.00000  0.00010   5.37
C00U  1  0.03676  0.65076  0.81197 11.00000  0.04866   5.26
C00V  1  0.81715  0.90735 -0.14867 11.00000  0.02975   4.90
C00W  1  0.62437  1.00000  0.09842 10.50000  0.01128   4.87
C00X  1  0.58716  0.61971  0.80394 11.00000  0.00287   4.84
C00Y  1 -0.00241  0.61671  0.69012 11.00000  0.00010   4.45
C00Z  1  0.28841  0.63349  0.61126 11.00000  0.00011   4.00
C010  1 -0.04104  0.50000  0.65744 10.50000  0.03969   3.98
C011  1  0.81290  0.81020  0.22991 11.00000  0.02959   3.89
C012  1  0.69771  0.67278  0.32960 11.00000  0.00098   3.82
C013  1  0.10258  0.50000  0.44861 10.50000  0.00010   3.12
C014  1  0.35731  0.34792  0.43489 11.00000  0.00010   3.04
HKLF 4
END
