TITL P2_expF_0_9_expS_0_5_P2_a.res in Pm
REM Old TITL P2(1)-1 in P2(1)
REM SHELXT solution in Pm: R1 0.396, Rweak 0.363, Alpha 0.144
REM <I/s>   0.000 for    0 systematic absences,  Orientation as input
REM Formula found by SHELXT:  C23 O3

CELL  0.71073   7.0400   9.2600  11.5800   90.000   97.780   90.000
ZERR   15.000   0.0014   0.0019   0.0023    0.000    0.030    0.000
LATT -1
SYMM X, -Y, Z
SFAC C H N O
UNIT 15 15 15 15
L.S. 10
BOND
LIST 6
FMAP 2
PLAN 20
O001  4  0.66138  0.50000  1.04918 10.50000  0.00907  14.40
O002  4  0.48145  0.50000  0.52694 10.50000  0.19240   7.44
O003  4  0.05927  0.00000  0.55116 10.50000  0.00010   6.58
C004  1  0.54216  0.50000  0.69497 10.50000  0.16259   5.80
C005  1  0.61569  0.74702  1.12715 11.00000  0.06096   5.72
C006  1  0.04894  0.00000  0.50468 10.50000  0.00010   5.41
C007  1  0.43275  0.50000  0.86546 10.50000  0.11826   4.67
C008  1  0.70046  1.00000  1.07279 10.50000  0.00010   4.59
C009  1 -0.23994  0.00000  0.57332 10.50000  0.02909   4.13
C00A  1  0.94740  0.50000 -0.12715 10.50000  0.07707   4.12
C00B  1  0.45475  1.00000  0.92578 10.50000  0.03417   4.10
C00C  1  1.23994  0.50000  0.00922 10.50000  0.00757   4.08
C00D  1  0.44798  0.89577  1.05106 11.00000  0.01002   3.90
C00E  1  1.14635  0.36748  0.07130 11.00000  0.04919   3.75
C00F  1  0.82890  0.50000  0.48613 10.50000  0.00010   3.74
C00G  1  0.32965  0.30555  0.55843 11.00000  0.02742   3.60
C00H  1  0.72259  0.61265  0.57433 11.00000  0.04409   3.48
C00I  1  0.95618  0.50000  0.39667 10.50000  0.07101   3.44
C00J  1  1.00089  0.41964  0.21851 11.00000  0.20968   3.18
C00K  1  0.82711  0.50000  0.53717 10.50000  0.00010   3.14
HKLF 4
END
