TITL P2_expF_0_9_expS_1_5_P2_a.res in Pm
REM Old TITL P2(1)-1 in P2(1)
REM SHELXT solution in Pm: R1 0.347, Rweak 0.833, Alpha 0.123
REM <I/s>   0.000 for    0 systematic absences,  Orientation as input
REM Formula found by SHELXT:  C27 N11 O10

CELL  0.71073   7.0400   9.2600  11.5800   90.000   97.780   90.000
ZERR   15.000   0.0014   0.0019   0.0023    0.000    0.030    0.000
LATT -1
SYMM X, -Y, Z
SFAC C H N O
UNIT 15 15 15 15
L.S. 10
BOND
LIST 6
FMAP 2
PLAN 20
O001  4 -0.12825  0.00000  0.14460 10.50000  0.00957  13.86
O002  4  0.57360  0.00000  0.75367 10.50000  0.00010  11.99
O003  4  0.92654  0.50000  0.94355 10.50000  0.00010  10.92
O004  4  0.59187  0.50000  0.10620 10.50000  0.00034  10.12
O005  4  0.56742  0.32264  0.73234 11.00000  0.03472   8.77
N006  3  0.15420  0.00000  0.23563 10.50000  0.01507   8.70
N007  3  0.39560  0.33856  0.29021 11.00000  0.01500   8.51
O008  4  0.50326  0.19180  0.92739 11.00000  0.01556   7.95
N009  3  0.23129  0.11818  0.22441 11.00000  0.00171   7.82
N00A  3  0.58687  0.27576  0.25274 11.00000  0.01729   7.60
O00B  4  0.29734  0.50000  0.42627 10.50000  0.00010   7.58
O00C  4  0.16325  0.50000  0.14917 10.50000  0.00010   7.57
C00D  1  0.26918  0.00000  0.16037 10.50000  0.00010   7.30
C00E  1  0.64348  0.50000  0.20777 10.50000  0.00010   6.68
N00F  3  0.26511  0.19495  0.90382 11.00000  0.05225   6.67
N00G  3  0.77973  0.42864  0.86380 11.00000  0.01586   6.58
C00H  1  0.59951  0.50000  0.36280 10.50000  0.00010   6.49
C00I  1  1.14023  0.52963  0.72931 11.00000  0.00010   6.16
C00J  1  0.45137  0.00000  0.12315 10.50000  0.00010   6.13
C00K  1  0.05641  0.09172  0.30765 11.00000  0.01238   5.59
C00L  1  1.28097  0.50000  0.82709 10.50000  0.00010   5.28
C00M  1  0.09126  0.00000  0.05645 10.50000  0.06833   5.02
C00N  1  0.55761  0.15400  0.43659 11.00000  0.00010   4.89
C00O  1  0.42645  0.00000  0.43258 10.50000  0.00010   4.23
C00P  1  0.01389  0.11755  0.73694 11.00000  0.04016   4.07
C00Q  1 -0.28097  0.00000  0.27197 10.50000  0.00010   4.03
C00R  1  0.39202  0.27769  0.37343 11.00000  0.00675   3.92
C00S  1  0.85262  0.50000  0.78363 10.50000  0.00666   3.90
C00T  1  0.62626  0.12931  0.80995 11.00000  0.00659   3.67
C00U  1  0.65649  0.10213  0.62672 11.00000  0.00010   3.64
C00V  1  0.34633  0.19299  0.22712 11.00000  0.00419   3.49
C00W  1  0.56837  0.36843  0.48147 11.00000  0.05820   3.28
HKLF 4
END
