TITL P2_expF_1_0_expS_1_2_P2_a.res in Pm
REM Old TITL P2(1)-1 in P2(1)
REM SHELXT solution in Pm: R1 0.396, Rweak 0.688, Alpha 0.128
REM <I/s>   0.000 for    0 systematic absences,  Orientation as input
REM Formula found by SHELXT:  C29 N11 O21 Br

CELL  0.71073   7.0400   9.2600  11.5800   90.000   97.780   90.000
ZERR   15.000   0.0014   0.0019   0.0023    0.000    0.030    0.000
LATT -1
SYMM X, -Y, Z
SFAC C H N O BR
UNIT 15 15 15 15 0
L.S. 10
BOND
LIST 6
FMAP 2
PLAN 20
BR01  5  0.45240  0.50000 -0.23055 10.50000  0.01996  37.68
O002  4  0.15464  0.64859  0.42990 11.00000  0.06174  14.45
N003  3 -0.38710  0.50000  0.26001 10.50000  0.04487  13.00
O004  4  0.63860  0.50000  0.06569 10.50000  0.04619  12.89
N005  3  0.10352  0.50000  0.30456 10.50000  0.00304  10.71
O006  4  0.34544  1.00000  0.75210 10.50000  0.07863  10.62
O007  4  1.09289  1.00000  1.02360 10.50000  0.07064  10.61
N008  3  0.43979  0.50000  0.04802 10.50000  0.00010  10.05
O009  4  0.50093  0.75418  0.70295 11.00000  0.07483   9.91
O00A  4 -0.20874  0.29389  0.30163 11.00000  0.10055   9.79
N00B  3  0.10083  0.50000 -0.24492 10.50000  0.05910   9.60
O00C  4  0.23290  0.63981  0.10162 11.00000  0.06453   9.51
O00D  4  1.38710  1.00000  1.26942 10.50000  0.07115   9.26
O00E  4  0.43291  0.50000 -0.00299 10.50000  0.02037   9.03
O00F  4 -0.05297  0.34845 -0.25351 11.00000  0.08672   8.69
O00G  4  0.39406  0.64703  0.27344 11.00000  0.06160   8.52
O00H  4  0.07929  0.62195  0.58712 11.00000  0.09170   7.98
N00I  3  0.09147  0.50000  0.25472 10.50000  0.00010   7.75
O00J  4  0.24151  1.00000  0.66526 10.50000  0.09746   7.25
C00K  1  0.58672  0.50000 -0.00668 10.50000  0.02193   6.82
N00L  3  0.58939  0.41158 -0.06207 11.00000  0.10543   6.62
N00M  3 -0.25676  0.36325 -0.20007 11.00000  0.09668   6.53
C00N  1  1.34521  1.11055  1.07709 11.00000  0.08496   6.47
C00O  1  0.55904  1.00000  0.82054 10.50000  0.02464   6.39
C00P  1  0.60963  0.88246  0.76990 11.00000  0.09025   6.22
O00Q  4 -0.09213  0.00000  0.25382 10.50000  0.02043   5.82
C00R  1 -0.25893  0.50000  0.41992 10.50000  0.00010   5.82
C00S  1 -0.19650  0.45637 -0.26942 11.00000  0.08032   5.79
C00T  1 -0.06990  0.00000  0.35467 10.50000  0.02541   5.56
C00U  1 -0.24717  0.50000  0.39095 10.50000  0.01708   5.43
C00V  1  0.56751  0.64300  0.58722 11.00000  0.12522   5.43
C00W  1 -0.07685  0.00000  0.30542 10.50000  0.00010   5.19
C00X  1  0.80036  1.00000  1.01718 10.50000  0.04114   5.17
C00Y  1  0.23963  0.67727 -0.04565 11.00000  0.06420   5.14
C00Z  1  0.16376  0.62310  0.27845 11.00000  0.07301   4.54
C010  1 -0.21678  0.50000  0.35196 10.50000  0.00010   4.35
C011  1  0.76046  1.00000  0.81208 10.50000  0.04965   4.33
N012  3 -0.25337  0.50000  0.46495 10.50000  0.00010   4.31
C013  1 -0.06170  0.50000  0.24305 10.50000  0.03144   4.22
C014  1  0.28019  0.50000 -0.18969 10.50000  0.01790   3.99
N015  3  0.25016  0.50000 -0.14560 10.50000  0.03554   3.80
C016  1 -0.15097  0.21561  0.21813 11.00000  0.10721   3.58
C017  1  0.38510  0.64465  0.45244 11.00000  0.08082   3.30
C018  1  0.10367  1.11740  0.77383 11.00000  0.05856   3.26
HKLF 4
END
