TITL P2_expF_0_9_expS_1_2_P2_a.res in Pm
REM Old TITL P2(1)-1 in P2(1)
REM SHELXT solution in Pm: R1 0.288, Rweak 0.682, Alpha 0.065
REM <I/s>   0.000 for    0 systematic absences,  Orientation as input
REM Formula found by SHELXT:  C29 N11 O14 Br2

CELL  0.71073   7.0400   9.2600  11.5800   90.000   97.780   90.000
ZERR   15.000   0.0014   0.0019   0.0023    0.000    0.030    0.000
LATT -1
SYMM X, -Y, Z
SFAC C H N O BR
UNIT 15 15 15 15 0
L.S. 10
BOND
LIST 6
FMAP 2
PLAN 20
BR01  5  0.79181  1.00000  0.39967 10.50000  0.04075  31.83
BR02  5  0.39730  1.00000  0.90908 10.50000  0.07290  31.58
N003  3  0.54138  0.50000  0.37177 10.50000  0.00010  17.41
O004  4  0.55790  1.00000  0.57019 10.50000  0.03554  12.09
C005  1  0.36282  0.50000  0.73083 10.50000  0.00010  11.17
O006  4  0.57827  1.29891  0.87639 11.00000  0.02498  11.09
O007  4  1.08706  1.00000  0.12120 10.50000  0.00221  10.64
O008  4  0.96072  0.70507  0.19271 11.00000  0.01388  10.28
O009  4  0.15332  0.50000  0.64717 10.50000  0.00010   9.88
O00A  4  0.86348  0.50000  0.11662 10.50000  0.00010   9.66
N00B  3  0.74282  1.00000  0.89631 10.50000  0.00010   9.35
O00C  4  0.13720  0.61028  0.82983 11.00000  0.00694   9.33
N00D  3  0.21737  1.00000  0.78660 10.50000  0.00594   9.26
O00E  4  0.99440  1.00000  0.26111 10.50000  0.00627   9.24
O00F  4  0.54223  1.00000  0.21038 10.50000  0.00010   9.22
N00G  3  0.44149  0.39391  0.40449 11.00000  0.00010   8.96
O00H  4  0.44566  0.50000  0.16994 10.50000  0.00010   8.63
N00I  3  0.81269  0.50000  0.49082 10.50000  0.00235   7.99
O00J  4  0.21815  0.50000  0.51612 10.50000  0.03440   7.91
N00K  3  0.62045  1.00000  0.83244 10.50000  0.00010   7.42
N00L  3  0.02230  0.50000  0.73705 10.50000  0.00010   6.88
N00M  3  0.71962  0.82984  0.07785 11.00000  0.04206   6.84
C00N  1  0.83417  1.00000  0.15017 10.50000  0.00010   6.76
N00O  3  0.31954  0.50000  0.88189 10.50000  0.00010   6.68
C00P  1  0.75270  1.00000  0.32504 10.50000  0.00010   6.57
C00Q  1  0.93724  1.00000  0.91046 10.50000  0.00010   6.37
C00R  1  0.72227  1.00000  0.48907 10.50000  0.00010   6.02
C00S  1  0.86183  1.16716  0.88445 11.00000  0.00010   5.61
C00T  1  0.33773  0.17486  0.51583 11.00000  0.00010   5.52
C00U  1  0.63289  0.50000  0.22825 10.50000  0.00010   5.08
C00V  1  0.77157  0.78843  0.20977 11.00000  0.00010   4.82
C00W  1  1.04873  1.12781  0.88792 11.00000  0.09786   4.74
C00X  1  0.62315  1.00000  0.68882 10.50000  0.00010   4.58
C00Y  1  0.27851  0.31128  0.45493 11.00000  0.00010   4.52
C00Z  1  0.62277  1.14715  0.72917 11.00000  0.00010   3.86
C010  1  0.59085  1.00000  0.18787 10.50000  0.00010   3.78
C011  1  0.15411  0.69608  0.68542 11.00000  0.00010   3.64
C012  1 -0.08706  0.50000  0.92215 10.50000  0.01173   3.50
C013  1  0.34015  1.00000  0.20339 10.50000  0.01598   3.45
C014  1  0.35546  0.50000  0.44046 10.50000  0.00010   3.18
C015  1  0.82153  0.35574  0.41629 11.00000  0.00442   3.14
C016  1  0.90232  1.07854  0.34876 11.00000  0.00010   3.04
HKLF 4
END
