TITL P2_expF_0_9_expS_1_4_P2_a.res in Pm
REM Old TITL P2(1)-1 in P2(1)
REM SHELXT solution in Pm: R1 0.339, Rweak 0.702, Alpha 0.123
REM <I/s>   0.000 for    0 systematic absences,  Orientation as input
REM Formula found by SHELXT:  C26 N11 O10

CELL  0.71073   7.0400   9.2600  11.5800   90.000   97.780   90.000
ZERR   15.000   0.0014   0.0019   0.0023    0.000    0.030    0.000
LATT -1
SYMM X, -Y, Z
SFAC C H N O
UNIT 15 15 15 15
L.S. 10
BOND
LIST 6
FMAP 2
PLAN 20
O001  4 -0.13250  0.00000  0.11942 10.50000  0.00010  13.86
O002  4  0.56649  0.00000  0.72973 10.50000  0.00010  11.99
O003  4  0.91256  0.50000  0.91777 10.50000  0.00010  10.92
O004  4  0.58038  0.50000  0.08223 10.50000  0.00625  10.12
O005  4  0.56662  0.32527  0.70756 11.00000  0.03535   8.77
N006  3  0.12640  0.00000  0.21053 10.50000  0.00010   8.70
N007  3  0.38901  0.33937  0.26677 11.00000  0.01142   8.51
O008  4  0.50527  0.18610  0.90519 11.00000  0.02743   7.95
N009  3  0.22758  0.12530  0.19568 11.00000  0.00010   7.82
N00A  3  0.57443  0.28677  0.23058 11.00000  0.01621   7.60
O00B  4  0.28373  0.50000  0.40343 10.50000  0.00010   7.58
O00C  4  0.14183  0.50000  0.12379 10.50000  0.00010   7.57
C00D  1  0.27567  0.00000  0.13322 10.50000  0.00010   7.30
C00E  1  0.62297  0.50000  0.18098 10.50000  0.00010   6.68
N00F  3  0.25632  0.20180  0.88332 11.00000  0.04346   6.67
N00G  3  0.76852  0.42700  0.83902 11.00000  0.00696   6.58
C00H  1  0.60175  0.50000  0.33521 10.50000  0.00010   6.49
C00I  1  1.12770  0.53562  0.70436 11.00000  0.00010   6.16
C00J  1  0.44469  0.00000  0.09441 10.50000  0.00010   6.13
C00K  1  0.05180  0.05878  0.28061 11.00000  0.01083   5.59
C00L  1  1.27334  0.50000  0.80021 10.50000  0.00010   5.28
C00M  1  0.55254  0.16238  0.41177 11.00000  0.00010   4.89
C00N  1  0.41721  0.00000  0.40755 10.50000  0.00010   4.23
C00O  1  0.00380  0.10593  0.71525 11.00000  0.05416   4.07
C00P  1 -0.27334  0.00000  0.24859 10.50000  0.00010   4.03
C00Q  1  0.38624  0.28484  0.35108 11.00000  0.00306   3.92
C00R  1  0.84209  0.50000  0.76051 10.50000  0.00853   3.90
C00S  1  0.61292  0.12677  0.78508 11.00000  0.00666   3.67
C00T  1  0.64812  0.10178  0.60132 11.00000  0.00010   3.64
C00U  1  0.34857  0.18109  0.20882 11.00000  0.00550   3.49
C00V  1  0.56302  0.37234  0.45721 11.00000  0.07095   3.28
HKLF 4
END
