TITL P2_expF_1_1_expS_1_0_P2_a.res in Pm
REM Old TITL P2(1)-1 in P2(1)
REM SHELXT solution in Pm: R1 0.517, Rweak 0.844, Alpha 0.288
REM <I/s>   0.000 for    0 systematic absences,  Orientation as input
REM Formula found by SHELXT:  C16 N2 O9

CELL  0.71073   7.0400   9.2600  11.5800   90.000   97.780   90.000
ZERR   15.000   0.0014   0.0019   0.0023    0.000    0.030    0.000
LATT -1
SYMM X, -Y, Z
SFAC C H N O
UNIT 15 15 15 15
L.S. 10
BOND
LIST 6
FMAP 2
PLAN 20
O001  4 -0.62057  0.00000  0.51244 10.50000  0.04537  12.27
O002  4  0.80967  0.50000  0.69719 10.50000  0.01755  11.57
O003  4  0.02953  0.00000  0.02782 10.50000  0.00010  10.30
O004  4  0.08086  0.34598  0.52705 11.00000  0.03059   8.41
O005  4 -0.10838  0.00000  0.21177 10.50000  0.00541   7.59
N006  3 -0.33996  0.00000  0.41191 10.50000  0.09185   7.03
N007  3  0.58845  0.50000  0.48470 10.50000  0.01555   6.95
C008  1  0.17268  0.50000  0.48852 10.50000  0.00257   5.90
C009  1  1.62057  0.50000  0.96870 10.50000  0.07174   5.87
O00A  4 -0.31604  0.08823  0.52554 11.00000  0.03988   5.13
C00B  1  1.40668  0.50000  1.18853 10.50000  0.02076   4.90
C00C  1  1.04826  0.50000  1.03137 10.50000  0.00822   4.71
C00D  1  1.05396  0.50000  0.84688 10.50000  0.00010   4.69
C00E  1  0.01860  0.00000 -0.18853 10.50000  0.04135   4.63
C00F  1  1.06921  0.62733  0.99678 11.00000  0.03517   4.35
C00G  1  1.40461  0.50000  1.04315 10.50000  0.10781   4.11
C00H  1 -0.04475  0.16406  0.49684 11.00000  0.07611   4.08
O00I  4  0.27177  0.50000  0.48469 10.50000  0.24738   3.56
C00J  1  0.21644  0.14794  0.17859 11.00000  0.06520   3.50
C00K  1  1.33383  0.50000  0.85375 10.50000  0.04416   3.48
C00L  1 -0.43088 -0.07840 -0.14768 11.00000  0.01275   3.36
HKLF 4
END
