TITL P2_expF_0_8_expS_1_2_P2_a.res in P2
REM Old TITL P2(1)-1 in P2(1)
REM SHELXT solution in P2: R1 0.295, Rweak 0.847, Alpha 0.220
REM <I/s>   0.000 for    0 systematic absences,  Orientation as input
REM Formula found by SHELXT:  C27 N5 O9 Br

CELL  0.71073   7.0400   9.2600  11.5800   90.000   97.780   90.000
ZERR   15.000   0.0014   0.0019   0.0023    0.000    0.030    0.000
LATT -1
SYMM -X, Y, -Z
SFAC C H N O BR
UNIT 15 15 15 15 0
L.S. 10
BOND
LIST 6
FMAP 2
PLAN 20
BR01  5  1.00000  0.92107  0.50000 10.50000  0.00242  27.26
N002  3  0.50000  0.48775  0.00000 10.50000  0.02667  18.27
O003  4  0.00000  0.32728  0.00000 10.50000  0.06095  10.35
O004  4  0.19856  0.07893  0.01068 11.00000  0.10967   9.61
O005  4  0.24817  0.83786  0.29470 11.00000  0.04201   9.11
N006  3  0.49418  0.35407  0.52679 11.00000  0.00010   8.45
O007  4  0.34739  0.82347 -0.00632 11.00000  0.08519   7.73
N008  3  0.25847  0.30651  0.48863 11.00000  0.05020   7.17
C009  1  0.30952  0.33625 -0.04595 11.00000  0.03525   5.47
C00A  1  0.59453  0.70565  0.48710 11.00000  0.00010   5.28
C00B  1  1.00000  0.74245  0.00000 10.50000  0.00547   4.97
C00C  1  0.28654  0.84009  0.20230 11.00000  0.05130   4.75
C00D  1  0.49085  0.09643  0.53219 11.00000  0.00010   4.30
C00E  1  0.14061  0.27736  0.09221 11.00000  0.00575   4.25
O00F  4  0.18116  0.51755  0.30346 11.00000  0.10201   4.15
C00G  1  0.27710  0.35575  0.60596 11.00000  0.00447   4.09
C00H  1  0.26508  0.36942  0.54166 11.00000  0.00010   3.99
C00I  1  0.76011  0.56822 -0.02632 11.00000  0.01301   3.94
C00J  1  0.43473  0.25323  0.18200 11.00000  0.08218   3.94
C00K  1  0.41853  0.59491  0.25419 11.00000  0.00341   3.81
C00L  1  0.63242  0.74677  0.42708 11.00000  0.00363   3.43
C00M  1 -0.05911  0.12305  0.18395 11.00000  0.05031   3.39
C00N  1  0.58405  0.58892  0.19921 11.00000  0.01698   3.26
HKLF 4
END
