TITL P2_expF_1_0_expS_1_5_P2_a.res in Pm
REM Old TITL P2(1)-1 in P2(1)
REM SHELXT solution in Pm: R1 0.409, Rweak 0.658, Alpha 0.038
REM <I/s>   0.000 for    0 systematic absences,  Orientation as input
REM Formula found by SHELXT:  C15 N4 O3

CELL  0.71073   7.0400   9.2600  11.5800   90.000   97.780   90.000
ZERR   15.000   0.0014   0.0019   0.0023    0.000    0.030    0.000
LATT -1
SYMM X, -Y, Z
SFAC C H N O
UNIT 15 15 15 15
L.S. 10
BOND
LIST 6
FMAP 2
PLAN 20
O001  4  0.69173  1.00000  0.32518 10.50000  0.01155  11.29
O002  4 -0.20411  0.50000  0.13316 10.50000  0.00010  10.70
O003  4  0.25406  0.50000  0.13887 10.50000  0.08899   7.01
C004  1  0.07197  0.41729  0.31177 11.00000  0.01414   4.62
C005  1 -0.02214  0.50000  0.35831 10.50000  0.01770   4.58
C006  1  0.39435  0.50000  0.32079 10.50000  0.15810   4.43
C007  1  0.15115  1.00000  0.37118 10.50000  0.00010   4.18
N008  3  0.67140  0.50000  0.82639 10.50000  0.05944   3.89
N009  3  1.20411  0.77181  0.86127 11.00000  0.03026   3.78
C00A  1  0.80606  1.00000  0.86684 10.50000  0.00010   3.75
C00B  1  0.36663  0.76389  0.38086 11.00000  0.02221   3.68
C00C  1  0.46180  0.74371  0.32572 11.00000  0.04472   3.58
N00D  3  1.04296  0.50000  0.82152 10.50000  0.00010   3.54
C00E  1  0.70987  0.74485  0.80278 11.00000  0.02333   3.31
C00F  1  0.52600  1.00000  0.82556 10.50000  0.04814   3.25
C00G  1  0.59871  0.73940  0.62539 11.00000  0.06293   3.03
HKLF 4
END
