TITL P2_expF_0_8_expS_1_1_P2_a.res in P2
REM Old TITL P2(1)-1 in P2(1)
REM SHELXT solution in P2: R1 0.299, Rweak 0.688, Alpha 0.220
REM <I/s>   0.000 for    0 systematic absences,  Orientation as input
REM Formula found by SHELXT:  C29 N5 O9 Br

CELL  0.71073   7.0400   9.2600  11.5800   90.000   97.780   90.000
ZERR   15.000   0.0014   0.0019   0.0023    0.000    0.030    0.000
LATT -1
SYMM -X, Y, -Z
SFAC C H N O BR
UNIT 15 15 15 15 0
L.S. 10
BOND
LIST 6
FMAP 2
PLAN 20
BR01  5  1.50000  0.85723  1.00000 10.50000  0.00133  27.26
N002  3  0.00000  0.46364  0.50000 10.50000  0.02772  18.27
O003  4 -0.50000  0.25117  0.50000 10.50000  0.01470  10.35
O004  4 -0.43396  0.15297  0.43285 11.00000  0.12079   9.61
O005  4  0.74030  0.76517  0.79026 11.00000  0.02180   9.11
N006  3  1.16015  0.23276  0.99612 11.00000  0.00010   8.45
O007  4  0.65200  0.78019  0.50929 11.00000  0.08334   7.73
N008  3  1.37405  0.21826  1.05759 11.00000  0.07393   7.17
C009  1 -0.13906  0.28992  0.44818 11.00000  0.03587   5.47
C00A  1  1.08648  0.59666  0.98802 11.00000  0.00010   5.28
C00B  1  0.50000  0.59566  0.50000 10.50000  0.01020   4.97
C00C  1  0.77967  0.73363  0.70173 11.00000  0.01781   4.75
C00D  1  0.98076  0.04918  0.95140 11.00000  0.06279   4.30
C00E  1 -0.25274  0.21964  0.60356 11.00000  0.01769   4.25
O00F  4  0.74440  0.39982  0.79444 11.00000  0.05574   4.15
C00G  1  1.12513  0.19147  0.91510 11.00000  0.00010   4.09
C00H  1  1.13964  0.37826  0.94665 11.00000  0.04307   3.99
C00I  1  0.18267  0.48974  0.46575 11.00000  0.01270   3.94
C00J  1  0.92196  0.96870  0.73661 11.00000  0.10515   3.94
C00K  1  0.92827  0.54739  0.75080 11.00000  0.00010   3.81
C00L  1  1.13427  0.71967  0.93234 11.00000  0.01635   3.43
C00M  1 -0.43771  0.03130  0.31870 11.00000  0.03673   3.39
C00N  1  1.07798  0.51919  0.70844 11.00000  0.02234   3.26
C00O  1  1.18486  0.88917  0.77675 11.00000  0.09888   3.12
HKLF 4
END
