TITL P2_expF_0_8_expS_1_3_P2_a.res in P2
REM Old TITL P2(1)-1 in P2(1)
REM SHELXT solution in P2: R1 0.312, Rweak 0.983, Alpha 0.220
REM <I/s>   0.000 for    0 systematic absences,  Orientation as input
REM Formula found by SHELXT:  C29 N3 O9 Br

CELL  0.71073   7.0400   9.2600  11.5800   90.000   97.780   90.000
ZERR   15.000   0.0014   0.0019   0.0023    0.000    0.030    0.000
LATT -1
SYMM -X, Y, -Z
SFAC C H N O BR
UNIT 15 15 15 15 0
L.S. 10
BOND
LIST 6
FMAP 2
PLAN 20
BR01  5  0.50000  0.29234  0.50000 10.50000  0.00100  27.26
N002  3  1.00000  0.86858  0.00000 10.50000  0.00427  18.27
O003  4  0.50000  0.73655  0.00000 10.50000  0.06171  10.35
O004  4  0.50931  0.57219  0.03515 11.00000  0.04268   9.61
O005  4 -0.24615  0.21104  0.28965 11.00000  0.03511   9.11
O006  4 -0.17392  0.24435 -0.00493 11.00000  0.15429   7.73
N007  3  0.76429  0.68810  0.49040 11.00000  0.04261   7.17
C008  1  1.15675  0.71970  0.05126 11.00000  0.01177   5.47
C009  1  0.06283  0.03439  0.47796 11.00000  0.03034   5.28
C00A  1 -0.50000  0.13216  0.00000 10.50000  0.01059   4.97
C00B  1 -0.21298  0.22559  0.20986 11.00000  0.01817   4.75
C00C  1 -0.02285  0.43076  0.46315 11.00000  0.04920   4.30
C00D  1  0.63567  0.63701  0.10199 11.00000  0.01628   4.25
O00E  4  0.72436  0.87128  0.30362 11.00000  0.08972   4.15
C00F  1  0.76889  0.70830  0.60966 11.00000  0.00010   4.09
C00G  1  0.75323  0.72952  0.54682 11.00000  0.00010   3.99
C00H  1  1.18353  0.89745 -0.02514 11.00000  0.04428   3.94
C00I  1  0.89995  0.68172  0.17816 11.00000  0.08617   3.94
C00J  1  0.91209  0.94901  0.25567 11.00000  0.00010   3.81
C00K  1  0.15549  0.15683  0.43466 11.00000  0.02954   3.43
C00L  1  0.27464  0.48788  0.18402 11.00000  0.11403   3.39
C00M  1  1.10434  0.96561  0.20669 11.00000  0.02965   3.26
C00N  1  0.05215  0.30755  0.26221 11.00000  0.12481   3.12
HKLF 4
END
