TITL P2_expF_0_7_expS_1_5_P2_a.res in Pm
REM Old TITL P2(1)-1 in P2(1)
REM SHELXT solution in Pm: R1 0.284, Rweak 0.744, Alpha 0.058
REM <I/s>   0.000 for    0 systematic absences,  Orientation as input
REM Formula found by SHELXT:  C27 N14 O15 Cl3

CELL  0.71073   7.0400   9.2600  11.5800   90.000   97.780   90.000
ZERR   15.000   0.0014   0.0019   0.0023    0.000    0.030    0.000
LATT -1
SYMM X, -Y, Z
SFAC C H N O CL
UNIT 15 15 15 15 0
L.S. 10
BOND
LIST 6
FMAP 2
PLAN 20
CL01  5  0.51558  0.50000  0.26507 10.50000  0.05380  23.35
N002  3  0.99305  0.85081  0.05536 11.00000  0.00010  12.33
CL03  5  0.51564  0.68741  1.06860 11.00000  0.02662  12.16
N004  3  0.54431  0.50000  0.45608 10.50000  0.00010  10.84
O005  4  1.00238  1.00000 -0.06860 10.50000  0.00010  10.81
O006  4 -0.06003  0.50000  1.00766 10.50000  0.00414  10.36
C007  1  0.25193  0.50000  0.92515 10.50000  0.02109  10.34
O008  4  0.46717  0.74637  0.55497 11.00000  0.03393   9.89
O009  4  0.29711  0.50000  1.03843 10.50000  0.00010   9.82
N00A  3 -0.39305 -0.06370  0.40379 11.00000  0.06198   9.50
N00B  3  0.28466  0.50000  0.89384 10.50000  0.13873   9.44
N00C  3  1.10992  1.00000  0.03189 10.50000  0.00010   9.07
N00D  3  0.02941  0.50000  0.54013 10.50000  0.00154   8.88
O00E  4  0.54522  0.50000  1.00678 10.50000  0.00010   8.72
N00F  3 -0.19165  0.00000  0.49410 10.50000  0.01187   8.54
O00G  4  0.05030  0.00000  0.41417 10.50000  0.00010   8.38
O00H  4  1.52124  1.00000  0.00489 10.50000  0.00010   7.95
N00I  3  0.12423  0.41182  0.49836 11.00000  0.00584   7.80
O00J  4  0.59515  0.50000  0.77086 10.50000  0.05400   7.76
O00K  4  0.19388  0.14912  0.53197 11.00000  0.03812   7.50
N00L  3  1.28618  1.00000 -0.01558 10.50000  0.00010   7.30
C00M  1 -0.52124  0.00000  0.41874 10.50000  0.01513   7.27
N00N  3  0.74473  1.00000  0.09333 10.50000  0.00010   6.71
N00O  3  0.71809  0.50000  0.38567 10.50000  0.00010   6.66
O00P  4  0.24193  0.29001  0.42219 11.00000  0.08909   6.61
C00Q  1  0.86335  0.59822  0.31910 11.00000  0.00950   5.96
O00R  4  0.75008  0.78543  0.21530 11.00000  0.07454   5.94
C00S  1  0.03563  0.61874  0.87015 11.00000  0.00010   5.76
C00T  1 -0.21161  0.15576  0.53963 11.00000  0.00010   5.37
C00U  1  0.42081  0.77107  0.72862 11.00000  0.01285   5.26
C00V  1  0.12028  0.76278  0.72033 11.00000  0.11896   4.90
C00W  1  0.92277  1.00000  0.04257 10.50000  0.00010   4.87
C00X  1 -0.06628  0.62753  0.71987 11.00000  0.05512   4.84
C00Y  1  0.32142  0.58031  0.59190 11.00000  0.00525   4.45
C00Z  1  0.59597  0.64740  0.52855 11.00000  0.02673   4.00
C010  1  0.31874  0.50000  0.54689 10.50000  0.02744   3.98
C011  1  1.09723  0.73842  0.12246 11.00000  0.03687   3.89
C012  1  1.01923  0.69173  0.24456 11.00000  0.01744   3.82
C013  1  0.36982  0.50000  0.37025 10.50000  0.00010   3.12
C014  1  0.59595  0.63716  0.33571 11.00000  0.00010   3.04
HKLF 4
END
