TITL P2_expF_0_8_expS_1_5_P2_a.res in P2
REM Old TITL P2(1)-1 in P2(1)
REM SHELXT solution in P2: R1 0.333, Rweak 0.993, Alpha 0.220
REM <I/s>   0.000 for    0 systematic absences,  Orientation as input
REM Formula found by SHELXT:  C29 N5 O9 Br

CELL  0.71073   7.0400   9.2600  11.5800   90.000   97.780   90.000
ZERR   15.000   0.0014   0.0019   0.0023    0.000    0.030    0.000
LATT -1
SYMM -X, Y, -Z
SFAC C H N O BR
UNIT 15 15 15 15 0
L.S. 10
BOND
LIST 6
FMAP 2
PLAN 20
BR01  5  1.50000  0.91809  1.00000 10.50000  0.00010  27.26
N002  3  0.00000  0.58755  0.50000 10.50000  0.02433  18.27
O003  4  0.50000  0.36238  0.50000 10.50000  0.05125  10.35
O004  4  0.46171  0.16341  0.44955 11.00000  0.10040   9.61
O005  4  0.75064  0.83930  0.79366 11.00000  0.03507   9.11
N006  3 -0.00268  0.31528  0.03297 11.00000  0.02327   8.45
O007  4  0.70040  0.85918  0.50597 11.00000  0.12148   7.73
N008  3 -0.17945  0.28751  0.00646 11.00000  0.00305   7.17
C009  1  0.22284  0.34241  0.54936 11.00000  0.00010   5.47
C00A  1  1.02986  0.71526  0.98379 11.00000  0.00010   5.28
C00B  1  0.50000  0.74046  0.50000 10.50000  0.00227   4.97
C00C  1  0.74259  0.84953  0.70505 11.00000  0.08206   4.75
C00D  1  0.01198  0.08191  0.06245 11.00000  0.02876   4.30
C00E  1  0.33038  0.28176  0.40237 11.00000  0.00010   4.25
O00F  4  0.21502  0.47459  0.19698 11.00000  0.11181   4.15
C00G  1 -0.09466  0.29765  0.09282 11.00000  0.00010   4.09
C00H  1 -0.22311  0.35275  0.06256 11.00000  0.07080   3.99
C00I  1  0.28374  0.50852  0.47257 11.00000  0.00010   3.94
C00J  1  0.03767  0.22269  0.27525 11.00000  0.10925   3.94
C00K  1  0.06701  0.57019  0.24465 11.00000  0.00010   3.81
C00L  1  1.13850  0.77414  0.93081 11.00000  0.00770   3.43
C00M  1  0.66702  0.11790  0.35848 11.00000  0.14259   3.39
C00N  1 -0.10541  0.56439  0.28510 11.00000  0.04964   3.26
C00O  1  1.01975  0.88071  0.75394 11.00000  0.09835   3.12
HKLF 4
END
