TITL P2_expF_0_8_expS_1_4_P2_a.res in P2
REM Old TITL P2(1)-1 in P2(1)
REM SHELXT solution in P2: R1 0.326, Rweak 1.059, Alpha 0.220
REM <I/s>   0.000 for    0 systematic absences,  Orientation as input
REM Formula found by SHELXT:  C29 N3 O9 Br

CELL  0.71073   7.0400   9.2600  11.5800   90.000   97.780   90.000
ZERR   15.000   0.0014   0.0019   0.0023    0.000    0.030    0.000
LATT -1
SYMM -X, Y, -Z
SFAC C H N O BR
UNIT 15 15 15 15 0
L.S. 10
BOND
LIST 6
FMAP 2
PLAN 20
BR01  5  1.50000  0.29052  1.00000 10.50000  0.00010  27.26
N002  3  0.00000  0.88657  0.50000 10.50000  0.00121  18.27
O003  4  0.50000  0.74468  0.50000 10.50000  0.04083  10.35
O004  4  0.49226  0.58085  0.45612 11.00000  0.09954   9.61
O005  4  0.77505  0.22654  0.78915 11.00000  0.03933   9.11
O006  4  0.77119  0.32499  0.50004 11.00000  0.17782   7.73
N007  3  1.21912  0.67165  1.01198 11.00000  0.04117   7.17
C008  1  0.18939  0.71601  0.54757 11.00000  0.00010   5.47
C009  1  1.05288  0.04550  0.98247 11.00000  0.00162   5.28
C00A  1  0.50000  0.10590  0.50000 10.50000  0.00010   4.97
C00B  1  0.80810  0.24774  0.71167 11.00000  0.01598   4.75
C00C  1  1.00060  0.45829  0.94884 11.00000  0.04643   4.30
C00D  1  0.35106  0.63612  0.39867 11.00000  0.02136   4.25
O00E  4 -0.23422  0.84829  0.80177 11.00000  0.07967   4.15
C00F  1  1.21259  0.71489  0.89485 11.00000  0.00662   4.09
C00G  1  1.22745  0.73355  0.95720 11.00000  0.00010   3.99
C00H  1  0.19766  0.87821  0.47289 11.00000  0.01243   3.94
C00I  1  0.07138  0.67125  0.32152 11.00000  0.11563   3.94
C00J  1 -0.07401  0.95109  0.75393 11.00000  0.00010   3.81
C00K  1  1.16153  0.15020  0.93397 11.00000  0.02438   3.43
C00L  1  0.62397  0.46987  0.32720 11.00000  0.16059   3.39
C00M  1  0.11155  0.95450  0.70533 11.00000  0.01865   3.26
C00N  1  1.01983  0.34349  0.75758 11.00000  0.10452   3.12
HKLF 4
END
