TITL P2_expF_1_5_expS_0_6_P2_a.res in Pm
REM Old TITL P2(1)-1 in P2(1)
REM SHELXT solution in Pm: R1 0.513, Rweak 0.253, Alpha 0.209
REM <I/s>   0.000 for    0 systematic absences,  Orientation as input
REM Formula found by SHELXT:  C34 N16 O6 Cl3

CELL  0.71073   7.0400   9.2600  11.5800   90.000   97.780   90.000
ZERR   15.000   0.0014   0.0019   0.0023    0.000    0.030    0.000
LATT -1
SYMM X, -Y, Z
SFAC C H N O CL
UNIT 15 15 15 15 0
L.S. 10
BOND
LIST 6
FMAP 2
PLAN 20
CL01  5  0.89630  0.00000  0.44733 10.50000  0.11624  19.09
O002  4 -0.41648  0.00000 -0.03173 10.50000  0.08081  14.60
CL03  5 -0.02421  0.20654 -0.04868 11.00000  0.15288  13.10
O004  4  0.46317  0.50000  0.61732 10.50000  0.11811  11.80
N005  3  0.80356  0.50000  0.43271 10.50000  0.00010  11.36
N006  3  0.62990  0.50000  0.90362 10.50000  0.23151   9.82
N007  3  0.51587  0.38080  0.46070 11.00000  0.03305   9.44
O008  4  0.67924  0.20386  0.63121 11.00000  0.07071   8.96
O009  4  0.17973  0.50000  0.93758 10.50000  0.07833   8.65
N00A  3  0.60772  0.50000  0.44265 10.50000  0.04630   8.63
C00B  1  0.37164  0.50000  0.94918 10.50000  0.01059   8.59
O00C  4  0.68901  0.50000  0.76593 10.50000  0.10072   8.26
N00D  3  1.34275  0.00000  0.42929 10.50000  0.02225   7.91
N00E  3  0.62733  0.50000  0.51040 10.50000  0.05987   7.87
C00F  1 -0.27890  0.00000 -0.06649 10.50000  0.04097   7.17
N00G  3  0.23536  0.50000  0.45460 10.50000  0.14127   7.08
N00H  3  0.49454  0.26911  0.13207 11.00000  0.04404   6.75
N00I  3  1.26822  0.07625  0.45685 11.00000  0.00010   6.67
C00J  1  0.70289  0.40610  0.45426 11.00000  0.03974   6.39
C00K  1  1.18617  0.27527  0.40487 11.00000  0.11474   6.12
N00L  3  0.58983  0.50000  0.96233 10.50000  0.19562   5.29
C00M  1  0.80530  0.50000  0.62097 10.50000  0.00010   5.22
C00N  1  1.11351  0.16192  0.60404 11.00000  0.06035   5.14
C00O  1  0.46065  0.50000  0.75002 10.50000  0.07382   5.07
C00P  1  0.99615  0.40789  0.44267 11.00000  0.04365   4.96
C00Q  1  0.23239  0.16969 -0.06620 11.00000  0.04431   4.75
N00R  3  0.81940  0.50000  0.48535 10.50000  0.01090   4.68
C00S  1  0.48957  0.33703  0.26574 11.00000  0.04393   4.47
C00T  1  0.64895  0.00000  0.44001 10.50000  0.07162   4.43
C00U  1  0.63106  0.59598  0.94928 11.00000  0.02766   4.34
C00V  1  0.88345  0.34738  0.26816 11.00000  0.05220   4.25
C00W  1  0.77726  0.36053  0.14066 11.00000  0.03734   4.07
C00X  1  1.02231  0.11747  0.54076 11.00000  0.07309   4.03
C00Y  1  0.79915  0.50000  0.66220 10.50000  0.00010   3.91
N00Z  3  0.99674  0.50000  0.72313 10.50000  0.05307   3.90
N010  3  1.41648  0.00000  0.20849 10.50000  0.06808   3.66
C011  1  0.63018  0.21975  0.55799 11.00000  0.10929   3.56
C012  1  0.45678  0.50000  1.06649 10.50000  0.04685   3.50
C013  1  0.33383  0.50000  0.40365 10.50000  0.03663   3.36
C014  1  1.26541  0.08063  0.50455 11.00000  0.00010   3.21
C015  1  0.35926  0.34282  0.54755 11.00000  0.03961   3.05
HKLF 4
END
