TITL P2_expF_0_7_expS_1_0_P2_a.res in Pm
REM Old TITL P2(1)-1 in P2(1)
REM SHELXT solution in Pm: R1 0.259, Rweak 0.622, Alpha 0.058
REM <I/s>   0.000 for    0 systematic absences,  Orientation as input
REM Formula found by SHELXT:  C25 N13 O15 Cl3

CELL  0.71073   7.0400   9.2600  11.5800   90.000   97.780   90.000
ZERR   15.000   0.0014   0.0019   0.0023    0.000    0.030    0.000
LATT -1
SYMM X, -Y, Z
SFAC C H N O CL
UNIT 15 15 15 15 0
L.S. 10
BOND
LIST 6
FMAP 2
PLAN 20
CL01  5  0.42072  0.50000  0.52682 10.50000  0.02816  23.35
N002  3  0.89616  0.14926  0.32707 11.00000  0.00010  12.33
CL03  5  0.41938  0.30185  0.33028 11.00000  0.03870  12.16
N004  3  0.47710  0.50000  0.69761 10.50000  0.00010  10.84
O005  4  0.91525  0.00000  0.19330 10.50000  0.00334  10.81
O006  4 -0.21236  0.50000  0.27012 10.50000  0.00010  10.36
C007  1  0.12293  0.50000  0.19385 10.50000  0.00010  10.34
O008  4  0.42782  0.78060  0.81250 11.00000  0.06303   9.89
O009  4  0.20166  0.50000  0.30157 10.50000  0.00010   9.82
N00A  3  0.48745  0.93234  0.65391 11.00000  0.02449   9.50
N00B  3  1.00826  0.00000  0.29080 10.50000  0.00010   9.07
N00C  3  0.92168  0.50000  0.79928 10.50000  0.00010   8.88
O00D  4  0.43786  0.50000  0.26398 10.50000  0.00010   8.72
N00E  3  0.60708  1.00000  0.73212 10.50000  0.00010   8.54
O00F  4  0.92932  1.00000  0.68103 10.50000  0.05571   8.38
O00G  4  0.44308  0.00000  0.26188 10.50000  0.00324   7.95
N00H  3  1.01636  0.60549  0.76056 11.00000  0.00010   7.80
O00I  4  0.44451  0.50000  0.04493 10.50000  0.19269   7.76
O00J  4  1.10396  0.86800  0.80493 11.00000  0.06703   7.50
N00K  3  0.22656  0.00000  0.22446 10.50000  0.00010   7.30
C00L  1  0.38725  1.00000  0.71227 10.50000  0.00010   7.27
N00M  3  0.60044  0.00000  0.33470 10.50000  0.00010   6.71
N00N  3  0.65493  0.50000  0.69526 10.50000  0.00010   6.66
O00O  4  1.13541  0.65618  0.69939 11.00000  0.06296   6.61
C00P  1  0.78314  0.35561  0.58929 11.00000  0.05821   5.96
O00Q  4  0.67351  0.15708  0.46067 11.00000  0.05387   5.94
C00R  1 -0.05408  0.37087  0.13498 11.00000  0.00010   5.76
C00S  1  0.67287  0.85710  0.79665 11.00000  0.00676   5.37
C00T  1  1.22070  0.75507  0.99338 11.00000  0.11939   5.26
C00U  1  1.05624  0.85722  1.01580 11.00000  0.01839   4.90
C00V  1  0.83535  0.00000  0.29911 10.50000  0.00252   4.87
C00W  1 -0.22070  0.33455 -0.01580 11.00000  0.05611   4.84
C00X  1  1.17915  0.61954  0.86232 11.00000  0.00010   4.45
C00Y  1  0.48503  0.59131  0.80252 11.00000  0.00010   4.00
C00Z  1  1.11294  0.50000  0.80262 10.50000  0.01599   3.98
C010  1  0.88418  0.29852  0.51308 11.00000  0.00010   3.82
C011  1  0.30185  0.50000  0.62276 10.50000  0.02691   3.12
C012  1  0.56629  0.33066  0.61728 11.00000  0.00010   3.04
HKLF 4
END
