TITL P2_expF_0_7_expS_1_3_P2_a.res in Pm
REM Old TITL P2(1)-1 in P2(1)
REM SHELXT solution in Pm: R1 0.279, Rweak 0.776, Alpha 0.058
REM <I/s>   0.000 for    0 systematic absences,  Orientation as input
REM Formula found by SHELXT:  C25 N14 O15 Cl3

CELL  0.71073   7.0400   9.2600  11.5800   90.000   97.780   90.000
ZERR   15.000   0.0014   0.0019   0.0023    0.000    0.030    0.000
LATT -1
SYMM X, -Y, Z
SFAC C H N O CL
UNIT 15 15 15 15 0
L.S. 10
BOND
LIST 6
FMAP 2
PLAN 20
CL01  5  0.41248  0.50000  0.26179 10.50000  0.05155  23.35
N002  3  0.88186  0.15428  0.05453 11.00000  0.00854  12.33
CL03  5  0.41547  0.69336  1.06577 11.00000  0.03050  12.16
N004  3  0.46655  0.50000  0.44682 10.50000  0.01236  10.84
O005  4  0.89422  0.00000 -0.06577 10.50000  0.00235  10.81
O006  4 -0.16091  0.50000  1.00001 10.50000  0.00010  10.36
C007  1  0.15655  0.50000  0.92802 10.50000  0.00010  10.34
O008  4  0.36293  0.75913  0.54705 11.00000  0.01993   9.89
O009  4  0.20205  0.50000  1.03422 10.50000  0.00010   9.82
N00A  3  0.52689  1.00000  0.38970 11.00000  0.06878   9.50
N00B  3  0.08118  0.50000  0.88940 10.50000  0.08115   9.44
N00C  3  1.01048  0.00000  0.03117 10.50000  0.00010   9.07
N00D  3 -0.06194  0.50000  0.53887 10.50000  0.00010   8.88
O00E  4  0.43915  0.50000  1.00401 10.50000  0.00010   8.72
N00F  3  0.58791  1.00000  0.47615 10.50000  0.00010   8.54
O00G  4 -0.06069  1.00000  0.41531 10.50000  0.00010   8.38
O00H  4  0.44379  0.00000  0.00021 10.50000  0.02802   7.95
N00I  3  0.01906  0.59445  0.49892 11.00000  0.00010   7.80
O00J  4  0.48020  0.50000  0.77775 10.50000  0.06724   7.76
O00K  4  0.08005  0.86946  0.53059 11.00000  0.05895   7.50
N00L  3  1.19807  0.00000 -0.02088 10.50000  0.00010   7.30
C00M  1  0.38186  1.00000  0.41846 10.50000  0.00010   7.27
N00N  3  0.61896  0.00000  0.08657 10.50000  0.00010   6.71
N00O  3  0.62695  0.50000  0.39327 10.50000  0.00022   6.66
O00P  4  0.09935  0.66685  0.41985 11.00000  0.07041   6.61
C00Q  1  0.75876  0.38741  0.31073 11.00000  0.02327   5.96
O00R  4  0.65173  0.18526  0.21367 11.00000  0.08143   5.94
C00S  1 -0.07201  0.61815  0.87015 11.00000  0.00010   5.76
C00T  1  0.66405  0.85455  0.53841 11.00000  0.00010   5.37
C00U  1  0.31518  0.74535  0.72464 11.00000  0.03816   5.26
C00V  1  0.00907  0.78653  0.73609 11.00000  0.11533   4.90
C00W  1  0.82352  0.00000  0.03167 10.50000  0.00010   4.87
C00X  1 -0.19807  0.64595  0.70966 11.00000  0.01256   4.84
C00Y  1  0.18633  0.59514  0.59948 11.00000  0.00010   4.45
C00Z  1  0.53248  0.63612  0.52064 11.00000  0.08157   4.00
C010  1  0.21118  0.50000  0.56576 10.50000  0.00010   3.98
C011  1  0.93225  0.31292  0.24591 11.00000  0.00010   3.82
C012  1  0.29176  0.50000  0.37057 10.50000  0.00010   3.12
C013  1  0.53416  0.35258  0.33771 11.00000  0.00010   3.04
HKLF 4
END
