TITL P2_expF_1_5_expS_1_0_P2_a.res in Pm
REM Old TITL P2(1)-1 in P2(1)
REM SHELXT solution in Pm: R1 0.572, Rweak 0.204, Alpha 0.215
REM <I/s>   0.000 for    0 systematic absences,  Orientation as input
REM Formula found by SHELXT:  C25 N2 O2

CELL  0.71073   7.0400   9.2600  11.5800   90.000   97.780   90.000
ZERR   15.000   0.0014   0.0019   0.0023    0.000    0.030    0.000
LATT -1
SYMM X, -Y, Z
SFAC C H N O
UNIT 15 15 15 15
L.S. 10
BOND
LIST 6
FMAP 2
PLAN 20
O001  4  0.62234  0.50000  0.95984 10.50000  0.04569  14.79
C002  1  0.84654  0.50000  0.97394 10.50000  0.05239  10.14
N003  3  0.82414  0.50000  1.17999 10.50000  0.12260   6.68
N004  3  0.05170  0.00000 -0.02279 10.50000  0.04782   6.65
C005  1  0.94481  0.50000  0.80810 10.50000  0.06820   6.17
O006  4  1.25343  0.50000  0.45155 10.50000  0.00010   5.96
C007  1  0.33815  0.00000 -0.04374 10.50000  0.02867   5.75
C008  1  0.80405  0.50000  0.47173 10.50000  0.07443   5.61
C009  1  0.94672  0.17562  0.47070 11.00000  0.06436   5.53
C00A  1  1.25038  0.50000  0.49550 10.50000  0.00010   4.83
C00B  1  1.17991  0.50000  0.62213 10.50000  0.05392   4.80
C00C  1 -0.23740  0.00000 -0.04392 10.50000  0.03829   4.72
C00D  1  1.07576  0.62374  0.94976 11.00000  0.06626   4.67
C00E  1  0.67877  0.32743  0.65440 11.00000  0.07733   4.57
C00F  1 -0.35168  0.00000 -0.17999 10.50000  0.09288   4.32
C00G  1  1.35168  0.50000  0.73983 10.50000  0.07122   3.67
C00H  1  0.63361  0.08092  0.46284 11.00000  0.03270   3.55
C00I  1  1.23779  0.17270  0.46244 11.00000  0.08338   3.51
C00J  1  0.22337  0.00000  0.07663 10.50000  0.06686   3.46
C00K  1  0.47903  0.00000  0.14653 10.50000  0.07866   3.45
C00L  1  0.88020  0.37969  0.67116 11.00000  0.09112   3.23
C00M  1  0.49864  0.32910  0.28655 11.00000  0.06284   3.05
HKLF 4
END
