TITL P2_expF_0_7_expS_1_1_P2_a.res in Pm
REM Old TITL P2(1)-1 in P2(1)
REM SHELXT solution in Pm: R1 0.264, Rweak 0.711, Alpha 0.058
REM <I/s>   0.000 for    0 systematic absences,  Orientation as input
REM Formula found by SHELXT:  C27 N13 O15 Cl3

CELL  0.71073   7.0400   9.2600  11.5800   90.000   97.780   90.000
ZERR   15.000   0.0014   0.0019   0.0023    0.000    0.030    0.000
LATT -1
SYMM X, -Y, Z
SFAC C H N O CL
UNIT 15 15 15 15 0
L.S. 10
BOND
LIST 6
FMAP 2
PLAN 20
CL01  5  0.41244  0.50000  0.25751 10.50000  0.03994  23.35
N002  3  0.90288  0.14890  0.05677 11.00000  0.00010  12.33
CL03  5  0.41219  0.69880  1.06628 11.00000  0.03550  12.16
N004  3  0.45067  0.50000  0.43810 10.50000  0.00010  10.84
O005  4  0.88804  0.00000 -0.06628 10.50000  0.00010  10.81
O006  4 -0.17283  0.50000  0.99968 10.50000  0.00010  10.36
C007  1  0.13350  0.50000  0.93545 10.50000  0.00010  10.34
O008  4  0.38541  0.76778  0.55182 11.00000  0.08618   9.89
O009  4  0.20296  0.50000  1.03095 10.50000  0.00010   9.82
N00A  3  0.49416  0.93212  0.38777 11.00000  0.02349   9.50
N00B  3  1.00012  0.00000  0.03543 10.50000  0.00010   9.07
N00C  3 -0.06518  0.50000  0.53349 10.50000  0.00010   8.88
O00D  4  0.47070  0.50000  1.00701 10.50000  0.00010   8.72
N00E  3  0.59346  1.00000  0.46932 10.50000  0.00010   8.54
O00F  4 -0.06384  0.00000  0.41542 10.50000  0.00342   8.38
O00G  4  0.46606  0.00000 -0.00309 10.50000  0.01600   7.95
N00H  3  0.04227  0.38067  0.50875 11.00000  0.05696   7.80
O00I  4  0.53866  0.50000  0.81275 10.50000  0.21597   7.76
O00J  4  0.09571  0.12589  0.52842 11.00000  0.08376   7.50
N00K  3  1.19971  0.00000 -0.02519 10.50000  0.00010   7.30
C00L  1  0.36919  1.00000  0.43759 10.50000  0.00010   7.27
N00M  3  0.60986  0.00000  0.07270 10.50000  0.00010   6.71
N00N  3  0.65924  0.50000  0.42541 10.50000  0.00010   6.66
O00O  4  0.10965  0.32934  0.42917 11.00000  0.04663   6.61
C00P  1  0.82628  0.38225  0.33474 11.00000  0.01244   5.96
O00Q  4  0.67981  0.14759  0.21492 11.00000  0.10190   5.94
C00R  1 -0.08348  0.62369  0.86605 11.00000  0.00010   5.76
C00S  1  0.67729  0.87064  0.53804 11.00000  0.00010   5.37
C00T  1  0.26273  0.66437  0.72622 11.00000  0.06984   5.26
C00U  1  0.03654  0.86260  0.75982 11.00000  0.11158   4.90
C00V  1  0.84690  0.00000  0.02633 10.50000  0.01374   4.87
C00W  1 -0.19971  0.65849  0.72034 11.00000  0.04800   4.84
C00X  1  0.20460  0.62902  0.60385 11.00000  0.00010   4.45
C00Y  1  0.48355  0.60643  0.52873 11.00000  0.00010   4.00
C00Z  1  0.12019  0.50000  0.54774 10.50000  0.01936   3.98
C010  1  1.02769  0.19962  0.14545 11.00000  0.04155   3.89
C011  1  0.91306  0.31747  0.25061 11.00000  0.00508   3.82
C012  1  0.26955  0.50000  0.34745 10.50000  0.00010   3.12
C013  1  0.54200  0.34663  0.34979 11.00000  0.00699   3.04
HKLF 4
END
