TITL P2_expF_1_4_expS_1_5_P2_a.res in Pm
REM Old TITL P2(1)-1 in P2(1)
REM SHELXT solution in Pm: R1 0.568, Rweak 0.511, Alpha 0.085
REM <I/s>   0.000 for    0 systematic absences,  Orientation as input
REM Formula found by SHELXT:  C27 N8 O14

CELL  0.71073   7.0400   9.2600  11.5800   90.000   97.780   90.000
ZERR   15.000   0.0014   0.0019   0.0023    0.000    0.030    0.000
LATT -1
SYMM X, -Y, Z
SFAC C H N O
UNIT 15 15 15 15
L.S. 10
BOND
LIST 6
FMAP 2
PLAN 20
O001  4  0.69768  0.50000  1.08282 10.50000  0.05012  14.75
N002  3  1.01815  0.50000  1.06572 10.50000  0.00826  14.63
O003  4  1.34839  0.76050  1.04608 11.00000  0.05936  12.47
O004  4  0.79126  0.50000  0.57619 10.50000  0.04201  11.65
N005  3  0.14316  0.50000  0.55619 10.50000  0.07100  11.28
O006  4 -0.34839  0.00000  0.04864 10.50000  0.03707  10.66
O007  4  0.49331  0.78713  0.52583 11.00000  0.06569  10.58
O008  4  0.26026  0.50000  0.85386 10.50000  0.03636   9.73
O009  4  0.55607  0.60384  0.87383 11.00000  0.03039   9.30
O00A  4  0.48825  0.50000  1.16588 10.50000  0.02493   9.21
C00B  1  0.19082  0.00000  0.11663 10.50000  0.04912   8.83
O00C  4  0.81605  0.50000  0.85756 10.50000  0.03503   8.38
N00D  3 -0.06178  0.11239  0.55356 11.00000  0.04625   8.25
N00E  3  0.41330  0.50000  0.58673 10.50000  0.10023   7.71
N00F  3  0.64971  0.75891  0.58879 11.00000  0.10024   7.51
C00G  1  0.66213  0.59226  0.54329 11.00000  0.02819   7.48
O00H  4  0.00871  0.00000 -0.12503 10.50000  0.00335   7.31
N00I  3  0.33593  0.00000  0.63606 10.50000  0.03082   6.65
C00J  1  0.59775  0.00000  0.36147 10.50000  0.01844   6.25
C00K  1  0.46943  0.73039  0.66982 11.00000  0.03438   6.19
C00L  1 -0.01558  0.00000  0.49515 10.50000  0.00010   6.14
O00M  4  0.21085  0.00000  0.20386 10.50000  0.12327   5.49
C00N  1  1.04926  0.68796  0.91654 11.00000  0.02678   5.25
C00O  1  0.21836  0.00000  0.36507 10.50000  0.04186   5.01
C00P  1  0.18052  0.40984  0.51408 11.00000  0.06808   4.87
C00Q  1  0.52264  0.50000  0.77440 10.50000  0.02290   4.83
C00R  1  1.08088  0.59580  1.04705 11.00000  0.06269   4.76
C00S  1  0.40591  0.50000  0.96726 10.50000  0.02913   4.55
C00T  1  0.14501  0.08962  0.61249 11.00000  0.08124   4.54
C00U  1  0.57851  0.00000  0.58821 10.50000  0.01509   4.04
C00V  1 -0.00332  0.00000  0.53136 10.50000  0.00010   4.02
C00W  1  0.14170  0.29843  0.55956 11.00000  0.02405   3.73
C00X  1  0.31081  0.50000  0.34903 10.50000  0.02190   3.48
C00Y  1 -0.10214  0.50000  0.37339 10.50000  0.01097   3.25
C00Z  1  0.00706 -0.04314  0.03038 11.00000  0.23181   3.23
C010  1  0.03866  0.00000 -0.16588 10.50000  0.00010   3.06
HKLF 4
END
