TITL 0620_expF_0_7_expS_1_4_0620_b.res in I-4
REM Old TITL 0620 in I4(1)/a
REM SHELXT solution in I-4: R1 0.336, Rweak 0.173, Alpha 0.246
REM <I/s>   0.000 for    0 systematic absences,  Orientation as input
REM Flack x = -9.990 ( 9.990 ) from   125 Parsons' quotients
REM Formula found by SHELXT:  C17 N18 O16

CELL  0.71073  26.6550  26.6550   7.5900   90.000   90.000   90.000
ZERR  108.000   0.0038   0.0038   0.0015    0.000    0.000    0.000
LATT -2
SYMM -X, -Y, Z
SYMM Y, -X, -Z
SYMM -Y, X, -Z
SFAC C H N O
UNIT 108 108 108 108
L.S. 10
BOND
LIST 6
FMAP 2
PLAN 20
O001  4  0.40866  0.46501  0.11754 11.00000  0.17624  11.59
O002  4  0.44017  0.46512  0.24578 11.00000  0.19570   9.76
N003  3  0.25524  0.47512  0.47209 11.00000  0.13806   9.24
N004  3  0.12393  0.49412  0.13510 11.00000  0.12848   9.14
N005  3  0.08073  0.46508 -0.14393 11.00000  0.16831   9.09
O006  4  0.38014  0.54584  0.28120 11.00000  0.16412   8.79
N007  3  0.08683  0.52473  0.13645 11.00000  0.12614   8.55
N008  3  0.04813  0.49959 -0.11540 11.00000  0.16330   8.17
N009  3  0.45883  0.50665  0.37390 11.00000  0.13693   8.06
N00A  3  0.16875  0.48484  0.24394 11.00000  0.15851   7.97
O00B  4  0.37976  0.50572  0.17748 11.00000  0.24903   7.64
C00C  1  0.11612  0.46516  0.00818 11.00000  0.14206   7.45
C00D  1  0.04360  0.53288  0.01853 11.00000  0.08317   6.86
C00E  1  0.16207  0.50635  0.38599 11.00000  0.19340   6.71
N00F  3  0.41184  0.53694  0.39290 11.00000  0.10860   6.69
C00G  1  0.50000  0.50000  0.50000 10.25000  0.14420   6.50
O00H  4  0.28334  0.48430  0.59193 11.00000  0.24461   6.19
C00I  1  0.20115  0.52680  0.67478 11.00000  0.13313   5.94
O00J  4  0.23702  0.53840  0.97617 11.00000  0.24139   5.74
C00K  1  0.24372  0.51558  0.79480 11.00000  0.20465   5.61
O00L  4  0.21426  0.51369  0.51805 11.00000  0.27245   5.41
C00M  1  0.29055  0.50418  0.75405 11.00000  0.11386   4.62
O00N  4  0.25390  0.45982  0.31062 11.00000  0.29676   4.22
C00O  1  0.00000  0.50000 -0.25000 10.25000  0.10244   4.05
C00P  1  0.09675  0.53709  0.28901 11.00000  0.24454   3.76
C00Q  1  0.13087  0.53612  0.45423 11.00000  0.21408   3.46
N00R  3  0.19960  0.63460  1.19843 11.00000  0.31073   3.40
HKLF 4
END
