TITL 0531_m3fs_50_00_0531_a.res in I4(1)
REM Old TITL 0620 in I4(1)/a
REM SHELXT solution in I4(1): R1 0.369, Rweak 0.188, Alpha 0.211
REM <I/s>   0.000 for    0 systematic absences,  Orientation as input
REM Flack x = -4.607 ( 9.990 ) from   126 Parsons' quotients
REM Formula found by SHELXT:  C20 N23 O16

CELL  0.71073  26.6550  26.6550   7.5900   90.000   90.000   90.000
ZERR  108.000   0.0038   0.0038   0.0015    0.000    0.000    0.000
LATT -2
SYMM 1/2-X, 1/2-Y, 1/2+Z
SYMM -Y, 1/2+X, 1/4+Z
SYMM 1/2+Y, -X, 3/4+Z
SFAC C H N O
UNIT 108 108 108 108
L.S. 10
BOND
LIST 6
FMAP 2
PLAN 20
N001  3  0.46517  0.88357  0.45435 11.00000  0.15694  13.83
O002  4  0.44576  0.96908 -0.09756 11.00000  0.14003  12.35
O003  4  0.41218  0.96902 -0.23688 11.00000  0.18662  11.82
N004  3  0.45692  0.91532  0.25159 11.00000  0.11460  10.53
C005  1  0.48788  0.74393  0.86425 11.00000  0.12567  10.27
N006  3  0.45377  1.00355  0.01794 11.00000  0.05874  10.08
N007  3  0.37212  1.00888 -0.18118 11.00000  0.13464  10.07
O008  4  0.41619  1.03518  0.04300 11.00000  0.11979   9.22
O009  4  0.45956  0.73614  0.67747 11.00000  0.20346   8.47
N00A  3  0.49356  0.88022  0.56110 11.00000  0.15096   8.30
N00B  3  0.47353  0.70839  0.93917 11.00000  0.17251   8.19
O00C  4  0.52741  0.91219  0.54535 11.00000  0.15203   7.63
N00D  3  0.49387  0.95483  0.28114 11.00000  0.13130   7.63
N00E  3  0.32869  1.01490 -0.32728 11.00000  0.13744   7.46
N00F  3  0.36829  1.04409 -0.07483 11.00000  0.11835   6.87
N00G  3  0.50000  1.00000  0.13441 10.50000  0.12587   6.78
C00H  1  0.50581  0.79903  0.92093 11.00000  0.09538   6.72
N00I  3  0.50804  0.83474  0.83085 11.00000  0.14643   6.64
O00J  4  0.44791  0.88977  0.35622 11.00000  0.14290   6.38
C00K  1  0.49348  0.83387  0.69789 11.00000  0.16513   5.50
C00L  1  0.44888  0.67145  0.87444 11.00000  0.14311   5.44
C00M  1  0.31250  0.93894 -0.36059 11.00000  0.19521   5.35
C00N  1  0.52212  0.75875  1.19742 11.00000  0.13157   5.27
C00O  1  0.53861  0.94652  0.42425 11.00000  0.09486   4.63
C00P  1  0.52165  0.80426  1.05717 11.00000  0.10043   4.56
O00Q  4  0.54131  0.74800  1.36059 11.00000  0.21603   4.34
N00R  3  0.49243  0.72217  1.06579 11.00000  0.19587   4.22
C00S  1  0.50101  0.71702  1.19346 11.00000  0.10894   4.07
O00T  4  0.64632  0.64532  1.30492 11.00000  0.37136   3.80
C00U  1  0.59557  0.66268  1.06294 11.00000  0.25152   3.22
HKLF 4
END
