TITL 0531_m3fs_4000_00_0531_b.res in I-4
REM Old TITL 0620 in I4(1)/a
REM SHELXT solution in I-4: R1 0.346, Rweak 0.098, Alpha 0.230
REM <I/s>   0.000 for    0 systematic absences,  Orientation as input
REM Flack x = -8.245 ( 9.990 ) from   126 Parsons' quotients
REM Formula found by SHELXT:  C69 N24 O16

CELL  0.71073  26.6550  26.6550   7.5900   90.000   90.000   90.000
ZERR  108.000   0.0038   0.0038   0.0015    0.000    0.000    0.000
LATT -2
SYMM -X, -Y, Z
SYMM Y, -X, -Z
SYMM -Y, X, -Z
SFAC C H N O
UNIT 108 108 108 108
L.S. 10
BOND
LIST 6
FMAP 2
PLAN 20
C001  1  0.47114  0.08542  0.86504 11.00000  0.12443   8.52
O002  4  0.54014  0.08369  1.13796 11.00000  0.16113   8.28
N003  3  0.54256  0.12090  1.01255 11.00000  0.14307   7.34
N004  3  0.46271  0.05336  0.99010 11.00000  0.15479   7.24
N005  3  0.46682  0.38052 -0.25078 11.00000  0.22218   7.11
N006  3  0.50334  0.45383 -0.36169 11.00000  0.15587   7.10
C007  1  0.50000  0.00000  1.25000 10.25000  0.08815   6.89
N008  3  0.51322  0.03992  1.14237 11.00000  0.14264   6.84
N009  3  0.49937  0.37759 -0.12963 11.00000  0.19001   6.84
C00A  1  0.47320  0.24652  0.21699 11.00000  0.16985   6.49
C00B  1  0.50420  0.21183  0.52345 11.00000  0.13900   6.28
C00C  1  0.46148  0.41869 -0.37507 11.00000  0.17481   6.00
C00D  1  0.47999  0.33600 -0.00013 11.00000  0.21002   5.87
C00E  1  0.47023  0.20955  0.32688 11.00000  0.17326   5.86
C00F  1  0.52831  0.41203 -0.11352 11.00000  0.13733   5.79
C00G  1  0.50809  0.12248  0.89666 11.00000  0.15198   5.73
C00H  1  0.52917  0.25975  0.54637 11.00000  0.15085   5.40
C00I  1  0.52309  0.29652  0.42224 11.00000  0.21399   5.24
O00J  4  0.45743  0.24783  0.06572 11.00000  0.27363   4.55
C00K  1  0.53120  0.45822 -0.23250 11.00000  0.12117   4.47
C00L  1  0.49929  0.16948  0.63454 11.00000  0.21933   4.39
C00M  1  0.52070  0.29303  0.26953 11.00000  0.20773   4.15
C00N  1  0.51081  0.34111  0.14867 11.00000  0.21924   3.98
O00O  4  0.45194  0.08919  0.77856 11.00000  0.34144   3.95
C00P  1  0.52609  0.41116 -0.25810 11.00000  0.20652   3.72
C00Q  1  0.54333  0.25959  0.71583 11.00000  0.16779   3.64
O00R  4  0.53768  0.37142  0.22835 11.00000  0.28968   3.63
C00S  1  0.51325  0.16971  0.76266 11.00000  0.19008   3.16
HKLF 4
END
