TITL 0531_m3fs_10_00_0531_b.res in I-4
REM Old TITL 0620 in I4(1)/a
REM SHELXT solution in I-4: R1 0.389, Rweak 0.154, Alpha 0.200
REM <I/s>   0.000 for    0 systematic absences,  Orientation as input
REM Flack x = -2.268 ( 9.990 ) from   126 Parsons' quotients
REM Formula found by SHELXT:  C60 N41 O20

CELL  0.71073  26.6550  26.6550   7.5900   90.000   90.000   90.000
ZERR  108.000   0.0038   0.0038   0.0015    0.000    0.000    0.000
LATT -2
SYMM -X, -Y, Z
SYMM Y, -X, -Z
SYMM -Y, X, -Z
SFAC C H N O
UNIT 108 108 108 108
L.S. 10
BOND
LIST 6
FMAP 2
PLAN 20
N001  3  0.37801  0.53695 -0.25421 11.00000  0.07926  10.38
N002  3  0.50000  0.50000 -0.50000 10.25000  0.05768   9.55
N003  3  0.41417  0.46684 -0.09071 11.00000  0.15772   8.91
N004  3  0.40897  0.53646 -0.38001 11.00000  0.09837   8.64
N005  3  0.37244  0.50506 -0.13045 11.00000  0.10713   7.97
N006  3  0.44459  0.45541 -0.22853 11.00000  0.11803   7.95
N007  3  0.44784  0.50199 -0.35661 11.00000  0.13914   7.93
N008  3  0.25837  0.47713  0.52872 11.00000  0.15117   7.69
O009  4  0.32676  0.49466  0.19589 11.00000  0.19716   7.62
N00A  3  0.20789  0.52725  0.34795 11.00000  0.13972   7.17
N00B  3  0.15959  0.47593  0.79367 11.00000  0.13220   6.96
N00C  3  0.08789  0.45961  1.15693 11.00000  0.15376   6.80
C00D  1  0.11370  0.49398  0.88666 11.00000  0.14907   6.74
C00E  1  0.08388  0.52526  0.85353 11.00000  0.07632   6.65
C00F  1  0.03994  0.49073  1.13805 11.00000  0.06863   6.12
C00G  1  0.11942  0.44869  0.99233 11.00000  0.12387   5.92
C00H  1  0.24113  0.53086  0.22427 11.00000  0.11906   5.53
O00I  4  0.29251  0.48221  0.37683 11.00000  0.29036   5.46
C00J  1  0.05646  0.53521  0.99335 11.00000  0.15318   5.42
O00K  4  0.31906  0.50844  0.01474 11.00000  0.23858   5.40
C00L  1  0.23857  0.54838  0.06200 11.00000  0.13780   4.71
C00M  1  0.36220  0.56052 -0.34813 11.00000  0.17644   4.67
C00N  1  0.26301  0.45205  0.72481 11.00000  0.14228   4.48
O00O  4  0.14544  0.71411  1.22062 11.00000  0.25862   4.12
C00P  1  0.12438  0.54527  0.54365 11.00000  0.22187   3.84
C00Q  1  0.36284  0.52105  0.28977 11.00000  0.24595   3.54
C00R  1  0.21072  0.50230  0.50342 11.00000  0.05122   3.53
O00S  4  0.13903  0.61412  0.84549 11.00000  0.55381   3.40
C00T  1  0.15853  0.55184  0.29953 11.00000  0.20313   3.34
C00U  1  0.10309  0.61594  1.09294 11.00000  0.22976   3.25
C00V  1  0.16539  0.49891  0.68306 11.00000  0.20193   3.17
HKLF 4
END
