TITL 0531_m3fs_400_00_0531_a.res in I-4
REM Old TITL 0620 in I4(1)/a
REM SHELXT solution in I-4: R1 0.335, Rweak 0.160, Alpha 0.150
REM <I/s>   0.000 for    0 systematic absences,  Orientation as input
REM Flack x = -2.336 ( 9.990 ) from   126 Parsons' quotients
REM Formula found by SHELXT:  C23 N28 O8

CELL  0.71073  26.6550  26.6550   7.5900   90.000   90.000   90.000
ZERR  108.000   0.0038   0.0038   0.0015    0.000    0.000    0.000
LATT -2
SYMM -X, -Y, Z
SYMM Y, -X, -Z
SYMM -Y, X, -Z
SFAC C H N O
UNIT 108 108 108 108
L.S. 10
BOND
LIST 6
FMAP 2
PLAN 20
N001  3  0.46972  0.87797  0.03007 11.00000  0.12426  13.97
N002  3  0.46570  0.92041 -0.18104 11.00000  0.12431  12.36
N003  3  0.53602  0.91507  0.14748 11.00000  0.11514  12.02
N004  3  0.49153  0.95880 -0.11909 11.00000  0.08442  10.51
N005  3  0.50253  0.79369  0.48950 11.00000  0.10973  10.23
N006  3  0.50279  0.88540  0.10460 11.00000  0.17228   9.00
O007  4  0.46172  0.54381  1.23009 11.00000  0.14078   8.41
N008  3  0.47561  0.70521  0.56277 11.00000  0.15206   8.24
N009  3  0.52586  0.75245  0.77162 11.00000  0.14560   8.23
N00A  3  0.53000  0.94117  0.00952 11.00000  0.14032   7.86
N00B  3  0.50973  0.62791  1.11050 11.00000  0.15204   7.24
O00C  4  0.45793  0.73932  0.26868 11.00000  0.20834   7.22
N00D  3  0.54126  0.57854  1.38523 11.00000  0.15917   6.96
N00E  3  0.48022  0.59238  1.10654 11.00000  0.16011   6.87
N00F  3  0.48195  0.74032  0.43347 11.00000  0.18721   6.82
C00G  1  0.49561  0.54873  1.37344 11.00000  0.12891   6.69
C00H  1  0.48839  0.82219  0.24379 11.00000  0.16582   6.32
C00I  1  0.50000  0.50000  1.50000 10.25000  0.11294   6.27
C00J  1  0.44297  0.87435 -0.04467 11.00000  0.12643   6.22
C00K  1  0.49925  0.66332  0.87364 11.00000  0.17484   6.11
C00L  1  0.51896  0.66849  1.02205 11.00000  0.14766   6.08
C00M  1  0.46251  0.90475 -0.09210 11.00000  0.08758   5.87
C00N  1  0.46960  0.63631  0.75603 11.00000  0.19863   5.80
C00O  1  0.51712  0.78827  0.64468 11.00000  0.17808   5.73
C00P  1  0.51603  0.82776  0.38238 11.00000  0.21179   5.73
C00Q  1  0.50000  1.00000 -0.25000 10.25000  0.10132   4.87
N00R  3  0.35720  0.76649  0.77195 11.00000  0.29189   4.12
O00S  4  0.54411  0.75185  0.93997 11.00000  0.26693   4.03
C00T  1  0.54282  0.62235  1.23913 11.00000  0.17028   3.97
O00U  4  0.44866  0.66387  0.49543 11.00000  0.48601   3.77
C00V  1  0.48648  0.72445  0.72317 11.00000  0.21673   3.51
HKLF 4
END
