TITL 0531_m3fs_20_00_0531_a.res in I-4
REM Old TITL 0620 in I4(1)/a
REM SHELXT solution in I-4: R1 0.415, Rweak 0.151, Alpha 0.207
REM <I/s>   0.000 for    0 systematic absences,  Orientation as input
REM Flack x = -9.990 ( 9.990 ) from   121 Parsons' quotients
REM Formula found by SHELXT:  C25 N16 O10

CELL  0.71073  26.6550  26.6550   7.5900   90.000   90.000   90.000
ZERR  108.000   0.0038   0.0038   0.0015    0.000    0.000    0.000
LATT -2
SYMM -X, -Y, Z
SYMM Y, -X, -Z
SYMM -Y, X, -Z
SFAC C H N O
UNIT 108 108 108 108
L.S. 10
BOND
LIST 6
FMAP 2
PLAN 20
O001  4  0.08567  0.46291 -0.16710 11.00000  0.14045   8.69
O002  4  0.11875  0.44489 -0.01870 11.00000  0.13962   8.40
N003  3  0.36848  0.50369  1.12805 11.00000  0.10998   8.24
N004  3  0.40645  0.47813  1.09494 11.00000  0.11677   8.01
N005  3  0.37712  0.53305  1.26239 11.00000  0.13912   7.87
N006  3  0.44190  0.46622  1.22193 11.00000  0.14235   7.62
N007  3  0.08356  0.52928  0.12654 11.00000  0.09482   7.56
N008  3  0.43926  0.49878  1.35499 11.00000  0.14185   7.46
N009  3  0.24105  0.51844  0.78326 11.00000  0.19717   6.63
C00A  1  0.03772  0.49280 -0.12790 11.00000  0.03794   6.61
C00B  1  0.41441  0.54113  1.36806 11.00000  0.06855   6.41
C00C  1  0.25812  0.47691  0.45610 11.00000  0.11009   6.21
O00D  4  0.29695  0.48192  0.58299 11.00000  0.17841   6.16
C00E  1  0.00000  0.50000 -0.25000 10.25000  0.09667   6.06
O00F  4  0.31051  0.49059  0.74742 11.00000  0.17447   6.04
C00G  1  0.11829  0.49125  0.12619 11.00000  0.13359   5.74
C00H  1  0.17046  0.49251  0.27699 11.00000  0.11947   5.27
C00I  1  0.20318  0.52647  0.66741 11.00000  0.17401   5.24
C00J  1  0.50000  0.50000  1.50000 10.25000  0.11723   5.23
C00K  1  0.05515  0.53664  0.00246 11.00000  0.09467   4.88
C00L  1  0.33424  0.49846  0.85778 11.00000  0.07025   4.81
C00M  1  0.24244  0.53535  0.95659 11.00000  0.14860   4.79
C00N  1  0.21260  0.50161  0.47675 11.00000  0.11105   4.11
N00O  3  0.20947  0.34901 -0.28003 11.00000  0.24966   4.06
C00P  1  0.25946  0.44485  0.28653 11.00000  0.11136   3.94
C00Q  1  0.33418  0.51131  1.01982 11.00000  0.12058   3.64
O00R  4  0.10669  0.58414  0.18650 11.00000  0.56779   3.31
HKLF 4
END
