TITL 0531_m3fs_3000_00_0531_a.res in I4(1)
REM Old TITL 0620 in I4(1)/a
REM SHELXT solution in I4(1): R1 0.329, Rweak 0.019, Alpha 0.163
REM <I/s>   0.000 for    0 systematic absences,  Orientation as input
REM Flack x = -0.287 ( 9.990 ) from   129 Parsons' quotients
REM Formula found by SHELXT:  C39 N26 O4

CELL  0.71073  26.6550  26.6550   7.5900   90.000   90.000   90.000
ZERR  108.000   0.0038   0.0038   0.0015    0.000    0.000    0.000
LATT -2
SYMM 1/2-X, 1/2-Y, 1/2+Z
SYMM -Y, 1/2+X, 1/4+Z
SYMM 1/2+Y, -X, 3/4+Z
SFAC C H N O
UNIT 108 108 108 108
L.S. 10
BOND
LIST 6
FMAP 2
PLAN 20
N001  3  0.59030  0.52552  0.06163 11.00000  0.11592  12.05
N002  3  0.62936  0.49039  0.02775 11.00000  0.19242  11.43
N003  3  0.91822  0.53967  1.31331 11.00000  0.13305  10.80
N004  3  0.88408  0.53618  1.16896 11.00000  0.18270   9.92
N005  3  0.82510  0.51043  0.90126 11.00000  0.22380   9.51
N006  3  0.75583  0.47034  0.36478 11.00000  0.14672   9.36
O007  4  0.95863  0.50739  1.28691 11.00000  0.17499   9.28
N008  3  0.62841  0.45710 -0.08659 11.00000  0.15340   9.24
N009  3  0.54850  0.52849 -0.08443 11.00000  0.19555   9.24
N00A  3  0.70468  0.53588  0.61049 11.00000  0.21033   9.01
N00B  3  0.54458  0.49498 -0.21097 11.00000  0.15036   8.05
N00C  3  0.84398  0.49727  0.78591 11.00000  0.19005   7.93
O00D  4  0.95676  0.46689  1.15203 11.00000  0.15138   7.61
C00E  1  0.58972  0.45835 -0.21673 11.00000  0.11766   7.32
N00F  3  0.91536  0.46559  1.01460 11.00000  0.16184   7.19
C00G  1  0.71631  0.48945  0.41883 11.00000  0.19028   6.86
N00H  3  0.79283  0.49872  0.70129 11.00000  0.19765   6.73
C00I  1  0.88041  0.50153  1.06240 11.00000  0.12277   6.70
C00J  1  0.74196  0.51718  0.69125 11.00000  0.16268   6.50
C00K  1  0.50000  0.50000 -0.31331 10.50000  0.14904   6.32
C00L  1  0.74516  0.54216  0.88469 11.00000  0.18521   6.17
C00M  1  0.58044  0.53843 -0.06326 11.00000  0.17668   5.55
C00N  1  0.79679  0.47610  0.48858 11.00000  0.17036   4.83
C00O  1  0.74389  0.64269  0.36792 11.00000  0.24571   4.78
C00P  1  0.65689  0.54383  0.59715 11.00000  0.30529   4.71
C00Q  1  0.87549  0.56709  1.21909 11.00000  0.24932   4.53
C00R  1  0.76000  0.45698  0.21288 11.00000  0.15481   4.41
C00S  1  0.85084  0.50786  0.94987 11.00000  0.28891   3.97
C00T  1  0.66712  0.48039  0.15941 11.00000  0.22457   3.72
C00U  1  0.71273  0.51248  0.50976 11.00000  0.20953   3.69
C00V  1  0.80642  0.46841  0.62128 11.00000  0.27332   3.56
C00W  1  0.67881  0.65532  0.03835 11.00000  0.20684   3.52
C00X  1  0.71477  0.65187  0.20129 11.00000  0.21633   3.41
C00Y  1  0.63494  0.53017  0.37616 11.00000  0.19004   3.40
C00Z  1  0.66787  0.50855  0.31793 11.00000  0.20344   3.09
HKLF 4
END
