TITL 0531_m3fs_2000_00_0531_a.res in I4(1)
REM Old TITL 0620 in I4(1)/a
REM SHELXT solution in I4(1): R1 0.333, Rweak 0.168, Alpha 0.180
REM <I/s>   0.000 for    0 systematic absences,  Orientation as input
REM Flack x = -2.074 ( 9.990 ) from   129 Parsons' quotients
REM Formula found by SHELXT:  C33 N16 O6

CELL  0.71073  26.6550  26.6550   7.5900   90.000   90.000   90.000
ZERR  108.000   0.0038   0.0038   0.0015    0.000    0.000    0.000
LATT -2
SYMM 1/2-X, 1/2-Y, 1/2+Z
SYMM -Y, 1/2+X, 1/4+Z
SYMM 1/2+Y, -X, 3/4+Z
SFAC C H N O
UNIT 108 108 108 108
L.S. 10
BOND
LIST 6
FMAP 2
PLAN 20
N001  3  1.00459  0.61804  1.32841 11.00000  0.15036   9.92
N002  3  0.96958  0.58840  1.33270 11.00000  0.13233   9.62
O003  4  0.87389  0.54203  0.70501 11.00000  0.18038   8.64
N004  3  0.96580  0.54386  1.20216 11.00000  0.14262   7.62
C005  1  1.00426  0.54182  1.06761 11.00000  0.10282   7.34
N006  3  0.70702  0.52952  0.11549 11.00000  0.16224   7.23
C007  1  1.04361  0.61516  1.20239 11.00000  0.13297   7.18
O008  4  0.91144  0.54378  0.83116 11.00000  0.17443   7.12
N009  3  1.03584  0.57845  1.05307 11.00000  0.14657   6.83
N00A  3  0.95488  0.50496  0.81182 11.00000  0.15193   6.76
N00B  3  0.83522  0.51643  0.43919 11.00000  0.19189   6.76
C00C  1  0.90831  0.47287  0.54646 11.00000  0.18117   6.37
C00D  1  0.75229  0.48577 -0.09059 11.00000  0.13333   6.36
C00E  1  0.94602  0.46762  0.68740 11.00000  0.11673   6.22
C00F  1  0.74330  0.53415  0.24600 11.00000  0.11044   6.07
C00G  1  0.73914  0.54645  0.39944 11.00000  0.11889   5.92
C00H  1  0.83098  0.49645  0.30020 11.00000  0.17703   5.76
C00I  1  1.00000  0.50000  0.94555 10.50000  0.12375   5.62
C00J  1  0.70971  0.51407 -0.05213 11.00000  0.15382   4.88
C00K  1  0.99808  0.63050  1.22079 11.00000  0.25874   4.45
C00L  1  0.67186  0.48289 -0.33270 11.00000  0.17500   4.39
C00M  1  0.78968  0.50928  0.19137 11.00000  0.13171   4.28
N00N  3  0.85723  0.47799  0.22793 11.00000  0.28016   4.08
C00O  1  0.66254  0.51019 -0.17858 11.00000  0.21415   3.91
C00P  1  0.78953  0.47918  0.04192 11.00000  0.19657   3.88
C00Q  1  0.87925  0.57860  0.75549 11.00000  0.29228   3.82
C00R  1  0.86879  0.50956  0.57620 11.00000  0.15571   3.60
O00S  4  0.87481  0.58201  0.62160 11.00000  0.47078   3.49
HKLF 4
END
