TITL 0531_m3fs_30_00_0531_b.res in I-4
REM Old TITL 0620 in I4(1)/a
REM SHELXT solution in I-4: R1 0.398, Rweak 0.115, Alpha 0.204
REM <I/s>   0.000 for    0 systematic absences,  Orientation as input
REM Flack x = -9.990 ( 9.990 ) from   125 Parsons' quotients
REM Formula found by SHELXT:  C25 N22 O6

CELL  0.71073  26.6550  26.6550   7.5900   90.000   90.000   90.000
ZERR  108.000   0.0038   0.0038   0.0015    0.000    0.000    0.000
LATT -2
SYMM -X, -Y, Z
SYMM Y, -X, -Z
SYMM -Y, X, -Z
SFAC C H N O
UNIT 108 108 108 108
L.S. 10
BOND
LIST 6
FMAP 2
PLAN 20
N001  3  0.53331  0.11381  0.96498 11.00000  0.11298  10.44
N002  3  0.46655  0.08325  0.83643 11.00000  0.13463  10.16
N003  3  0.49304  0.11168  0.89388 11.00000  0.14628   8.59
N004  3  0.53862  0.08991  1.11382 11.00000  0.10292   8.51
N005  3  0.48511  0.24057  0.20554 11.00000  0.09164   8.49
N006  3  0.50911  0.04287  1.11932 11.00000  0.06425   8.03
O007  4  0.46074  0.41710 -0.40462 11.00000  0.15302   7.76
N008  3  0.49711  0.20009  0.51202 11.00000  0.10025   7.38
N009  3  0.46443  0.05268  0.97460 11.00000  0.13792   7.28
N00A  3  0.49082  0.36911 -0.12077 11.00000  0.12668   6.95
C00B  1  0.45308  0.16226  0.27000 11.00000  0.20083   6.32
C00C  1  0.51994  0.41079 -0.10417 11.00000  0.10201   6.10
C00D  1  0.50000  0.50000 -0.50000 10.25000  0.07376   5.95
C00E  1  0.46009  0.36880 -0.23148 11.00000  0.11542   5.93
C00F  1  0.53041  0.28787  0.43134 11.00000  0.09468   5.72
C00G  1  0.49364  0.32378 -0.00080 11.00000  0.11837   5.63
C00H  1  0.53347  0.44664 -0.21791 11.00000  0.07896   5.37
C00I  1  0.53834  0.25892  0.54073 11.00000  0.15571   5.28
C00J  1  0.50333  0.16394  0.61209 11.00000  0.13293   5.27
C00K  1  0.54512  0.25671  0.72601 11.00000  0.11894   5.22
C00L  1  0.50705  0.45253 -0.35593 11.00000  0.09453   5.13
C00M  1  0.51554  0.16434  0.78259 11.00000  0.11029   4.83
C00N  1  0.50000  0.00000  1.25000 10.25000  0.14363   4.82
C00O  1  0.55710  0.12219  1.04703 11.00000  0.06761   4.67
O00P  4  0.46318  0.23703  0.04371 11.00000  0.22956   4.05
O00Q  4  0.50286  0.27535  0.30058 11.00000  0.21666   3.63
N00R  3  0.47629  0.20519  0.35291 11.00000  0.17635   3.56
N00S  3  0.35842  0.27838  0.46817 11.00000  0.20444   3.42
HKLF 4
END
