TITL 0531_m3fs_1000_00_0531_b.res in I-4
REM Old TITL 0620 in I4(1)/a
REM SHELXT solution in I-4: R1 0.348, Rweak 0.148, Alpha 0.170
REM <I/s>   0.000 for    0 systematic absences,  Orientation as input
REM Flack x = -9.990 ( 9.990 ) from   126 Parsons' quotients
REM Formula found by SHELXT:  C31 N14 O4

CELL  0.71073  26.6550  26.6550   7.5900   90.000   90.000   90.000
ZERR  108.000   0.0038   0.0038   0.0015    0.000    0.000    0.000
LATT -2
SYMM -X, -Y, Z
SYMM Y, -X, -Z
SYMM -Y, X, -Z
SFAC C H N O
UNIT 108 108 108 108
L.S. 10
BOND
LIST 6
FMAP 2
PLAN 20
N001  3  0.61751  0.45412 -0.25685 11.00000  0.16587   9.78
N002  3  0.59034  0.46436 -0.39488 11.00000  0.15235   9.41
N003  3  0.58961  0.53307 -0.10416 11.00000  0.17998   9.22
N004  3  0.61312  0.50252 -0.13515 11.00000  0.23692   8.67
N005  3  0.54318  0.49634 -0.37309 11.00000  0.14078   7.75
C006  1  0.55383  0.53321 -0.24738 11.00000  0.15537   6.73
N007  3  0.95054  0.46465  0.98905 11.00000  0.14638   6.59
C008  1  0.50000  0.50000 -0.50000 10.25000  0.15043   6.57
C009  1  0.74816  0.53262  0.50820 11.00000  0.13831   6.10
C00A  1  0.75695  0.47627  0.17873 11.00000  0.13816   6.09
C00B  1  0.70949  0.50026  0.23254 11.00000  0.10273   5.98
C00C  1  0.83081  0.51091  0.75895 11.00000  0.14672   5.89
C00D  1  0.95675  0.50748  1.12367 11.00000  0.16429   5.82
O00E  4  0.79648  0.47275  0.31033 11.00000  0.24292   5.81
C00F  1  0.91611  0.47583  0.85184 11.00000  0.16380   5.30
C00G  1  0.87219  0.50773  0.86122 11.00000  0.10431   5.21
C00H  1  0.87337  0.53962  0.99650 11.00000  0.15384   5.08
C00I  1  0.92088  0.54158  1.13822 11.00000  0.13594   4.82
C00J  1  0.75865  0.45308  0.02630 11.00000  0.17087   4.70
C00K  1  0.62877  0.49230 -0.22201 11.00000  0.25613   4.65
C00L  1  0.62918  0.43810 -0.34962 11.00000  0.28475   4.46
C00M  1  1.00000  0.50000  1.25000 10.25000  0.16250   4.20
O00N  4  0.74275  0.55095  0.68536 11.00000  0.26351   4.12
C00O  1  0.66599  0.47516 -0.00278 11.00000  0.23807   3.80
C00P  1  0.83668  0.50149  0.61292 11.00000  0.18501   3.69
N00Q  3  0.74628  0.34644  0.46570 11.00000  0.31377   3.60
HKLF 4
END
