TITL 0531_m3fs_400_00_0531_b.res in I4(1)
REM Old TITL 0620 in I4(1)/a
REM SHELXT solution in I4(1): R1 0.362, Rweak 0.150, Alpha 0.221
REM <I/s>   0.000 for    0 systematic absences,  Orientation as input
REM Flack x = -3.954 ( 9.990 ) from   129 Parsons' quotients
REM Formula found by SHELXT:  C37 N8 O6

CELL  0.71073  26.6550  26.6550   7.5900   90.000   90.000   90.000
ZERR  108.000   0.0038   0.0038   0.0015    0.000    0.000    0.000
LATT -2
SYMM 1/2-X, 1/2-Y, 1/2+Z
SYMM -Y, 1/2+X, 1/4+Z
SYMM 1/2+Y, -X, 3/4+Z
SFAC C H N O
UNIT 108 108 108 108
L.S. 10
BOND
LIST 6
FMAP 2
PLAN 20
N001  3  0.91805  0.53722  0.79372 11.00000  0.10952   8.17
N002  3  0.88065  0.54679  0.63730 11.00000  0.20798   7.42
C003  1  0.90529  0.47837  0.52734 11.00000  0.16977   6.96
C004  1  0.97165  0.58105  1.28596 11.00000  0.10554   6.88
C005  1  0.97246  0.55546  1.14392 11.00000  0.09269   6.67
C006  1  1.00410  0.62149  1.28033 11.00000  0.11796   6.65
N007  3  1.03218  0.62232  1.14544 11.00000  0.15044   6.65
N008  3  1.00109  0.53938  1.02779 11.00000  0.14960   6.53
C009  1  0.95802  0.50820  0.77723 11.00000  0.10974   6.46
C00A  1  0.73993  0.52280  0.20678 11.00000  0.17229   6.36
C00B  1  1.03805  0.58153  1.00268 11.00000  0.17622   6.26
C00C  1  0.70316  0.52889  0.07373 11.00000  0.15902   5.40
C00D  1  0.83731  0.51671  0.40659 11.00000  0.14388   5.34
C00E  1  1.00000  0.50000  0.89631 10.50000  0.08994   5.11
C00F  1  0.83071  0.49652  0.27169 11.00000  0.14449   5.05
C00G  1  0.71422  0.50157 -0.08120 11.00000  0.14962   4.90
C00H  1  0.95984  0.45944  0.62360 11.00000  0.09931   4.65
C00I  1  0.87785  0.50790  0.52850 11.00000  0.21386   4.60
C00J  1  0.74457  0.53919  0.38348 11.00000  0.18278   4.59
C00K  1  0.78517  0.47521 -0.01993 11.00000  0.15438   4.58
C00L  1  0.75464  0.47062 -0.12597 11.00000  0.11598   4.48
C00M  1  0.79455  0.49751  0.15418 11.00000  0.16687   4.48
O00N  4  0.89975  0.43857  0.43874 11.00000  0.43426   4.28
O00O  4  0.75955  0.45089 -0.28596 11.00000  0.23038   3.55
O00P  4  0.86029  0.47639  0.19997 11.00000  0.30417   3.54
C00Q  1  0.87846  0.56237  0.71352 11.00000  0.20314   3.31
HKLF 4
END
