TITL 0531_m3fs_50_00_0531_b.res in I-4
REM Old TITL 0620 in I4(1)/a
REM SHELXT solution in I-4: R1 0.383, Rweak 0.189, Alpha 0.208
REM <I/s>   0.000 for    0 systematic absences,  Orientation as input
REM Flack x = -1.580 ( 9.990 ) from   123 Parsons' quotients
REM Formula found by SHELXT:  C52 N41 O8

CELL  0.71073  26.6550  26.6550   7.5900   90.000   90.000   90.000
ZERR  108.000   0.0038   0.0038   0.0015    0.000    0.000    0.000
LATT -2
SYMM -X, -Y, Z
SYMM Y, -X, -Z
SYMM -Y, X, -Z
SFAC C H N O
UNIT 108 108 108 108
L.S. 10
BOND
LIST 6
FMAP 2
PLAN 20
N001  3  0.44657  0.37956  1.26257 11.00000  0.17157   8.22
N002  3  0.46212  0.41014  1.39583 11.00000  0.11855   7.81
N003  3  0.53242  0.41228  1.10790 11.00000  0.10398   7.68
N004  3  0.50000  0.00000 -0.25000 10.25000  0.07342   7.61
N005  3  0.54151  0.12424  0.00553 11.00000  0.14738   7.22
N006  3  0.49269  0.45643  1.37331 11.00000  0.10688   6.99
N007  3  0.46305  0.05165  0.02073 11.00000  0.09501   6.86
N008  3  0.50704  0.12247  0.13646 11.00000  0.11518   6.84
O009  4  0.50274  0.29119  0.75664 11.00000  0.10599   6.57
C00A  1  0.47646  0.08713  0.16165 11.00000  0.13268   6.49
C00B  1  0.47607  0.20296  0.68634 11.00000  0.11701   6.46
C00C  1  0.49694  0.38077  1.16510 11.00000  0.13099   6.41
C00D  1  0.52626  0.25351  0.48019 11.00000  0.09790   6.35
C00E  1  0.53996  0.08375 -0.13704 11.00000  0.08793   5.88
C00F  1  0.49839  0.05138 -0.11556 11.00000  0.09989   5.70
C00G  1  0.48429  0.24477  0.80851 11.00000  0.13460   5.56
N00H  3  0.48576  0.33211  1.01046 11.00000  0.17880   5.54
C00I  1  0.53315  0.43920  1.23474 11.00000  0.13341   5.44
C00J  1  0.50774  0.32384  0.88008 11.00000  0.13242   5.08
O00K  4  0.54565  0.25501  0.31192 11.00000  0.23535   4.40
C00L  1  0.51361  0.17382  0.25315 11.00000  0.14759   4.33
C00M  1  0.45086  0.24031  0.97937 11.00000  0.12522   4.04
N00N  3  0.36224  0.25301  0.48748 11.00000  0.23948   3.49
C00O  1  0.46732  0.38307  1.28284 11.00000  0.22472   3.47
C00P  1  0.50131  0.15260  0.44052 11.00000  0.15261   3.26
N00Q  3  0.51109  0.29109  0.60450 11.00000  0.18747   3.04
HKLF 4
END
