TITL 0531_m3fs_100_00_0531_a.res in I-4
REM Old TITL 0620 in I4(1)/a
REM SHELXT solution in I-4: R1 0.346, Rweak 0.178, Alpha 0.204
REM <I/s>   0.000 for    0 systematic absences,  Orientation as input
REM Flack x = -1.638 ( 9.990 ) from   126 Parsons' quotients
REM Formula found by SHELXT:  C25 N16 O14

CELL  0.71073  26.6550  26.6550   7.5900   90.000   90.000   90.000
ZERR  108.000   0.0038   0.0038   0.0015    0.000    0.000    0.000
LATT -2
SYMM -X, -Y, Z
SYMM Y, -X, -Z
SYMM -Y, X, -Z
SFAC C H N O
UNIT 108 108 108 108
L.S. 10
BOND
LIST 6
FMAP 2
PLAN 20
N001  3  0.57885  0.46080 -0.41497 11.00000  0.08726   9.58
N002  3  0.61961  0.49560 -0.11567 11.00000  0.13809   9.39
O003  4  0.95401  0.45755  0.98474 11.00000  0.17561   9.11
N004  3  0.58076  0.53467 -0.09984 11.00000  0.13342   8.88
O005  4  0.87166  0.54673  1.00182 11.00000  0.18140   8.68
O006  4  0.90505  0.47709  0.83774 11.00000  0.16744   8.63
N007  3  0.75381  0.47574  0.19528 11.00000  0.15396   8.55
O008  4  0.66792  0.48971 -0.00408 11.00000  0.16513   8.19
N009  3  0.61823  0.46766 -0.23613 11.00000  0.15286   7.84
N00A  3  0.54318  0.49099 -0.37155 11.00000  0.10979   7.63
N00B  3  0.95404  0.49784  1.12425 11.00000  0.11796   7.48
C00C  1  0.55085  0.52902 -0.23830 11.00000  0.09100   6.82
C00D  1  0.50000  0.50000 -0.50000 10.25000  0.16121   6.48
C00E  1  0.70120  0.52887  0.42276 11.00000  0.14918   6.40
C00F  1  0.74117  0.52090  0.53635 11.00000  0.14613   6.22
C00G  1  0.78885  0.50509  0.47866 11.00000  0.11438   6.12
C00H  1  0.66959  0.50150  0.13199 11.00000  0.12816   5.90
O00I  4  0.75373  0.45498  0.02641 11.00000  0.21966   5.35
C00J  1  0.87122  0.50371  0.90171 11.00000  0.13144   5.33
C00K  1  0.91327  0.53537  1.12484 11.00000  0.07804   5.28
O00L  4  0.79122  0.47857  0.33028 11.00000  0.20781   4.97
C00M  1  0.73693  0.54080  0.69897 11.00000  0.12943   4.96
C00N  1  1.00000  0.50000  1.25000 10.25000  0.06767   4.44
C00O  1  0.83011  0.51694  0.78473 11.00000  0.19227   3.85
N00P  3  0.70825  0.51082  0.24253 11.00000  0.17135   3.77
O00Q  4  0.73079  0.35638  0.50816 11.00000  0.26073   3.72
C00R  1  0.69485  0.35295  0.39193 11.00000  0.27053   3.27
C00S  1  0.60951  0.44568 -0.31473 11.00000  0.14180   3.14
C00T  1  0.84284  0.48841  0.56494 11.00000  0.20593   3.09
HKLF 4
END
