TITL 0531_m3fs_2000_00_0531_b.res in I-4
REM Old TITL 0620 in I4(1)/a
REM SHELXT solution in I-4: R1 0.365, Rweak 0.153, Alpha 0.191
REM <I/s>   0.000 for    0 systematic absences,  Orientation as input
REM Flack x = -9.990 ( 9.990 ) from   126 Parsons' quotients
REM Formula found by SHELXT:  C80 N9 O12

CELL  0.71073  26.6550  26.6550   7.5900   90.000   90.000   90.000
ZERR  108.000   0.0038   0.0038   0.0015    0.000    0.000    0.000
LATT -2
SYMM -X, -Y, Z
SYMM Y, -X, -Z
SYMM -Y, X, -Z
SFAC C H N O
UNIT 108 108 108 108
L.S. 10
BOND
LIST 6
FMAP 2
PLAN 20
O001  4  0.46550  0.08158  0.86896 11.00000  0.20903   8.82
O002  4  0.54755  0.12184  1.01784 11.00000  0.20683   7.74
N003  3  0.50000  0.00000  1.25000 10.25000  0.11220   7.60
N004  3  0.46525  0.05912  0.99990 11.00000  0.15694   7.43
C005  1  0.50861  0.03780  1.12904 11.00000  0.12898   7.24
N006  3  0.53673  0.08610  1.14543 11.00000  0.13376   6.98
C007  1  0.50486  0.11915  0.88515 11.00000  0.16560   6.75
C008  1  0.46805  0.23991  0.21191 11.00000  0.15640   6.36
C009  1  0.45912  0.37926 -0.26401 11.00000  0.17976   6.24
C00A  1  0.46026  0.42260 -0.38000 11.00000  0.16636   5.74
C00B  1  0.52363  0.40551 -0.10103 11.00000  0.14482   5.70
C00C  1  0.49431  0.37077 -0.14571 11.00000  0.19899   5.64
C00D  1  0.47508  0.20779  0.33890 11.00000  0.17186   5.62
C00E  1  0.49944  0.45565 -0.36900 11.00000  0.14258   5.51
C00F  1  0.51263  0.17465  0.74560 11.00000  0.19905   5.25
C00G  1  0.49267  0.20664  0.50900 11.00000  0.12942   5.24
C00H  1  0.52933  0.29937  0.41242 11.00000  0.16536   5.01
C00I  1  0.53199  0.46019 -0.23320 11.00000  0.12098   4.96
C00J  1  0.52508  0.25880  0.53797 11.00000  0.19833   4.71
C00K  1  0.44982  0.24450  0.05689 11.00000  0.24885   4.68
C00L  1  0.50838  0.34252  0.14915 11.00000  0.28152   4.63
C00M  1  0.47961  0.33136 -0.01648 11.00000  0.19047   4.57
C00N  1  0.49770  0.17209  0.61556 11.00000  0.19120   3.74
C00O  1  0.49235  0.28546  0.26605 11.00000  0.24698   3.73
O00P  4  0.52415  0.36145  0.22866 11.00000  0.42304   3.24
C00Q  1  0.54557  0.25882  0.71147 11.00000  0.17836   3.16
HKLF 4
END
