TITL 0531_m3fs_20_00_0531_b.res in I4(1)
REM Old TITL 0620 in I4(1)/a
REM SHELXT solution in I4(1): R1 0.429, Rweak 0.132, Alpha 0.197
REM <I/s>   0.000 for    0 systematic absences,  Orientation as input
REM Flack x = -9.990 ( 9.990 ) from   123 Parsons' quotients
REM Formula found by SHELXT:  C23 N10 O18

CELL  0.71073  26.6550  26.6550   7.5900   90.000   90.000   90.000
ZERR  108.000   0.0038   0.0038   0.0015    0.000    0.000    0.000
LATT -2
SYMM 1/2-X, 1/2-Y, 1/2+Z
SYMM -Y, 1/2+X, 1/4+Z
SYMM 1/2+Y, -X, 3/4+Z
SFAC C H N O
UNIT 108 108 108 108
L.S. 10
BOND
LIST 6
FMAP 2
PLAN 20
O001  4  0.58069  0.52818  1.23158 11.00000  0.12966   9.57
O002  4  0.45869  0.41296  0.72435 11.00000  0.09883   8.69
N003  3  0.62160  0.49671  1.20578 11.00000  0.12112   8.55
N004  3  0.52581  0.25794 -0.18611 11.00000  0.09441   8.14
N005  3  0.49241  0.45728  0.71603 11.00000  0.07366   8.13
O006  4  0.62698  0.46761  1.07853 11.00000  0.11313   7.95
O007  4  0.44279  0.38425  0.60114 11.00000  0.14847   7.79
N008  3  0.56865  0.53198  1.09875 11.00000  0.10709   7.11
C009  1  0.53500  0.45705  0.56284 11.00000  0.03806   6.36
C00A  1  0.48724  0.33591  0.35268 11.00000  0.09990   6.27
C00B  1  0.58603  0.46769  0.94699 11.00000  0.13479   5.86
C00C  1  0.52337  0.41030  0.44929 11.00000  0.09934   5.58
C00D  1  0.50119  0.33157  0.22227 11.00000  0.09135   5.53
C00E  1  0.47378  0.20188  0.01546 11.00000  0.11399   5.47
C00F  1  0.50000  0.50000  0.86543 10.50000  0.07594   5.43
O00G  4  0.51874  0.29519 -0.08021 11.00000  0.18923   5.38
C00H  1  0.49139  0.37836  0.48821 11.00000  0.10410   5.31
C00I  1  0.50300  0.30258  0.09892 11.00000  0.09248   5.11
C00J  1  0.47817  0.23656  0.13608 11.00000  0.14178   4.77
C00K  1  0.54655  0.51008  0.99738 11.00000  0.06576   4.74
O00L  4  0.49616  0.21432 -0.13728 11.00000  0.18346   4.68
O00M  4  0.55001  0.25837 -0.33671 11.00000  0.17797   4.21
O00N  4  0.46041  0.24749  0.32767 11.00000  0.22741   4.18
N00O  3  0.50550  0.34993  0.13476 11.00000  0.17373   4.01
C00P  1  0.67190  0.48859  1.33671 11.00000  0.16492   3.38
O00Q  4  0.58001  0.38808  0.41091 11.00000  0.34169   3.04
HKLF 4
END
