TITL 0531_m3fs_200_00_0531_a.res in I-4
REM Old TITL 0620 in I4(1)/a
REM SHELXT solution in I-4: R1 0.339, Rweak 0.150, Alpha 0.247
REM <I/s>   0.000 for    0 systematic absences,  Orientation as input
REM Flack x = -9.990 ( 9.990 ) from   126 Parsons' quotients
REM Formula found by SHELXT:  C73 N36 O12

CELL  0.71073  26.6550  26.6550   7.5900   90.000   90.000   90.000
ZERR  108.000   0.0038   0.0038   0.0015    0.000    0.000    0.000
LATT -2
SYMM -X, -Y, Z
SYMM Y, -X, -Z
SYMM -Y, X, -Z
SFAC C H N O
UNIT 108 108 108 108
L.S. 10
BOND
LIST 6
FMAP 2
PLAN 20
N001  3  0.53940  0.08043  1.20043 11.00000  0.18520   9.85
N002  3  0.47110  0.08467  0.87718 11.00000  0.13044   8.96
N003  3  0.51393  0.12031  0.97609 11.00000  0.20102   8.65
O004  4  0.53924  0.45653 -0.22998 11.00000  0.15715   8.11
N005  3  0.54712  0.11856  0.98997 11.00000  0.15898   8.03
N006  3  0.50752  0.03638  1.13366 11.00000  0.10819   7.99
C007  1  0.50000  0.00000  1.25000 10.25000  0.02501   7.44
N008  3  0.50253  0.45052 -0.37641 11.00000  0.13299   6.87
N009  3  0.52415  0.40750 -0.09660 11.00000  0.15775   6.77
N00A  3  0.47067  0.05837  1.00562 11.00000  0.11300   6.70
C00B  1  0.52479  0.25613  0.55850 11.00000  0.14484   6.49
C00C  1  0.47410  0.24401  0.21766 11.00000  0.12545   6.23
C00D  1  0.45316  0.37211 -0.25220 11.00000  0.12667   5.96
C00E  1  0.49373  0.18142  0.59325 11.00000  0.18102   5.93
C00F  1  0.51606  0.18041  0.77568 11.00000  0.17053   5.61
C00G  1  0.53093  0.08459  1.12293 11.00000  0.08299   5.21
C00H  1  0.48945  0.21186  0.50632 11.00000  0.13399   5.18
O00I  4  0.54684  0.25646  0.71938 11.00000  0.21355   5.02
C00J  1  0.52580  0.29591  0.42382 11.00000  0.14060   4.99
C00K  1  0.47704  0.20642  0.33933 11.00000  0.18041   4.90
C00L  1  0.48933  0.37273 -0.13460 11.00000  0.14295   4.60
C00M  1  0.46066  0.41735 -0.36536 11.00000  0.11248   4.57
C00N  1  0.51013  0.35192  0.18957 11.00000  0.19154   4.21
C00O  1  0.49120  0.29087  0.26710 11.00000  0.14309   4.11
C00P  1  0.55521  0.11701  1.09741 11.00000  0.15228   3.97
C00Q  1  0.48075  0.33281 -0.01723 11.00000  0.14817   3.96
O00R  4  0.45805  0.23896  0.05293 11.00000  0.22920   3.90
N00S  3  0.63887  0.23298  0.24559 11.00000  0.21371   3.64
C00T  1  0.49895  0.12260  0.85111 11.00000  0.12480   3.47
C00U  1  0.50335  0.16548  0.68892 11.00000  0.15161   3.06
C00V  1  0.47048  0.03916  0.65061 11.00000  0.23624   3.03
HKLF 4
END
