TITL 0531_m3fs_200_00_0531_b.res in I4(1)
REM Old TITL 0620 in I4(1)/a
REM SHELXT solution in I4(1): R1 0.387, Rweak 0.202, Alpha 0.256
REM <I/s>   0.000 for    0 systematic absences,  Orientation as input
REM Flack x = -9.990 ( 9.990 ) from   129 Parsons' quotients
REM Formula found by SHELXT:  C33 N14 O4

CELL  0.71073  26.6550  26.6550   7.5900   90.000   90.000   90.000
ZERR  108.000   0.0038   0.0038   0.0015    0.000    0.000    0.000
LATT -2
SYMM 1/2-X, 1/2-Y, 1/2+Z
SYMM -Y, 1/2+X, 1/4+Z
SYMM 1/2+Y, -X, 3/4+Z
SFAC C H N O
UNIT 108 108 108 108
L.S. 10
BOND
LIST 6
FMAP 2
PLAN 20
N001  3  0.58709  0.46109  0.23791 11.00000  0.12681   8.64
N002  3  0.53810  0.44648 -0.11877 11.00000  0.09684   8.46
N003  3  0.49624  0.45613  0.00201 11.00000  0.12690   8.14
C004  1  0.59035  0.52329  0.53009 11.00000  0.11742   7.87
N005  3  0.53309  0.41461 -0.25646 11.00000  0.14211   7.87
C006  1  0.49278  0.38708 -0.25150 11.00000  0.11553   7.40
N007  3  0.45841  0.38604 -0.09169 11.00000  0.13434   7.15
N008  3  0.62509  0.46363  0.40068 11.00000  0.19046   7.02
N009  3  0.67489  0.48192  0.62471 11.00000  0.12956   6.98
C00A  1  0.74598  0.51559  1.17383 11.00000  0.16584   6.37
C00B  1  0.76023  0.47033  0.82279 11.00000  0.12150   6.34
C00C  1  0.54212  0.49356  0.24837 11.00000  0.10766   6.24
C00D  1  0.80066  0.47807  0.96371 11.00000  0.11250   5.80
C00E  1  0.63588  0.48811  0.48082 11.00000  0.18786   5.76
C00F  1  0.54945  0.53444  0.39137 11.00000  0.19567   5.66
C00G  1  0.79553  0.49506  1.13853 11.00000  0.17127   5.46
C00H  1  0.46180  0.41795  0.03728 11.00000  0.10255   5.41
O00I  4  0.75744  0.45253  0.66485 11.00000  0.15337   5.29
C00J  1  0.66594  0.50051  0.79496 11.00000  0.17753   4.87
C00K  1  0.71985  0.52843  1.04470 11.00000  0.17930   4.80
C00L  1  0.50000  0.50000  0.14988 10.50000  0.09357   4.65
C00M  1  0.70987  0.50357  0.90131 11.00000  0.13211   4.08
C00N  1  0.83087  0.49776  1.30716 11.00000  0.22311   3.85
O00O  4  0.46256  0.45290 -0.30716 11.00000  0.54944   3.84
C00P  1  0.62853  0.43962  0.33525 11.00000  0.20746   3.61
C00Q  1  0.51148  0.37889 -0.18630 11.00000  0.19530   3.56
HKLF 4
END
