TITL 0531_m3fs_1000_00_0531_a.res in I4(1)
REM Old TITL 0620 in I4(1)/a
REM SHELXT solution in I4(1): R1 0.333, Rweak 0.097, Alpha 0.207
REM <I/s>   0.000 for    0 systematic absences,  Orientation as input
REM Flack x = -9.990 ( 9.990 ) from   129 Parsons' quotients
REM Formula found by SHELXT:  C37 N16 O2

CELL  0.71073  26.6550  26.6550   7.5900   90.000   90.000   90.000
ZERR  108.000   0.0038   0.0038   0.0015    0.000    0.000    0.000
LATT -2
SYMM 1/2-X, 1/2-Y, 1/2+Z
SYMM -Y, 1/2+X, 1/4+Z
SYMM 1/2+Y, -X, 3/4+Z
SFAC C H N O
UNIT 108 108 108 108
L.S. 10
BOND
LIST 6
FMAP 2
PLAN 20
N001  3  0.12396  0.45903  0.67402 11.00000  0.14733   9.19
N002  3  0.00009  0.54681  1.03853 11.00000  0.15087   8.06
N003  3  0.03642  0.58096  1.03108 11.00000  0.17873   7.83
N004  3  0.00337  0.62367  1.27671 11.00000  0.17166   7.73
N005  3 -0.03317  0.58438  1.31452 11.00000  0.14987   7.61
N006  3  0.09190  0.52057  0.52624 11.00000  0.18005   7.48
C007  1 -0.03534  0.53604  1.22290 11.00000  0.20581   7.30
N008  3  0.08519  0.45868  0.81604 11.00000  0.14727   6.96
N009  3  0.25445  0.47280  0.21561 11.00000  0.20127   6.65
C00A  1  0.04162  0.61392  1.15297 11.00000  0.19642   6.57
C00B  1  0.24179  0.52933 -0.11489 11.00000  0.16596   6.48
C00C  1  0.17112  0.47209  0.45002 11.00000  0.14891   6.22
C00D  1  0.04565  0.53746  0.66700 11.00000  0.16662   6.21
C00E  1  0.12612  0.48438  0.54585 11.00000  0.17135   6.14
C00F  1  0.03877  0.48966  0.77744 11.00000  0.12233   5.75
C00G  1  0.30085  0.47630  0.09185 11.00000  0.19469   5.64
O00H  4  0.24765  0.44953  0.37272 11.00000  0.27102   5.31
C00I  1  0.00000  0.50000  0.90583 10.50000  0.14363   5.22
C00J  1  0.21384  0.52622  0.01310 11.00000  0.17992   5.06
C00K  1  0.29187  0.49761 -0.09129 11.00000  0.19437   4.92
C00L  1 -0.03201  0.55652  1.16158 11.00000  0.12104   4.73
C00M  1  0.34554  0.48079 -0.15419 11.00000  0.18523   4.37
C00N  1  0.16620  0.49288  0.31742 11.00000  0.17656   4.15
C00O  1  0.32507  0.50865 -0.31452 11.00000  0.19688   4.08
C00P  1  0.24486  0.35970 -0.14588 11.00000  0.27038   3.76
C00Q  1  0.23937  0.54141 -0.29041 11.00000  0.15055   3.50
C00R  1  0.21350  0.50160  0.17059 11.00000  0.16106   3.38
C00S  1  0.21548  0.34458 -0.00455 11.00000  0.26804   3.15
HKLF 4
END
