TITL 0531_m3fs_3000_00_0531_b.res in I-4
REM Old TITL 0620 in I4(1)/a
REM SHELXT solution in I-4: R1 0.348, Rweak 0.124, Alpha 0.210
REM <I/s>   0.000 for    0 systematic absences,  Orientation as input
REM Flack x = -9.990 ( 9.990 ) from   126 Parsons' quotients
REM Formula found by SHELXT:  C65 N36 O8

CELL  0.71073  26.6550  26.6550   7.5900   90.000   90.000   90.000
ZERR  108.000   0.0038   0.0038   0.0015    0.000    0.000    0.000
LATT -2
SYMM -X, -Y, Z
SYMM Y, -X, -Z
SYMM -Y, X, -Z
SFAC C H N O
UNIT 108 108 108 108
L.S. 10
BOND
LIST 6
FMAP 2
PLAN 20
N001  3  0.53883  0.61339 -0.27309 11.00000  0.19908   8.10
N002  3  0.50319  0.62355 -0.12196 11.00000  0.20159   8.04
N003  3  0.54440  0.57620 -0.39571 11.00000  0.15304   7.28
N004  3  0.52074  0.75666  0.20134 11.00000  0.18219   7.13
N005  3  0.52734  0.91347  0.87213 11.00000  0.20691   6.92
N006  3  0.47124  0.59056 -0.10194 11.00000  0.18391   6.84
N007  3  0.49720  0.95885  1.11877 11.00000  0.17414   6.64
C008  1  0.50000  1.00000  1.25000 10.25000  0.06638   6.49
C009  1  0.50860  0.54062 -0.39525 11.00000  0.15589   6.21
C00A  1  0.46812  0.54510 -0.25598 11.00000  0.13740   6.14
C00B  1  0.54070  0.94631  0.98772 11.00000  0.15053   5.68
C00C  1  0.46452  0.91057  1.13792 11.00000  0.11328   5.61
O00D  4  0.48934  0.70783  0.25320 11.00000  0.23803   5.46
C00E  1  0.51748  0.79104  0.33463 11.00000  0.18559   5.32
C00F  1  0.52033  0.66804 -0.02187 11.00000  0.15165   5.21
C00G  1  0.44984  0.87572  1.02502 11.00000  0.14156   5.18
O00H  4  0.47056  0.70009  0.40916 11.00000  0.21893   4.77
C00I  1  0.48913  0.87472  0.89641 11.00000  0.19932   4.39
C00J  1  0.50877  0.83360  0.59363 11.00000  0.22938   4.27
C00K  1  0.45745  0.73614  0.72040 11.00000  0.13712   4.12
C00L  1  0.49746  0.66231  0.10802 11.00000  0.23080   4.08
C00M  1  0.54852  0.74633  0.03831 11.00000  0.23975   4.02
C00N  1  0.46503  0.74323  0.55335 11.00000  0.18609   3.96
C00O  1  0.53544  0.61848 -0.20574 11.00000  0.26586   3.96
N00P  3  0.46500  0.65144  0.21464 11.00000  0.27992   3.78
C00Q  1  0.49471  0.78927  0.50717 11.00000  0.15244   3.72
C00R  1  0.48743  0.82075  0.72010 11.00000  0.21828   3.60
N00S  3  0.63166  0.74300  0.49995 11.00000  0.28503   3.45
HKLF 4
END
