TITL 0531_m3fs_10000_00_0531_b.res in I-4
REM Old TITL 0620 in I4(1)/a
REM SHELXT solution in I-4: R1 0.368, Rweak 0.067, Alpha 0.216
REM <I/s>   0.000 for    0 systematic absences,  Orientation as input
REM Flack x = -1.698 ( 9.990 ) from   124 Parsons' quotients
REM Formula found by SHELXT:  C77 N20 O16

CELL  0.71073  26.6550  26.6550   7.5900   90.000   90.000   90.000
ZERR  108.000   0.0038   0.0038   0.0015    0.000    0.000    0.000
LATT -2
SYMM -X, -Y, Z
SYMM Y, -X, -Z
SYMM -Y, X, -Z
SFAC C H N O
UNIT 108 108 108 108
L.S. 10
BOND
LIST 6
FMAP 2
PLAN 20
N001  3  0.45952  0.87575 -0.01910 11.00000  0.18800   9.87
N002  3  0.46570  0.91475 -0.13038 11.00000  0.16043   8.45
N003  3  0.53229  0.94900 -0.00035 11.00000  0.17497   8.04
N004  3  0.53057  0.91141  0.13316 11.00000  0.14452   8.02
N005  3  0.50472  0.87551  0.09384 11.00000  0.24602   7.71
C006  1  0.50000  1.00000 -0.25000 10.25000  0.06943   6.86
C007  1  0.49796  0.95558 -0.12089 11.00000  0.09132   6.79
C008  1  0.50921  0.54674  1.38134 11.00000  0.18041   5.94
C009  1  0.46754  0.58735  1.11999 11.00000  0.15997   5.84
C00A  1  0.47693  0.74253  0.45212 11.00000  0.14132   5.76
C00B  1  0.51687  0.67143  0.99593 11.00000  0.15951   5.75
C00C  1  0.50618  0.78847  0.50906 11.00000  0.15282   5.72
C00D  1  0.51719  0.74340  0.77834 11.00000  0.18123   5.41
C00E  1  0.53999  0.58330  1.39807 11.00000  0.10869   5.01
C00F  1  0.51203  0.61638  1.11736 11.00000  0.15933   4.83
C00G  1  0.52173  0.78582  0.66212 11.00000  0.18982   4.67
O00H  4  0.47228  0.70123  0.57091 11.00000  0.23211   4.53
C00I  1  0.52952  0.85405  0.43526 11.00000  0.22867   4.36
C00J  1  0.45840  0.74927  0.29359 11.00000  0.19830   4.25
C00K  1  0.44802  0.85645 -0.05968 11.00000  0.27712   4.22
C00L  1  0.46952  0.86881  0.09017 11.00000  0.21965   4.21
C00M  1  0.54022  0.61362  1.26125 11.00000  0.13097   4.18
O00N  4  0.54360  0.76396  0.97187 11.00000  0.29765   4.17
C00O  1  0.48328  0.83749  0.23007 11.00000  0.24197   4.13
C00P  1  0.49095  0.91386 -0.00522 11.00000  0.27880   4.13
O00Q  4  0.49465  0.66880  0.85639 11.00000  0.28274   4.10
C00R  1  0.46648  0.55282  1.24845 11.00000  0.13537   4.00
O00S  4  0.65393  0.70735  0.58635 11.00000  0.33661   3.26
C00T  1  0.65043  0.72677  0.46935 11.00000  0.24666   3.14
HKLF 4
END
