TITL 0531_m3fs_4_00_0531_b.res in I4(1)
REM Old TITL 0620 in I4(1)/a
REM SHELXT solution in I4(1): R1 0.384, Rweak 0.185, Alpha 0.163
REM <I/s>   0.000 for    0 systematic absences,  Orientation as input
REM Flack x = -9.415 ( 9.990 ) from   106 Parsons' quotients
REM Formula found by SHELXT:  C36 N23 O10

CELL  0.71073  26.6550  26.6550   7.5900   90.000   90.000   90.000
ZERR  108.000   0.0038   0.0038   0.0015    0.000    0.000    0.000
LATT -2
SYMM 1/2-X, 1/2-Y, 1/2+Z
SYMM -Y, 1/2+X, 1/4+Z
SYMM 1/2+Y, -X, 3/4+Z
SFAC C H N O
UNIT 108 108 108 108
L.S. 10
BOND
LIST 6
FMAP 2
PLAN 20
N001  3  0.52329  0.43285  0.14633 11.00000  0.19525   9.90
C002  1  0.47324  0.24116  0.75471 11.00000  0.09277   9.62
N003  3  0.49366  0.45155  0.33957 11.00000  0.14145   8.89
N004  3  0.46255  0.38162  0.21911 11.00000  0.17778   8.72
O005  4  0.59628  0.51970  0.83718 11.00000  0.18898   8.66
N006  3  0.49489  0.39106  0.08684 11.00000  0.15072   8.61
O007  4  0.56300  0.54084  0.69411 11.00000  0.20070   8.57
N008  3  0.46392  0.41159  0.35875 11.00000  0.12283   8.48
O009  4  0.58077  0.46304  0.54553 11.00000  0.21093   8.30
O00A  4  0.54400  0.49855  0.59564 11.00000  0.22372   7.59
N00B  3  0.61772  0.45526  0.69907 11.00000  0.22225   7.45
N00C  3  0.50009  0.28948  0.71030 11.00000  0.15300   7.38
N00D  3  0.51514  0.27986  0.49490 11.00000  0.21533   7.01
N00E  3  0.50000  0.50000  0.44085 10.50000  0.14266   6.53
C00F  1  0.62086  0.50142  0.70399 11.00000  0.27680   6.46
C00G  1  0.52495  0.39623  0.30004 11.00000  0.28476   6.44
C00H  1  0.48126  0.32330  0.96075 11.00000  0.14224   6.07
C00I  1  0.46956  0.20002  0.64198 11.00000  0.11360   5.95
C00J  1  0.52917  0.41219  0.00327 11.00000  0.13541   5.25
C00K  1  0.47120  0.41934  0.20214 11.00000  0.25699   4.96
C00L  1  0.50103  0.16073  0.36122 11.00000  0.23993   4.86
C00M  1  0.49928  0.31766  0.82098 11.00000  0.14011   4.77
C00N  1  0.45977  0.23024  0.91128 11.00000  0.18658   4.51
C00O  1  0.54603  0.24770  0.24087 11.00000  0.13163   4.43
C00P  1  0.52426  0.34728  0.75288 11.00000  0.17476   4.22
C00Q  1  0.49825  0.21248  0.48796 11.00000  0.15487   4.02
C00R  1  0.51007  0.30644  0.59719 11.00000  0.19440   4.00
C00S  1  0.51446  0.24547  0.36388 11.00000  0.16361   3.95
C00T  1  0.55028  0.46168 -0.15186 11.00000  0.16746   3.65
N00U  3  0.64120  0.27192  0.78674 11.00000  0.34917   3.55
N00V  3  0.65902  0.33020  1.15186 11.00000  0.36216   3.50
C00W  1  0.54559  0.35589  0.48509 11.00000  0.22655   3.22
C00X  1  0.44726  0.10833  0.39625 11.00000  0.28520   3.18
N00Y  3  0.35580  0.34223  0.86466 11.00000  0.40917   3.14
O00Z  4  0.43365  0.28372  1.12029 11.00000  0.76953   3.11
HKLF 4
END
