TITL 0531_m3fs_4_00_0531_a.res in I-4
REM Old TITL 0620 in I4(1)/a
REM SHELXT solution in I-4: R1 0.371, Rweak 0.083, Alpha 0.165
REM <I/s>   0.000 for    0 systematic absences,  Orientation as input
REM Flack x = -9.990 ( 9.990 ) from   105 Parsons' quotients
REM Formula found by SHELXT:  C27 N20 O12

CELL  0.71073  26.6550  26.6550   7.5900   90.000   90.000   90.000
ZERR  108.000   0.0038   0.0038   0.0015    0.000    0.000    0.000
LATT -2
SYMM -X, -Y, Z
SYMM Y, -X, -Z
SYMM -Y, X, -Z
SFAC C H N O
UNIT 108 108 108 108
L.S. 10
BOND
LIST 6
FMAP 2
PLAN 20
O001  4  0.53540  0.91524  1.36897 11.00000  0.23989  10.16
O002  4  0.45861  0.90740  1.65297 11.00000  0.19383   9.31
N003  3  0.48569  0.56081  0.24389 11.00000  0.19090   8.99
N004  3  0.50428  0.55366  0.10419 11.00000  0.18505   8.85
O005  4  0.45144  0.87505  1.49974 11.00000  0.19425   8.12
N006  3  0.49278  0.95450  1.61106 11.00000  0.11782   7.59
N007  3  0.52205  0.75316  0.71540 11.00000  0.22239   7.44
C008  1  0.53528  0.60438  0.23281 11.00000  0.17404   7.39
N009  3  0.50534  0.61452  0.34867 11.00000  0.17330   7.33
N00A  3  0.49394  0.73160  0.89566 11.00000  0.24424   6.89
N00B  3  0.49055  0.66408  0.69662 11.00000  0.15592   6.53
C00C  1  0.54443  0.57983  0.12345 11.00000  0.15057   6.52
C00D  1  0.54110  0.93400  1.49828 11.00000  0.19244   6.20
C00E  1  0.48313  0.82533  1.24800 11.00000  0.11660   6.13
C00F  1  0.50564  0.71207  0.73280 11.00000  0.15365   5.92
C00G  1  0.48372  0.74349  1.03878 11.00000  0.09058   5.91
C00H  1  0.50000  0.50000  0.00000 10.25000  0.13656   5.85
C00I  1  0.52997  0.57093  0.38559 11.00000  0.27922   5.68
C00J  1  0.50679  0.78506  0.99992 11.00000  0.09824   5.05
O00K  4  0.51640  0.74604  0.53733 11.00000  0.32493   4.84
O00L  4  0.51184  0.79031  0.83625 11.00000  0.25315   4.49
N00M  3  0.47566  0.69436  0.85183 11.00000  0.22135   4.46
C00N  1  0.45201  0.74535  1.19688 11.00000  0.13298   4.28
O00O  4  0.66003  0.64287 -0.38871 11.00000  0.36365   4.21
C00P  1  0.54603  0.68883  0.41296 11.00000  0.44059   4.17
C00Q  1  0.49789  0.81982  1.13514 11.00000  0.16487   4.07
C00R  1  0.50000  1.00000  1.75000 10.25000  0.15739   3.81
N00S  3  0.47181  0.59801  0.40612 11.00000  0.18253   3.29
C00T  1  0.60911  0.60906 -0.14205 11.00000  0.35351   3.25
N00U  3  0.72672  0.66568 -0.69806 11.00000  0.34311   3.23
C00V  1  0.46027  0.69481  0.95926 11.00000  0.16512   3.12
HKLF 4
END
