TITL 0531_m3fs_30_00_0531_a.res in I4(1)
REM Old TITL 0620 in I4(1)/a
REM SHELXT solution in I4(1): R1 0.377, Rweak 0.127, Alpha 0.228
REM <I/s>   0.000 for    0 systematic absences,  Orientation as input
REM Flack x = -9.990 ( 9.990 ) from   128 Parsons' quotients
REM Formula found by SHELXT:  C33 N16 O8

CELL  0.71073  26.6550  26.6550   7.5900   90.000   90.000   90.000
ZERR  108.000   0.0038   0.0038   0.0015    0.000    0.000    0.000
LATT -2
SYMM 1/2-X, 1/2-Y, 1/2+Z
SYMM -Y, 1/2+X, 1/4+Z
SYMM 1/2+Y, -X, 3/4+Z
SFAC C H N O
UNIT 108 108 108 108
L.S. 10
BOND
LIST 6
FMAP 2
PLAN 20
N001  3  0.54123  0.12146 -0.09211 11.00000  0.11980   8.51
N002  3  0.46366  0.41089  1.29535 11.00000  0.14316   8.47
N003  3  0.53881  0.41134  1.02548 11.00000  0.17539   8.14
N004  3  0.51465  0.26285  0.35562 11.00000  0.15053   7.84
N005  3  0.50588  0.12089  0.04883 11.00000  0.11819   7.58
N006  3  0.47523  0.08414  0.06362 11.00000  0.18371   7.05
N007  3  0.53820  0.08506 -0.23180 11.00000  0.11113   6.94
C008  1  0.45154  0.38620  1.17630 11.00000  0.08434   6.93
C009  1  0.47561  0.19874  0.59297 11.00000  0.10543   6.72
C00A  1  0.47588  0.37363  1.06591 11.00000  0.15042   6.66
C00B  1  0.50320  0.04201 -0.19383 11.00000  0.04463   6.35
C00C  1  0.46710  0.05052 -0.06980 11.00000  0.09189   6.33
C00D  1  0.50064  0.44262  1.28401 11.00000  0.11639   6.26
O00E  4  0.49394  0.20904  0.44140 11.00000  0.16735   6.22
C00F  1  0.53773  0.43760  1.14973 11.00000  0.12148   5.69
C00G  1  0.50000  0.00000 -0.29535 10.50000  0.06333   5.41
C00H  1  0.47683  0.25068  0.69555 11.00000  0.12456   5.22
C00I  1  0.52516  0.17605  0.14933 11.00000  0.13895   5.00
O00J  4  0.45489  0.24252  0.87413 11.00000  0.13995   4.89
C00K  1  0.50216  0.32967  0.78434 11.00000  0.08501   4.87
C00L  1  0.49135  0.34050  0.92484 11.00000  0.10466   4.80
O00M  4  0.51623  0.28489  0.48597 11.00000  0.23753   4.20
C00N  1  0.50287  0.18525  0.21712 11.00000  0.25733   3.79
C00O  1  0.50126  0.13743 -0.05812 11.00000  0.13822   3.70
C00P  1  0.50998  0.40230  1.05082 11.00000  0.14901   3.63
O00Q  4  0.57427  0.33391  0.26979 11.00000  0.49794   3.41
C00R  1  0.50024  0.29545  0.64403 11.00000  0.16064   3.33
N00S  3  0.49297  0.15011  0.37459 11.00000  0.24757   3.31
C00T  1  0.43213  0.18265  0.67853 11.00000  0.16974   3.20
HKLF 4
END
