TITL 0531_m3fs_10_00_0531_a.res in I4(1)
REM Old TITL 0620 in I4(1)/a
REM SHELXT solution in I4(1): R1 0.387, Rweak 0.149, Alpha 0.223
REM <I/s>   0.000 for    0 systematic absences,  Orientation as input
REM Flack x = -9.990 ( 9.990 ) from   129 Parsons' quotients
REM Formula found by SHELXT:  C37 N16 O4

CELL  0.71073  26.6550  26.6550   7.5900   90.000   90.000   90.000
ZERR  108.000   0.0038   0.0038   0.0015    0.000    0.000    0.000
LATT -2
SYMM 1/2-X, 1/2-Y, 1/2+Z
SYMM -Y, 1/2+X, 1/4+Z
SYMM 1/2+Y, -X, 3/4+Z
SFAC C H N O
UNIT 108 108 108 108
L.S. 10
BOND
LIST 6
FMAP 2
PLAN 20
N001  3  0.38174  0.04313 -0.14347 11.00000  0.11766   9.11
N002  3  0.41330  0.03394 -0.02038 11.00000  0.09708   8.75
C003  1  0.52806  0.25711  0.78467 11.00000  0.09056   8.02
N004  3  0.45169  0.00019 -0.06083 11.00000  0.09686   7.98
N005  3  0.41669 -0.02811 -0.32560 11.00000  0.14822   7.69
C006  1  0.50944  0.11961  0.43863 11.00000  0.12272   7.35
N007  3  0.55382  0.12241  0.31119 11.00000  0.12406   7.14
N008  3  0.47409  0.09020  0.45864 11.00000  0.13376   7.04
C009  1  0.44803 -0.02859 -0.19855 11.00000  0.08017   6.62
N00A  3  0.38302  0.00511 -0.28933 11.00000  0.16104   6.58
C00B  1  0.54573  0.08696  0.19067 11.00000  0.08056   6.15
C00C  1  0.50021  0.21175  0.84020 11.00000  0.13332   6.08
C00D  1  0.50000  0.00000  0.10859 10.50000  0.06577   6.04
C00E  1  0.48629  0.32498  1.32560 11.00000  0.13053   6.02
C00F  1  0.45857  0.05917  0.31762 11.00000  0.10372   5.83
C00G  1  0.50804  0.04225  0.20073 11.00000  0.05963   5.81
C00H  1  0.47989  0.21452  0.98489 11.00000  0.19817   5.72
O00I  4  0.54450  0.25792  0.61937 11.00000  0.13902   5.67
C00J  1  0.49354  0.24132  1.15242 11.00000  0.16419   5.36
C00K  1  0.52387  0.29153  0.90206 11.00000  0.11365   5.33
C00L  1  0.50717  0.33366  1.18153 11.00000  0.16234   4.94
C00M  1  0.53912  0.36079  1.06570 11.00000  0.25544   4.43
N00N  3  0.37114  0.01348 -0.19670 11.00000  0.19761   3.88
C00O  1  0.50880  0.29238  1.07942 11.00000  0.10417   3.86
C00P  1  0.50652  0.16111  0.56660 11.00000  0.12514   3.75
C00Q  1  0.49742  0.16297  0.71013 11.00000  0.16340   3.71
C00R  1  0.56645  0.33131  0.80153 11.00000  0.19637   3.40
O00S  4  0.39390 -0.09998 -0.26754 11.00000  0.55387   3.36
C00T  1  0.56663  0.32025  1.24025 11.00000  0.25973   3.19
HKLF 4
END
