TITL 0531_m3fs_3_00_0531_a.res in I4(1)
REM Old TITL 0620 in I4(1)/a
REM SHELXT solution in I4(1): R1 0.406, Rweak 0.212, Alpha 0.192
REM <I/s>   0.000 for    0 systematic absences,  Orientation as input
REM Flack x = -9.990 ( 9.990 ) from    94 Parsons' quotients
REM Formula found by SHELXT:  C33 N12 O12

CELL  0.71073  26.6550  26.6550   7.5900   90.000   90.000   90.000
ZERR  108.000   0.0038   0.0038   0.0015    0.000    0.000    0.000
LATT -2
SYMM 1/2-X, 1/2-Y, 1/2+Z
SYMM -Y, 1/2+X, 1/4+Z
SYMM 1/2+Y, -X, 3/4+Z
SFAC C H N O
UNIT 108 108 108 108
L.S. 10
BOND
LIST 6
FMAP 2
PLAN 20
O001  4  0.47763  0.59574 -0.41783 11.00000  0.35643   8.94
N002  3  0.59178  0.44888  0.03156 11.00000  0.31424   8.50
N003  3  0.55949  0.53089  0.23172 11.00000  0.22424   7.62
O004  4  0.51624  0.62008 -0.25139 11.00000  0.32868   7.62
N005  3  0.49597  0.54450 -0.12620 11.00000  0.21665   7.57
N006  3  0.59543  0.53259  0.35872 11.00000  0.21873   7.37
N007  3  0.50765  0.60186 -0.36474 11.00000  0.27624   7.22
N008  3  0.55073  0.60193 -0.13208 11.00000  0.36103   7.10
C009  1  0.75026  0.47315  0.72059 11.00000  0.12341   7.10
C00A  1  0.54638  0.48774  0.13902 11.00000  0.14007   7.10
C00B  1  0.62173  0.46316  0.33361 11.00000  0.16634   6.30
C00C  1  0.76575  0.49754  0.91401 11.00000  0.32768   6.06
C00D  1  0.74241  0.55094  1.21449 11.00000  0.23701   5.99
C00E  1  0.79543  0.49497  1.02506 11.00000  0.15756   5.93
C00F  1  0.72641  0.54055  1.03121 11.00000  0.28651   5.59
C00G  1  0.85065  0.49323  1.13501 11.00000  0.27089   5.43
O00H  4  0.75204  0.47946  0.54921 11.00000  0.34885   5.35
C00I  1  0.45975  0.57467 -0.26792 11.00000  0.33192   5.17
C00J  1  0.81818  0.51713  1.27184 11.00000  0.19967   5.14
C00K  1  0.50000  0.50000  0.07019 10.50000  0.09215   5.12
C00L  1  0.72606  0.50354  0.80617 11.00000  0.20730   5.02
C00M  1  0.65687  0.50084  0.50467 11.00000  0.27091   4.48
C00N  1  0.67612  0.50729  0.69640 11.00000  0.15594   4.31
C00O  1  0.59949  0.46357  0.16602 11.00000  0.20533   3.86
O00P  4  0.75538  0.60263  1.41783 11.00000  0.37458   3.59
C00Q  1  0.62398  0.54904  0.70397 11.00000  0.24918   3.39
O00R  4  0.78447  0.48194  0.84296 11.00000  0.30306   3.23
O00S  4  0.59627  0.53951  0.54322 11.00000  0.38827   3.14
C00T  1  0.69945  0.52109  0.93002 11.00000  0.26310   3.04
HKLF 4
END
