TITL 0531_m3fs_100_00_0531_b.res in I4(1)
REM Old TITL 0620 in I4(1)/a
REM SHELXT solution in I4(1): R1 0.363, Rweak 0.140, Alpha 0.197
REM <I/s>   0.000 for    0 systematic absences,  Orientation as input
REM Flack x = -6.023 ( 9.990 ) from   129 Parsons' quotients
REM Formula found by SHELXT:  C29 N18 O8

CELL  0.71073  26.6550  26.6550   7.5900   90.000   90.000   90.000
ZERR  108.000   0.0038   0.0038   0.0015    0.000    0.000    0.000
LATT -2
SYMM 1/2-X, 1/2-Y, 1/2+Z
SYMM -Y, 1/2+X, 1/4+Z
SYMM 1/2+Y, -X, 3/4+Z
SFAC C H N O
UNIT 108 108 108 108
L.S. 10
BOND
LIST 6
FMAP 2
PLAN 20
N001  3  0.41534  0.46991  0.52782 11.00000  0.17341   9.18
N002  3  0.38135  0.53513  0.35035 11.00000  0.11633   8.17
O003  4  0.54081  0.44702 -0.15616 11.00000  0.14816   7.81
N004  3  0.38109  0.50336  0.47091 11.00000  0.12934   7.53
N005  3  0.49456  0.45598 -0.02848 11.00000  0.11562   7.06
C006  1  0.25437  0.46713  1.11518 11.00000  0.14092   6.62
N007  3  0.52772  0.41795 -0.29337 11.00000  0.18936   6.59
N008  3  0.45012  0.41584 -0.02940 11.00000  0.13187   6.57
N009  3  0.44493  0.37989 -0.13230 11.00000  0.14904   6.56
C00A  1  0.41047  0.53553  0.20022 11.00000  0.10927   6.53
C00B  1  0.44816  0.49948  0.24920 11.00000  0.11414   6.44
C00C  1  0.43273  0.47528  0.40313 11.00000  0.17350   6.19
C00D  1  0.24441  0.51415  0.80201 11.00000  0.09259   5.90
O00E  4  0.21143  0.51391  0.93288 11.00000  0.19708   5.88
C00F  1  0.32404  0.51477  0.58395 11.00000  0.10939   5.78
C00G  1  0.49195  0.38135 -0.28256 11.00000  0.14004   5.29
C00H  1  0.50000  0.50000  0.12146 10.50000  0.09779   4.91
C00I  1  0.15276  0.50479  1.15932 11.00000  0.09854   4.86
O00J  4  0.23544  0.54760  0.64936 11.00000  0.24960   4.72
N00K  3  0.27913  0.49412  0.85281 11.00000  0.16011   4.67
C00L  1  0.20285  0.49911  1.09597 11.00000  0.12620   4.29
N00M  3  0.27138  0.64247  1.07113 11.00000  0.19264   4.19
C00N  1  0.36315  0.50141  0.33638 11.00000  0.23077   4.15
C00O  1  0.29790  0.47412  1.01271 11.00000  0.22541   4.08
C00P  1  0.16494  0.49130  1.29337 11.00000  0.11136   3.92
C00Q  1  0.31868  0.49056  0.71959 11.00000  0.16951   3.89
O00R  4  0.25425  0.45095  1.28891 11.00000  0.25080   3.81
C00S  1  0.48594  0.41825  0.03179 11.00000  0.20215   3.28
HKLF 4
END
