TITL 0531_m3fs_5000_00_0531_a.res in I4(1)
REM Old TITL 0620 in I4(1)/a
REM SHELXT solution in I4(1): R1 0.355, Rweak 0.117, Alpha 0.230
REM <I/s>   0.000 for    0 systematic absences,  Orientation as input
REM Flack x =  0.215 ( 9.990 ) from   129 Parsons' quotients
REM Formula found by SHELXT:  C27 N12 O10

CELL  0.71073  26.6550  26.6550   7.5900   90.000   90.000   90.000
ZERR  108.000   0.0038   0.0038   0.0015    0.000    0.000    0.000
LATT -2
SYMM 1/2-X, 1/2-Y, 1/2+Z
SYMM -Y, 1/2+X, 1/4+Z
SYMM 1/2+Y, -X, 3/4+Z
SFAC C H N O
UNIT 108 108 108 108
L.S. 10
BOND
LIST 6
FMAP 2
PLAN 20
O001  4  0.58555 -0.04038  0.00191 11.00000  0.20653   7.63
N002  3  0.46946  0.08640  0.49690 11.00000  0.20525   7.40
N003  3  0.52374  0.25745  0.82372 11.00000  0.19958   7.35
C004  1  0.49794  0.21191  0.86061 11.00000  0.12355   7.14
N005  3  0.54285 -0.01133 -0.01338 11.00000  0.17563   6.88
N006  3  0.61853 -0.04898 -0.12523 11.00000  0.15682   6.57
N007  3  0.53788  0.12233  0.34546 11.00000  0.18274   6.57
C008  1  0.50379  0.12426  0.47129 11.00000  0.14591   6.38
C009  1  0.55137  0.03644 -0.15961 11.00000  0.15311   6.34
C00A  1  0.66502 -0.00993 -0.39661 11.00000  0.18791   5.92
C00B  1  0.47011  0.20416  1.02439 11.00000  0.18729   5.90
O00C  4  0.66013  0.00710 -0.54834 11.00000  0.22701   5.88
C00D  1  0.53981  0.08517  0.22205 11.00000  0.14968   5.87
C00E  1  0.59100  0.02725 -0.27954 11.00000  0.12102   5.63
C00F  1  0.62098 -0.01209 -0.25494 11.00000  0.17975   5.37
C00G  1  0.50002  0.04394  0.23148 11.00000  0.12451   5.06
C00H  1  0.47113  0.04501  0.35447 11.00000  0.12457   4.69
O00I  4  0.52828  0.29449  0.96048 11.00000  0.31114   4.51
C00J  1  0.50000  0.00000  0.10045 10.50000  0.14354   4.32
C00K  1  0.46680  0.24656  1.14674 11.00000  0.19991   4.10
C00L  1  0.54978  0.26061  0.67743 11.00000  0.23913   4.09
O00M  4  0.46037  0.24305  1.33982 11.00000  0.26524   3.51
O00N  4  0.61420  0.05943 -0.43531 11.00000  0.48862   3.16
N00O  3  0.34384  0.17319  1.54834 11.00000  0.34294   3.10
C00P  1  0.51966  0.16766  0.62996 11.00000  0.22230   3.08
HKLF 4
END
