TITL 0531_m3fs_2_00_0531_b.res in I-4
REM Old TITL 0620 in I4(1)/a
REM SHELXT solution in I-4: R1 0.438, Rweak 0.311, Alpha 0.196
REM <I/s>   0.000 for    0 systematic absences,  Orientation as input
REM Flack x = -9.990 ( 9.990 ) from   126 Parsons' quotients
REM Formula found by SHELXT:  C72 N17 O8

CELL  0.71073  26.6550  26.6550   7.5900   90.000   90.000   90.000
ZERR  108.000   0.0038   0.0038   0.0015    0.000    0.000    0.000
LATT -2
SYMM -X, -Y, Z
SYMM Y, -X, -Z
SYMM -Y, X, -Z
SFAC C H N O
UNIT 108 108 108 108
L.S. 10
BOND
LIST 6
FMAP 2
PLAN 20
N001  3  0.54676  0.59369 -0.44416 11.00000  0.20387   9.56
N002  3  0.50000  0.50000 -0.50000 10.25000  0.15787   9.02
N003  3  0.50089  0.62079 -0.16314 11.00000  0.21293   8.11
N004  3  0.47934  0.58841 -0.11543 11.00000  0.25401   7.96
C005  1  0.52479  0.57233 -0.32965 11.00000  0.27320   7.35
N006  3  0.55173  0.93032  0.97346 11.00000  0.34291   6.58
C007  1  0.47834  0.61417 -0.24047 11.00000  0.29300   6.43
C008  1  0.54122  0.92491  0.82472 11.00000  0.30256   6.03
C009  1  0.49663  0.72502  0.20294 11.00000  0.24563   5.83
C00A  1  0.46694  0.71205  0.45205 11.00000  0.16765   5.74
C00B  1  0.46957  0.82045  0.82276 11.00000  0.28926   5.47
C00C  1  0.47623  0.70860  0.32358 11.00000  0.19814   5.24
C00D  1  0.48681  0.66562  0.15258 11.00000  0.21646   5.09
C00E  1  0.52665  0.74810  0.09543 11.00000  0.21535   4.94
C00F  1  0.50350  0.82012  0.35437 11.00000  0.25547   4.67
C00G  1  0.46658  0.89937  1.19519 11.00000  0.22447   4.57
C00H  1  0.44800  0.86592  1.02091 11.00000  0.16838   4.55
C00I  1  0.58744  0.72901 -0.06036 11.00000  0.30356   4.35
C00J  1  0.54228  0.59299 -0.27072 11.00000  0.18333   4.34
C00K  1  0.58166  0.64387 -0.54347 11.00000  0.30923   3.92
C00L  1  0.50144  0.82756  0.58807 11.00000  0.21271   3.77
O00M  4  0.45301  0.59478  0.01131 11.00000  0.35671   3.61
C00N  1  0.50516  0.65316 -0.01471 11.00000  0.19338   3.60
C00O  1  0.49999  0.77090  0.47187 11.00000  0.21606   3.51
O00P  4  0.47114  0.72757  0.60929 11.00000  0.27520   3.38
HKLF 4
END
