TITL 0531_m3fs_5000_00_0531_b.res in I-4
REM Old TITL 0620 in I4(1)/a
REM SHELXT solution in I-4: R1 0.359, Rweak 0.023, Alpha 0.212
REM <I/s>   0.000 for    0 systematic absences,  Orientation as input
REM Flack x = -3.985 ( 5.358 ) from   126 Parsons' quotients
REM Formula found by SHELXT:  C57 N24 O20

CELL  0.71073  26.6550  26.6550   7.5900   90.000   90.000   90.000
ZERR  108.000   0.0038   0.0038   0.0015    0.000    0.000    0.000
LATT -2
SYMM -X, -Y, Z
SYMM Y, -X, -Z
SYMM -Y, X, -Z
SFAC C H N O
UNIT 108 108 108 108
L.S. 10
BOND
LIST 6
FMAP 2
PLAN 20
N001  3  0.47253  0.09252  0.13394 11.00000  0.14748   7.20
C002  1  0.45467  0.37251  1.24473 11.00000  0.16989   7.15
N003  3  0.50751  0.12120  0.11761 11.00000  0.17129   7.02
N004  3  0.46516  0.41146  1.39191 11.00000  0.15388   6.91
N005  3  0.50358  0.28899  0.74063 11.00000  0.14610   6.61
C006  1  0.46950  0.04733 -0.00480 11.00000  0.12386   6.03
C007  1  0.49603  0.45250  1.36231 11.00000  0.11178   5.89
C008  1  0.54086  0.07739 -0.13359 11.00000  0.11566   5.87
C009  1  0.50000  0.00000 -0.25000 10.25000  0.09121   5.81
C00A  1  0.51092  0.03856 -0.15025 11.00000  0.13620   5.75
O00B  4  0.51787  0.17076  0.23805 11.00000  0.20151   5.71
C00C  1  0.47567  0.19912  0.67540 11.00000  0.14598   5.47
C00D  1  0.53773  0.11312 -0.00581 11.00000  0.15472   5.44
C00E  1  0.52521  0.24661  0.45886 11.00000  0.14166   5.38
C00F  1  0.48030  0.23761  0.79498 11.00000  0.15340   5.27
C00G  1  0.49132  0.15791  0.39024 11.00000  0.14798   5.03
C00H  1  0.53092  0.41152  1.11936 11.00000  0.15755   4.87
C00I  1  0.53654  0.44020  1.23326 11.00000  0.19359   4.60
C00J  1  0.51968  0.29392  0.58627 11.00000  0.22732   4.15
O00K  4  0.45743  0.23788  0.95677 11.00000  0.19744   4.13
O00L  4  0.49618  0.36682  1.14417 11.00000  0.38268   4.02
N00M  3  0.45953  0.12086  0.46627 11.00000  0.26628   3.84
N00N  3  0.47166  0.16362  0.50620 11.00000  0.23630   3.60
C00O  1  0.45358  0.15192  0.66443 11.00000  0.26516   3.32
O00P  4  0.44626  0.10246  0.25721 11.00000  0.33792   3.29
O00Q  4  0.53102  0.30570  0.88130 11.00000  0.41449   3.02
HKLF 4
END
