TITL 0531_m3fs_2_00_0531_a.res in I4(1)
REM Old TITL 0620 in I4(1)/a
REM SHELXT solution in I4(1): R1 0.420, Rweak 0.377, Alpha 0.225
REM <I/s>   0.000 for    0 systematic absences,  Orientation as input
REM Flack x = -9.990 ( 3.727 ) from   129 Parsons' quotients
REM Formula found by SHELXT:  C25 N14 O14

CELL  0.71073  26.6550  26.6550   7.5900   90.000   90.000   90.000
ZERR  108.000   0.0038   0.0038   0.0015    0.000    0.000    0.000
LATT -2
SYMM 1/2-X, 1/2-Y, 1/2+Z
SYMM -Y, 1/2+X, 1/4+Z
SYMM 1/2+Y, -X, 3/4+Z
SFAC C H N O
UNIT 108 108 108 108
L.S. 10
BOND
LIST 6
FMAP 2
PLAN 20
O001  4  0.59302  1.06463 -0.13042 11.00000  0.28307   9.46
O002  4  0.58741  0.94903  0.28667 11.00000  0.18998   9.36
O003  4  0.65230  0.93216  0.14774 11.00000  0.40869   9.23
O004  4  0.51496  0.75862  1.42202 11.00000  0.21099   8.63
O005  4  0.57248  1.02221 -0.01029 11.00000  0.37863   7.97
N006  3  0.43060  0.85078  0.28838 11.00000  0.30622   7.79
N007  3  0.44652  0.88508  0.52734 11.00000  0.30469   7.70
N008  3  0.61372  0.95840  0.12153 11.00000  0.20897   7.66
N009  3  0.54611  0.92612  0.66225 11.00000  0.26737   7.62
C00A  1  0.51960  0.87541  0.67095 11.00000  0.26566   6.99
N00B  3  0.49469  0.84358  0.78645 11.00000  0.23557   6.94
C00C  1  0.57355  0.91222  0.50079 11.00000  0.30683   6.82
C00D  1  0.50113  0.71710  1.34780 11.00000  0.12325   6.45
C00E  1  0.53003  0.78621  1.27778 11.00000  0.15910   6.40
C00F  1  0.51117  0.71576  1.18561 11.00000  0.24107   6.20
C00G  1  0.50000  1.00000  0.31288 10.50000  0.12579   6.10
N00H  3  0.51583  0.79841  1.06179 11.00000  0.25201   5.86
C00I  1  0.43544  0.72589  0.86706 11.00000  0.27824   4.74
O00J  4  0.53352  0.74238  1.55920 11.00000  0.31348   4.57
C00K  1  0.49634  0.72579  1.00818 11.00000  0.34709   4.29
C00L  1  0.50170  0.85761  0.95029 11.00000  0.23875   4.07
C00M  1  0.49120  0.88594  0.64841 11.00000  0.27965   4.03
C00N  1  0.60015  1.05795 -0.29592 11.00000  0.26547   3.66
N00O  3  0.35595  0.82853  0.13611 11.00000  0.29975   3.66
C00P  1  0.64756  0.96225 -0.03072 11.00000  0.21296   3.51
C00Q  1  0.61376  1.05207 -0.55920 11.00000  0.26111   3.45
O00R  4  0.51507  0.90264  0.79762 11.00000  0.21422   3.44
HKLF 4
END
