TITL 0531_m3fs_10000_00_0531_a.res in I4(1)
REM Old TITL 0620 in I4(1)/a
REM SHELXT solution in I4(1): R1 0.349, Rweak 0.070, Alpha 0.226
REM <I/s>   0.000 for    0 systematic absences,  Orientation as input
REM Flack x = -9.990 ( 9.990 ) from   127 Parsons' quotients
REM Formula found by SHELXT:  C23 N20 O14

CELL  0.71073  26.6550  26.6550   7.5900   90.000   90.000   90.000
ZERR  108.000   0.0038   0.0038   0.0015    0.000    0.000    0.000
LATT -2
SYMM 1/2-X, 1/2-Y, 1/2+Z
SYMM -Y, 1/2+X, 1/4+Z
SYMM 1/2+Y, -X, 3/4+Z
SFAC C H N O
UNIT 108 108 108 108
L.S. 10
BOND
LIST 6
FMAP 2
PLAN 20
N001  3  0.53487  0.61903  0.51329 11.00000  0.20481  11.10
N002  3  0.53890  0.58610  0.65430 11.00000  0.15187   9.85
O003  4  0.55744  0.53333  1.01428 11.00000  0.19176   8.62
N004  3  0.53658  0.75039  0.05148 11.00000  0.25500   8.56
O005  4  0.59016  0.52763  1.14481 11.00000  0.17862   8.22
N006  3  0.62501  0.49054  1.12716 11.00000  0.17434   8.16
N007  3  0.54018  0.49472  0.89662 11.00000  0.14900   7.92
C008  1  0.46851  0.58681  0.37444 11.00000  0.14005   7.89
N009  3  0.50806  0.54260  0.64815 11.00000  0.15368   7.34
N00A  3  0.52229  0.66420  0.28311 11.00000  0.18731   7.22
O00B  4  0.54419  0.76047  0.23370 11.00000  0.18312   6.82
N00C  3  0.50170  0.65738  0.14773 11.00000  0.22509   6.62
N00D  3  0.50319  0.62249  0.39911 11.00000  0.25723   6.58
C00E  1  0.50083  0.70738  0.01553 11.00000  0.14835   6.26
C00F  1  0.53332  0.79444 -0.09007 11.00000  0.22597   6.14
C00G  1  0.50000  0.50000  0.78666 10.50000  0.13457   6.11
C00H  1  0.47156  0.54015  0.50671 11.00000  0.11877   6.00
C00I  1  0.58524  0.46235  0.87923 11.00000  0.13127   5.95
C00J  1  0.62091  0.45871  1.00222 11.00000  0.12196   5.45
C00K  1  0.67206  0.47851  1.27969 11.00000  0.21934   4.79
C00L  1  0.47147  0.71000 -0.17554 11.00000  0.15757   4.52
O00M  4  0.56616  0.62603  0.55455 11.00000  0.34464   4.48
C00N  1  0.47433  0.74406 -0.28584 11.00000  0.12443   4.17
O00O  4  0.37839  0.83333 -0.21046 11.00000  0.38183   3.46
O00P  4  0.42765  0.61026  0.28993 11.00000  0.31090   3.45
C00Q  1  0.66001  0.52243  1.43520 11.00000  0.23182   3.27
N00R  3  0.66534  0.82869  0.42087 11.00000  0.36913   3.18
C00S  1  0.35491  0.78516 -0.21994 11.00000  0.36707   3.16
O00T  4  0.44158  0.75615 -0.43520 11.00000  0.40683   3.02
HKLF 4
END
