TITL 0531_m3fs_3_00_0531_b.res in I-4
REM Old TITL 0620 in I4(1)/a
REM SHELXT solution in I-4: R1 0.474, Rweak 0.534, Alpha 0.187
REM <I/s>   0.000 for    0 systematic absences,  Orientation as input
REM Flack x = -9.990 ( 9.990 ) from    92 Parsons' quotients
REM Formula found by SHELXT:  C64 N13 O12

CELL  0.71073  26.6550  26.6550   7.5900   90.000   90.000   90.000
ZERR  108.000   0.0038   0.0038   0.0015    0.000    0.000    0.000
LATT -2
SYMM -X, -Y, Z
SYMM Y, -X, -Z
SYMM -Y, X, -Z
SFAC C H N O
UNIT 108 108 108 108
L.S. 10
BOND
LIST 6
FMAP 2
PLAN 20
N001  3  0.06853  0.54344  0.65833 11.00000  0.37580   7.06
N002  3  0.50000  0.50000  1.00000 10.25000  0.24112   6.95
C003  1  0.41294  0.54775  0.92971 11.00000  0.24093   6.81
N004  3  0.40540  0.50820  0.60565 11.00000  0.22958   6.77
C005  1  0.36868  0.55318  0.81658 11.00000  0.32985   6.68
N006  3  0.47016  0.51144  0.89051 11.00000  0.24735   6.55
C007  1  0.38846  0.49880  0.77734 11.00000  0.30974   6.46
C008  1  0.15873  0.43283  0.47457 11.00000  0.18035   6.44
C009  1  0.38972  0.45639  0.59844 11.00000  0.32240   6.34
C00A  1  0.23431  0.51170 -0.00820 11.00000  0.26882   6.22
C00B  1  0.29046  0.50546  0.26373 11.00000  0.22315   6.01
O00C  4  0.28527  0.49864  0.08924 11.00000  0.42849   5.46
C00D  1  0.07335  0.50779  0.36313 11.00000  0.30650   5.26
C00E  1  0.28820  0.46340 -0.05439 11.00000  0.29557   4.99
C00F  1  0.34130  0.49335  0.34586 11.00000  0.21040   4.85
C00G  1  0.24478  0.51411  0.17257 11.00000  0.35562   4.65
C00H  1  0.35805  0.48204  0.54286 11.00000  0.36866   4.52
C00I  1  0.11276  0.50982  0.60723 11.00000  0.30102   4.47
C00J  1  0.08115  0.56758  0.43863 11.00000  0.29907   4.44
C00K  1  0.26854  0.42745 -0.23825 11.00000  0.28577   4.19
O00L  4  0.39993  0.46249  0.40485 11.00000  0.42155   4.07
C00M  1  0.42761  0.52199  0.75239 11.00000  0.31157   3.72
O00N  4  0.26484  0.51127  0.45516 11.00000  0.37748   3.29
HKLF 4
END
