TITL 0531_m3fs_4000_00_0531_a.res in I4(1)
REM Old TITL 0620 in I4(1)/a
REM SHELXT solution in I4(1): R1 0.333, Rweak 0.037, Alpha 0.236
REM <I/s>   0.000 for    0 systematic absences,  Orientation as input
REM Flack x =  0.392 ( 9.990 ) from   129 Parsons' quotients
REM Formula found by SHELXT:  C21 N20 O14

CELL  0.71073  26.6550  26.6550   7.5900   90.000   90.000   90.000
ZERR  108.000   0.0038   0.0038   0.0015    0.000    0.000    0.000
LATT -2
SYMM 1/2-X, 1/2-Y, 1/2+Z
SYMM -Y, 1/2+X, 1/4+Z
SYMM 1/2+Y, -X, 3/4+Z
SFAC C H N O
UNIT 108 108 108 108
L.S. 10
BOND
LIST 6
FMAP 2
PLAN 20
O001  4  0.53999  0.11659  0.31639 11.00000  0.20858  10.29
N002  3  0.41030  0.03885 -0.04669 11.00000  0.14348   9.17
N003  3  0.41365 -0.03008 -0.29679 11.00000  0.14869   8.76
O004  4  0.52449  0.29545  0.91808 11.00000  0.25796   7.92
N005  3  0.44231 -0.03454 -0.16860 11.00000  0.15647   7.80
O006  4  0.47080  0.09207  0.49711 11.00000  0.23005   7.66
N007  3  0.45432  0.00376 -0.05106 11.00000  0.17356   7.54
N008  3  0.50707  0.11730  0.42873 11.00000  0.21714   6.86
N009  3  0.53726  0.07829  0.18392 11.00000  0.16826   6.84
N00A  3  0.37379  0.00604 -0.29926 11.00000  0.18082   6.73
N00B  3  0.46691  0.24069  1.13358 11.00000  0.18987   6.68
N00C  3  0.49831  0.29444  1.08057 11.00000  0.18441   6.42
C00D  1  0.50818  0.04064  0.19811 11.00000  0.13334   6.41
C00E  1  0.51921  0.16692  0.55479 11.00000  0.14654   5.99
C00F  1  0.52138  0.25742  0.77623 11.00000  0.21129   5.81
C00G  1  0.50000  0.00000  0.07044 10.50000  0.15410   5.38
C00H  1  0.37418  0.04351 -0.16522 11.00000  0.15169   5.15
C00I  1  0.54520  0.25006  0.59740 11.00000  0.17907   5.10
C00J  1  0.49895  0.16497  0.69140 11.00000  0.19493   4.93
C00K  1  0.46610  0.03909  0.34467 11.00000  0.13763   4.90
C00L  1  0.48963  0.20819  0.82505 11.00000  0.19462   4.44
C00M  1  0.52447  0.34612  1.14059 11.00000  0.18558   4.19
N00N  3  0.63663  0.24565  1.08826 11.00000  0.35772   4.18
O00O  4  0.45316  0.23259  1.29328 11.00000  0.24658   3.94
O00P  4  0.48953  0.32604  1.29926 11.00000  0.30032   3.89
O00Q  4  0.47388  0.20137  0.99302 11.00000  0.23675   3.80
O00R  4  0.63646  0.16128  0.87951 11.00000  0.36964   3.53
C00S  1  0.65819  0.15489  0.71152 11.00000  0.25264   3.04
HKLF 4
END
