TITL temp02_expF_1_5_expS_0_7_temp02_a.res in Imm2
REM Old TITL I222 in Imm2 #44
REM SHELXT solution in Imm2: R1 0.869, Rweak 0.265, Alpha 0.064
REM <I/s>   0.000 for    0 systematic absences,  Orientation as input
REM Flack x = -9.990 ( 9.990 ) from   347 Parsons' quotients
REM Formula found by SHELXT:  C26 N17 O

CELL  0.71073   9.1390  15.1100  30.4810   90.000   90.000   90.000
ZERR   51.000   0.0018   0.0030   0.0061    0.000    0.000    0.000
LATT -2
SYMM -X, -Y, Z
SYMM X, -Y, Z
SYMM -X, Y, Z
SFAC H C N O ZR
UNIT 51 51 51 51 51
L.S. 10
BOND
LIST 6
FMAP 2
PLAN 20
O001  4  0.50000  0.50000  0.76463 10.25000  0.10495   7.69
C002  2  0.00000  0.50000  0.64637 10.25000  0.06085   7.38
N003  3  0.00000  0.50000  0.33087 10.25000  0.05314   7.22
N004  3  0.34468  0.50000  0.63402 10.50000  0.12470   6.70
N005  3  0.00000  0.50000  0.36380 10.25000  0.06135   6.65
C006  2  0.50000  0.50000  0.30263 10.25000  0.07211   6.40
N007  3  0.11225  0.50000  0.63942 10.50000  0.08435   6.07
C008  2  0.21658  0.50000  0.62891 10.50000  0.04654   5.67
N009  3  0.09391  0.50000  0.31704 10.50000  0.12249   5.42
N00A  3  0.00000  0.50000  0.51701 10.25000  0.20192   5.33
C00B  2  0.45954  0.50000  0.23537 10.50000  0.12479   5.30
C00C  2  0.22334  0.50000  0.35666 10.50000  0.04281   5.25
C00D  2  0.21979  0.58241  0.35907 11.00000  0.03026   4.82
C00E  2  0.50000  0.47369  0.44127 10.50000  0.00010   3.99
C00F  2  0.12505  0.50000  0.51085 10.50000  0.15461   3.95
C00G  2  0.31372  0.50000  0.51629 10.50000  0.02028   3.91
N00H  3  0.22081  0.64785  0.37804 11.00000  0.08759   3.70
C00I  2  0.34665  0.50000  0.33700 10.50000  0.00010   3.67
N00J  3  0.00000  0.32574  0.58805 10.50000  0.13428   3.47
N00K  3  0.44252  0.50000  0.50321 10.50000  0.02191   3.41
C00L  2  0.50000  0.61066  0.62677 10.50000  0.05780   3.37
C00M  2  0.50000  0.65751  0.57450 10.50000  0.02099   3.32
C00N  2  0.34498  0.50000  0.68203 10.50000  0.02852   3.05
HKLF 4
END
