TITL temp02_expF_1_2_expS_0_9_temp02_a.res in Imm2
REM Old TITL I222 in Imm2 #44
REM SHELXT solution in Imm2: R1 0.703, Rweak 0.120, Alpha 0.236
REM <I/s>   0.000 for    0 systematic absences,  Orientation as input
REM Flack x = -8.271 ( 0.847 ) from   279 Parsons' quotients
REM Formula found by SHELXT:  C31 N16 O13 Cl6

CELL  0.71073   9.1390  15.1100  30.4810   90.000   90.000   90.000
ZERR   51.000   0.0018   0.0030   0.0061    0.000    0.000    0.000
LATT -2
SYMM -X, -Y, Z
SYMM X, -Y, Z
SYMM -X, Y, Z
SFAC H C N O ZR CL
UNIT 51 51 51 51 51 0
L.S. 10
BOND
LIST 6
FMAP 2
PLAN 20
CL01  6  0.50000  0.50000  0.62593 10.25000  0.06485  20.58
CL02  6  1.00000  0.50000  0.49763 10.25000  0.12923  19.78
CL03  6  0.50000  0.50000  0.52286 10.25000  0.05202  18.16
CL04  6  0.87964  0.50000  0.49596 10.50000  0.09643  18.04
O005  4  0.87754  0.50000  0.61947 10.50000  0.10621  15.00
CL06  6  0.50000  0.50000  0.55926 10.25000  0.00794  13.78
CL07  6  0.56664  0.00000  0.28460 10.50000  0.09089  13.28
CL08  6  0.50000  0.44012  0.54842 10.50000  0.03412  13.03
CL09  6  0.69004  0.50000  0.49477 10.50000  0.06231  12.95
N00A  3  0.50000  0.04025  0.75179 10.50000  0.00010  11.40
O00B  4  1.00000  0.00000  0.71255 10.25000  0.08718  11.40
N00C  3  0.50000  0.46173  0.57920 10.50000  0.00010  11.39
O00D  4  0.86822  0.56190  0.50474 11.00000  0.06090  11.25
N00E  3  0.82511  0.50000  0.61308 10.50000  0.18180  10.50
N00F  3  0.50000  0.50000  0.49142 10.50000  0.08720  10.09
N00G  3  0.50000  0.06806  0.71983 10.50000  0.06807   9.89
N00H  3  1.00000  0.50000  0.61047 10.25000  0.04837   9.70
N00I  3  1.00000  0.02775  0.40026 10.50000  0.00010   9.57
N00J  3  1.00000  0.03699  0.57973 10.50000  0.01763   9.28
N00K  3  0.70887  0.46580  0.62850 11.00000  0.04093   9.16
C00L  2  0.50000  0.00000  0.46188 10.25000  0.04241   8.58
N00M  3  0.50000  0.14285  0.25486 10.50000  0.03609   8.08
O00N  4  1.00000  0.50000  0.46162 10.25000  0.04521   7.97
O00O  4  1.00000  0.29877  0.55418 10.50000  0.04103   7.95
O00P  4  1.00000  0.39606  0.56982 10.50000  0.00926   7.94
N00Q  3  1.00000  0.00000  0.42810 10.25000  0.00888   7.79
C00R  2  0.50000  0.11565  0.71648 10.50000  0.02048   7.45
C00S  2  0.67706  0.00000  0.30809 10.50000  0.00010   6.89
C00T  2  0.94572  0.00000  0.38074 10.50000  0.00010   6.70
C00U  2  0.25570  0.35041  0.56168 11.00000  0.01237   6.35
C00V  2  0.50000  0.14715  0.74727 10.50000  0.11168   6.30
O00W  4  0.50000  0.28831  0.75544 10.50000  0.05837   6.24
C00X  2  1.00000  0.12253  0.59507 10.50000  0.04209   5.62
N00Y  3  0.55839  0.00000  0.51515 10.50000  0.14612   5.61
C00Z  2  1.00000  0.50000  0.50822 10.25000  0.04514   5.56
N010  3  0.89042  0.00000  0.74182 10.50000  0.01459   5.41
C011  2  1.00000  0.12175  0.69827 10.50000  0.00010   5.41
O012  4  0.81606  0.03574  0.65939 11.00000  0.02381   5.20
C013  2  0.50000  0.21790  0.73138 10.50000  0.00010   4.77
C014  2  0.50000  0.13946  0.47498 10.50000  0.05726   4.47
C015  2  0.50000  0.43788  0.38099 10.50000  0.08688   4.45
N016  3  0.39207  0.35133  0.56258 11.00000  0.05611   4.41
C017  2  1.00000  0.00000  0.54788 10.25000  0.00010   4.37
C018  2  0.36984  0.19782  0.24456 11.00000  0.03644   4.06
C019  2  0.57422  0.50000  0.66595 10.50000  0.03397   3.97
N01A  3  0.81274  0.00000  0.69215 10.50000  0.00010   3.87
C01B  2  0.43434  0.32294  0.36430 11.00000  0.01090   3.81
C01C  2  0.20965  0.29804  0.32329 11.00000  0.00198   3.80
C01D  2  1.14608  0.00000  0.55215 10.50000  0.00371   3.80
C01E  2  0.50000  0.18421  0.41460 10.50000  0.01812   3.78
C01F  2  0.50000  0.24038  0.40338 10.50000  0.02805   3.72
C01G  2  0.59993  0.10200  0.27312 11.00000  0.01036   3.64
O01H  4  0.50000  0.23786  0.56179 10.50000  0.05912   3.60
O01I  4  0.81311  0.11233  0.69040 11.00000  0.12612   3.55
C01J  2  0.50000  0.50000  0.41224 10.25000  0.02830   3.44
C01K  2  0.50000  0.44807  0.41064 10.50000  0.00010   3.39
O01L  4  0.77363  0.00000  0.33580 10.50000  0.03275   3.35
C01M  2  0.34566  0.10014  0.46613 11.00000  0.01747   3.32
C01N  2  0.50000  0.16367  0.60976 10.50000  0.06724   3.15
C01O  2  1.00000  0.14502  0.61241 10.50000  0.01399   3.11
C01P  2  1.00000  0.17961  0.39171 10.50000  0.00010   3.05
HKLF 4
END
