TITL temp02_expF_1_1_expS_0_9_temp02_a.res in Imm2
REM Old TITL I222 in Imm2 #44
REM SHELXT solution in Imm2: R1 0.661, Rweak 0.278, Alpha 0.082
REM <I/s>   0.000 for    0 systematic absences,  Orientation as input
REM Flack x = -5.294 ( 0.889 ) from   264 Parsons' quotients
REM Formula found by SHELXT:  C70 N35 O11 Cl8

CELL  0.71073   9.1390  15.1100  30.4810   90.000   90.000   90.000
ZERR   51.000   0.0018   0.0030   0.0061    0.000    0.000    0.000
LATT -2
SYMM -X, -Y, Z
SYMM X, -Y, Z
SYMM -X, Y, Z
SFAC H C N O ZR CL
UNIT 51 51 51 51 51 0
L.S. 10
BOND
LIST 6
FMAP 2
PLAN 20
CL01  6  0.76175  0.50000  0.36532 10.50000  0.04811  17.61
CL02  6  0.84824  0.50000  0.34891 10.50000  0.03432  15.36
CL03  6  0.63326  0.50000  0.36413 10.50000  0.09004  15.21
CL04  6  0.50000  0.67434  0.61674 10.50000  0.08965  13.34
N005  3  0.50000  0.50000  0.34440 10.50000  0.16730  12.06
N006  3  0.56388  0.63302  0.43113 11.00000  0.00444  11.72
N007  3  0.50000  0.50000  0.41957 10.25000  0.00010  11.51
N008  3  0.18840  0.50000  0.47126 10.50000  0.00617  11.09
O009  4  0.50000  0.53140  0.47731 10.50000  0.02017  11.08
O00A  4  0.00000  0.03984  0.45105 10.50000  0.00586  10.79
N00B  3  0.33084  0.50000  0.48491 10.50000  0.00718  10.09
O00C  4  0.25723  0.50000  0.67424 10.50000  0.02998   9.95
N00D  3  1.00000  1.00000  0.58632 10.25000  0.02306   9.67
N00E  3  0.11017  0.50000  0.52423 10.50000  0.08938   9.28
N00F  3  1.00000  0.53071  0.35281 10.50000  0.00272   9.05
N00G  3  0.56796  0.56257  0.42398 11.00000  0.06251   8.55
N00H  3  0.00000  0.50000  0.48172 10.25000  0.00010   8.54
N00I  3  0.87192  1.00000  0.57862 10.50000  0.08245   8.17
C00J  2  0.00000  0.50000  0.52489 10.25000  0.10847   8.12
O00K  4  1.00000  0.83802  0.64732 10.50000  0.07952   7.72
O00L  4  0.50000  0.50000  0.75874 10.25000  0.02841   7.53
N00M  3  0.00000  0.42175  0.46405 10.50000  0.00010   7.04
C00N  2  0.50000  0.56525  0.44420 10.50000  0.00010   7.02
C00O  2  0.50000  0.73104  0.59706 10.50000  0.01037   6.38
C00P  2  0.00000  0.34479  0.39661 10.50000  0.02692   6.34
C00Q  2  0.20544  0.47368  0.50499 11.00000  0.00721   6.31
C00R  2  0.50000  0.50000  0.37776 10.50000  0.11757   6.25
C00S  2  0.21748  0.50000  0.54095 10.50000  0.00959   6.20
C00T  2  0.50000  0.50000  0.30105 10.25000  0.00584   6.15
O00U  4  0.50000  1.03236  0.68553 10.50000  0.00941   6.12
C00V  2  0.59104  0.69130  0.63028 11.00000  0.00608   5.96
C00W  2  0.50000  0.68568  0.65304 10.50000  0.12003   5.89
C00X  2  0.82133  1.00000  0.59589 10.50000  0.02268   5.64
C00Y  2  1.00000  0.89190  0.59600 10.50000  0.03455   5.53
C00Z  2  0.11069  0.50000  0.67768 10.50000  0.02365   5.32
C010  2  0.72631  1.00000  0.51720 10.50000  0.00010   5.29
C011  2  0.42937  0.60866  0.63067 11.00000  0.00010   5.01
C012  2  1.00000  0.59844  0.32421 10.50000  0.00010   4.91
C013  2  1.00000  0.64979  0.30241 10.50000  0.00010   4.73
C014  2  0.50000  1.00000  0.60316 10.25000  0.00010   4.68
C015  2  0.00000  0.38817  0.61189 10.50000  0.01268   4.48
C016  2  0.00000  0.35203  0.49131 10.50000  0.01467   4.42
N017  3  0.54349  1.00000  0.66674 10.50000  0.00027   4.36
C018  2  0.76796  0.78531  0.64083 11.00000  0.01617   4.02
C019  2  0.00000  0.42153  0.51995 10.50000  0.06891   3.98
N01A  3  0.00000  0.73063  0.77188 10.50000  0.00010   3.97
C01B  2  0.50000  0.50000  0.61798 10.25000  0.00010   3.96
C01C  2  0.00000  0.24783  0.43981 10.50000  0.03011   3.91
C01D  2  0.00000  0.62722  0.74340 10.50000  0.08833   3.81
C01E  2  0.50000  0.90347  0.45210 10.50000  0.02341   3.66
C01F  2  0.92124  0.89300  0.57804 11.00000  0.00010   3.53
C01G  2  0.00000  0.50000  0.74298 10.25000  0.03114   3.52
C01H  2  0.37766  0.50000  0.22812 10.50000  0.06842   3.51
C01I  2  0.50000  0.71286  0.48761 10.50000  0.03513   3.47
N01J  3  1.00000  0.70625  0.29596 10.50000  0.00010   3.47
C01K  2  1.00000  0.59185  0.28958 10.50000  0.01922   3.47
C01L  2  0.78085  1.00000  0.56057 10.50000  0.06864   3.40
C01M  2  0.50000  1.00000  0.51189 10.25000  0.12039   3.22
N01N  3  0.63802  0.96293  0.52485 11.00000  0.02766   3.06
HKLF 4
END
