TITL temp02_expF_1_0_expS_0_5_temp02_a.res in Imm2
REM Old TITL I222 in Imm2 #44
REM SHELXT solution in Imm2: R1 0.804, Rweak 0.016, Alpha 0.215
REM <I/s>   0.000 for    0 systematic absences,  Orientation as input
REM Flack x = -4.396 ( 0.691 ) from   469 Parsons' quotients
REM Formula found by SHELXT:  C35 N13 O7 Cl5

CELL  0.71073   9.1390  15.1100  30.4810   90.000   90.000   90.000
ZERR   51.000   0.0018   0.0030   0.0061    0.000    0.000    0.000
LATT -2
SYMM -X, -Y, Z
SYMM X, -Y, Z
SYMM -X, Y, Z
SFAC H C N O ZR CL
UNIT 51 51 51 51 51 0
L.S. 10
BOND
LIST 6
FMAP 2
PLAN 20
CL01  6  0.50000  1.00000  0.53004 10.25000  0.01745  21.37
CL02  6  0.50000  1.00000  0.66984 10.25000  0.01765  20.15
CL03  6  0.62352  1.00000  0.53421 10.50000  0.00673  19.54
CL04  6  1.00000  1.03136  0.65303 10.50000  0.00742  19.19
CL05  6  0.50000  0.91572  0.52974 10.50000  0.07628  13.75
CL06  6  0.50000  0.50000  0.43721 10.25000  0.00493  12.84
N007  3  0.50000  1.00000  0.30726 10.50000  0.00347  12.05
N008  3  0.70560  1.00000  0.54394 10.50000  0.10829  11.90
N009  3  0.50000  1.00000  0.49375 10.25000  0.09454  10.17
N00A  3  0.73567  1.00000  0.65361 10.50000  0.00010   9.94
CL0B  6  0.50000  1.00000  0.39714 10.25000  0.19919   9.90
O00C  4  1.00000  1.00000  0.41977 10.25000  0.04489   9.22
O00D  4  1.00000  1.00000  0.47706 10.50000  0.21892   9.19
O00E  4  0.50000  0.82597  0.31906 10.50000  0.13505   8.33
O00F  4  0.00000  0.50000  0.58390 10.25000  0.01377   8.18
C00G  2  1.00000  1.00000  0.39067 10.50000  0.15188   8.06
N00H  3  0.00000  0.38918  0.44183 10.50000  0.06832   7.81
N00I  3  0.00000  0.50000  0.37986 10.25000  0.10570   7.68
N00J  3  0.50000  1.00000  0.38022 10.50000  0.00680   7.62
O00K  4  0.50000  1.00000  0.34170 10.50000  0.00599   7.31
N00L  3  0.34843  0.85236  0.27732 11.00000  0.09783   7.13
N00M  3  1.00000  1.00000  0.27582 10.50000  0.00010   7.03
C00N  2  1.00000  1.00000  0.63433 10.25000  0.00010   6.88
N00O  3  0.50000  0.50000  0.45469 10.50000  0.03859   6.75
C00P  2  0.50000  0.81218  0.51282 10.50000  0.00010   6.48
C00Q  2  0.36126  0.80538  0.24051 11.00000  0.04348   6.36
O00R  4  1.15912  1.00000  0.73791 10.50000  0.01985   5.95
C00S  2  0.50000  0.83853  0.49820 10.50000  0.06615   5.74
C00T  2  0.00000  0.30713  0.28699 10.50000  0.06860   5.60
C00U  2  0.00000  0.23296  0.37998 10.50000  0.00365   5.39
C00V  2  1.09367  1.11222  0.60979 11.00000  0.01568   5.30
C00W  2  1.00000  1.00000  0.55522 10.25000  0.07546   5.17
C00X  2  0.00000  0.50000  0.40688 10.25000  0.16541   5.16
N00Y  3  0.50000  0.50000  0.60337 10.25000  0.02648   5.07
C00Z  2  0.88254  1.00000  0.21328 10.50000  0.00010   5.02
C010  2  0.00000  0.32021  0.49029 10.50000  0.00399   5.01
C011  2  0.68011  1.00000  0.42936 10.50000  0.02167   4.81
C012  2  0.00000  0.43402  0.55088 11.00000  0.08758   4.79
C013  2  0.50000  0.91192  0.30793 11.00000  0.04387   4.69
C014  2  0.93864  1.00000  0.33023 10.50000  0.20010   4.65
C015  2  1.00000  1.04185  0.78672 10.50000  0.00322   4.42
C016  2  0.21326  0.50000  0.39711 11.00000  0.03480   4.40
N017  3  0.50000  0.72066  0.30449 11.00000  0.12539   4.29
C018  2  0.00000  0.50000  0.37187 10.50000  0.00010   4.14
C019  2  0.50000  0.63046  0.45201 10.50000  0.01559   4.06
C01A  2  0.00000  0.50000  0.44343 10.25000  0.07347   3.98
C01B  2  1.00000  0.96849  0.46377 11.00000  0.22014   3.80
C01C  2  1.00000  1.00000  0.73005 10.50000  0.08618   3.74
C01D  2  0.55257  0.84337  0.59021 11.00000  0.01129   3.63
C01E  2  0.50000  0.72688  0.52691 10.50000  0.00566   3.62
O01F  4  0.77112  1.00000  0.48518 10.50000  0.00246   3.60
C01G  2  1.00000  1.00000  0.67589 10.50000  0.15217   3.55
N01H  3  1.00000  1.00000  0.75196 10.25000  0.13549   3.50
C01I  2  0.00000  0.43253  0.50776 10.50000  0.19235   3.47
O01J  4  1.00000  1.00000  0.34946 10.50000  0.28058   3.45
C01K  2  0.85065  1.00000  0.21624 10.50000  0.12614   3.43
C01L  2  0.30074  0.50000  0.54564 11.00000  0.20990   3.15
HKLF 4
END
