TITL temp02_expF_1_2_expS_1_5_temp02_a.res in Imm2
REM Old TITL I222 in Imm2 #44
REM SHELXT solution in Imm2: R1 0.709, Rweak 0.224, Alpha 0.065
REM <I/s>   0.000 for    0 systematic absences,  Orientation as input
REM Flack x = -3.697 ( 2.375 ) from   106 Parsons' quotients
REM Formula found by SHELXT:  C26 N11 O6 Cl2

CELL  0.71073   9.1390  15.1100  30.4810   90.000   90.000   90.000
ZERR   51.000   0.0018   0.0030   0.0061    0.000    0.000    0.000
LATT -2
SYMM -X, -Y, Z
SYMM X, -Y, Z
SYMM -X, Y, Z
SFAC H C N O ZR CL
UNIT 51 51 51 51 51 0
L.S. 10
BOND
LIST 6
FMAP 2
PLAN 20
CL01  6  0.70806  1.00000  0.79012 10.50000  0.07001  15.28
CL02  6  0.57237  1.00000  0.80232 10.50000  0.14754  15.02
N003  3  1.00000  0.56147  0.57600 10.50000  0.01013  11.57
C004  2  0.80886  1.00000  0.68610 10.50000  0.00010  11.41
N005  3  1.00000  0.50000  0.60831 10.25000  0.01215  11.33
O006  4  0.50000  0.85431  0.73843 10.50000  0.03817  11.31
N007  3  1.00000  1.00000  0.75860 10.25000  0.01056  10.88
O008  4  0.83370  1.00000  0.79591 10.50000  0.17464  10.85
C009  2  0.50000  0.97170  0.60268 10.50000  0.00010  10.14
O00A  4  0.70820  1.00000  0.67462 10.50000  0.00010   9.61
C00B  2  1.00000  1.00000  0.72066 10.25000  0.01878   9.43
N00C  3  1.00000  1.00000  0.68494 10.25000  0.00010   8.93
C00D  2  0.50000  0.92828  0.75138 10.50000  0.06823   8.24
N00E  3  0.50000  1.00000  0.46516 10.25000  0.00010   7.36
N00F  3  1.09712  0.53852  0.59184 11.00000  0.01167   7.18
N00G  3 -0.07233  1.00000  0.19768 10.50000  0.03221   6.98
C00H  2  0.67926  1.00000  0.45081 10.50000  0.03483   6.71
N00I  3  1.00000  0.65498  0.56612 10.50000  0.00600   6.55
C00J  2  0.72875  1.00000  0.62080 10.50000  0.00010   6.37
O00K  4  0.50000  0.63145  0.42634 10.50000  0.03202   6.21
C00L  2  1.00000  0.87916  0.75775 10.50000  0.06510   5.68
C00M  2  0.46210  0.50000  0.55116 10.50000  0.02637   5.59
C00N  2  1.00000  0.93573  0.73527 10.50000  0.00010   5.24
C00O  2  0.82747  0.78275  0.51799 11.00000  0.02176   5.13
C00P  2  0.50000  1.00000  0.40417 10.25000  0.00010   5.06
C00Q  2  1.00000  0.94722  0.70937 10.50000  0.01666   4.99
C00R  2  0.00000  1.00000  0.24481 10.25000  0.00010   4.89
O00S  4  0.67340  0.71650  0.50175 11.00000  0.03114   4.47
C00T  2  0.50000  1.00000  0.49970 10.25000  0.06553   4.37
C00U  2  0.86518  0.87375  0.73680 11.00000  0.07640   4.36
C00V  2  0.50000  0.94434  0.44833 10.50000  0.07725   4.34
C00W  2  0.50000  0.58899  0.53658 10.50000  0.01193   4.34
C00X  2  1.00000  0.95459  0.51732 10.50000  0.03299   4.31
N00Y  3  0.89372  1.00000  0.71622 10.50000  0.00829   4.28
C00Z  2 -0.10725  0.93815  0.20213 11.00000  0.13455   4.15
C010  2  0.32388  0.50000  0.49580 10.50000  0.02868   3.97
C011  2  0.00000  0.96550  0.23036 10.50000  0.05167   3.85
C012  2  0.83838  1.00000  0.46565 10.50000  0.01911   3.80
C013  2  0.50000  0.72254  0.43168 10.50000  0.06518   3.69
C014  2  0.91651  0.81105  0.53065 11.00000  0.06386   3.42
N015  3  0.87234  0.96543  0.53387 11.00000  0.00010   3.36
N016  3  0.18897  1.00000  0.34126 10.50000  0.05613   3.09
HKLF 4
END
