TITL temp02_expF_1_2_expS_0_7_temp02_a.res in Imm2
REM Old TITL I222 in Imm2 #44
REM SHELXT solution in Imm2: R1 0.738, Rweak 0.025, Alpha 0.219
REM <I/s>   0.000 for    0 systematic absences,  Orientation as input
REM Flack x =  0.245 ( 0.508 ) from   409 Parsons' quotients
REM Formula found by SHELXT:  C82 N48 O7 Cl9

CELL  0.71073   9.1390  15.1100  30.4810   90.000   90.000   90.000
ZERR   51.000   0.0018   0.0030   0.0061    0.000    0.000    0.000
LATT -2
SYMM -X, -Y, Z
SYMM X, -Y, Z
SYMM -X, Y, Z
SFAC H C N O ZR CL
UNIT 51 51 51 51 51 0
L.S. 10
BOND
LIST 6
FMAP 2
PLAN 20
CL01  6  0.70773  0.50000  0.61449 10.50000  0.07205  19.20
CL02  6  0.84289  0.50000  0.60979 10.50000  0.02459  16.71
CL03  6  1.06558  0.96283  0.49483 11.00000  0.05562  14.10
CL04  6  0.50000  0.50000  0.48783 10.25000  0.04123  13.72
N005  3  1.00000  0.52114  0.58850 10.50000  0.00684  11.63
N006  3  0.50000  0.50000  0.61486 10.25000  0.06005  10.88
N007  3  0.59087  0.53855  0.49395 11.00000  0.02896   9.96
O008  4  0.86308  0.50000  0.73952 10.50000  0.06542   9.93
N009  3  0.62916  0.40433  0.27171 11.00000  0.03418   9.58
N00A  3  0.68250  0.50000  0.31152 10.50000  0.01631   9.01
N00B  3  0.50000  0.59380  0.33176 10.50000  0.01499   8.76
N00C  3  1.00000  0.50000  0.40842 10.25000  0.00010   8.61
N00D  3  0.50000  0.46414  0.52004 10.50000  0.02176   8.38
N00E  3  0.50000  0.32339  0.27901 10.50000  0.03375   7.97
N00F  3  0.65875  0.45752  0.26865 11.00000  0.03719   7.77
O00G  4  0.69370  0.56071  0.74600 11.00000  0.06475   7.77
C00H  2  0.50000  0.37223  0.72810 10.50000  0.20930   7.67
O00I  4  0.50000  0.50000  0.80682 10.25000  0.00010   7.64
N00J  3  0.50000  0.67452  0.33627 10.50000  0.00010   7.55
N00K  3  1.00000  0.65331  0.57170 10.50000  0.00010   7.27
C00L  2  0.77931  0.53867  0.29520 11.00000  0.01197   7.27
C00M  2  0.50000  0.53367  0.32185 10.50000  0.00010   7.25
N00N  3  0.50000  0.35537  0.54218 10.50000  0.02540   7.21
C00O  2  1.00000  0.50000  0.65805 10.25000  0.02431   7.17
N00P  3  0.65558  0.32600  0.26360 11.00000  0.00010   7.16
N00Q  3  0.74821  0.50000  0.26910 10.50000  0.06556   7.06
N00R  3  0.81674  0.50000  0.41467 11.00000  0.07079   6.94
C00S  2  0.72587  0.50000  0.73254 10.50000  0.00010   6.82
C00T  2  0.65942  0.50000  0.40184 10.50000  0.00010   6.48
C00U  2  0.50000  0.50000  0.58255 10.25000  0.09041   6.15
C00V  2  1.08617  0.62699  0.56308 11.00000  0.00010   5.87
N00W  3  0.50000  0.28411  0.66809 10.50000  0.05770   5.85
C00X  2  0.76208  0.39116  0.26582 11.00000  0.07965   5.81
C00Y  2  0.64728  0.40061  0.55540 11.00000  0.03776   5.48
C00Z  2  0.50000  0.50000  0.27903 10.25000  0.01606   5.41
N010  3  0.50000  0.22530  0.85349 10.50000  0.00010   5.27
C011  2  0.50000  0.50000  0.19993 10.25000  0.04528   5.24
N012  3  1.00000  0.55372  0.65092 10.50000  0.03205   5.23
C013  2  1.00000  0.84377  0.50920 10.50000  0.00010   5.23
C014  2  1.00000  0.51898  0.68291 10.50000  0.00010   5.23
C015  2  1.00000  0.70607  0.56171 10.50000  0.02772   5.10
C016  2  1.00000  0.50000  0.38184 10.25000  0.04463   4.89
C017  2  0.50000  0.44857  0.68377 10.50000  0.00010   4.82
C018  2  1.00000  0.65409  0.66748 10.50000  0.02366   4.58
C019  2  0.62412  0.50000  0.66749 10.50000  0.00010   4.51
C01A  2  1.00000  0.58433  0.56304 10.50000  0.01753   4.30
C01B  2  0.44749  0.47747  0.15736 11.00000  0.06371   4.20
N01C  3  0.50000  0.37724  0.25285 10.50000  0.03581   4.18
C01D  2  0.61099  0.73372  0.33611 11.00000  0.00010   4.00
C01E  2  0.74470  0.50000  0.33224 10.50000  0.00953   3.96
C01F  2  0.50000  0.38175  0.27712 10.50000  0.01235   3.85
C01G  2  0.73836  0.28799  0.27420 11.00000  0.00010   3.83
C01H  2  0.50000  0.32400  0.52242 11.00000  0.09240   3.73
C01I  2  0.74832  0.50000  0.68388 10.50000  0.01994   3.72
C01J  2  0.66884  0.27836  0.27282 11.00000  0.00614   3.27
C01K  2  0.71375  0.50000  0.56230 10.50000  0.03760   3.12
C01L  2  0.19221  0.50000  0.14651 10.50000  0.09678   3.08
C01M  2  0.50000  0.50000  0.83801 10.25000  0.00010   3.07
C01N  2  0.50000  0.82756  0.41799 11.00000  0.14032   3.03
C01O  2  0.50000  0.84002  0.36565 10.50000  0.09117   3.03
C01P  2  0.50000  0.33427  0.77984 10.50000  0.12022   3.02
HKLF 4
END
