TITL temp02_expF_1_5_expS_1_0_temp02_a.res in Imm2
REM Old TITL I222 in Imm2 #44
REM SHELXT solution in Imm2: R1 0.815, Rweak 0.216, Alpha 0.020
REM <I/s>   0.000 for    0 systematic absences,  Orientation as input
REM Flack x = -1.282 ( 1.894 ) from   250 Parsons' quotients
REM Formula found by SHELXT:  C28 N28 O15 Cl4

CELL  0.71073   9.1390  15.1100  30.4810   90.000   90.000   90.000
ZERR   51.000   0.0018   0.0030   0.0061    0.000    0.000    0.000
LATT -2
SYMM -X, -Y, Z
SYMM X, -Y, Z
SYMM -X, Y, Z
SFAC H C N O ZR CL
UNIT 51 51 51 51 51 0
L.S. 10
BOND
LIST 6
FMAP 2
PLAN 20
CL01  6  0.67944  0.50000  0.65385 10.50000  0.23075  15.85
CL02  6  0.50000  0.50000  0.65525 10.25000  0.24300  13.01
CL03  6  0.50000  0.00000  0.56674 10.25000  0.07016  12.57
O004  4  0.68414  0.50000  0.34919 10.50000  0.06798  12.18
N005  3  0.89141  0.50000  0.54270 10.50000  0.04527  11.37
O006  4  0.50000  0.50000  0.29377 10.25000  0.21684  10.82
C007  2  1.00000  0.60953  0.61489 10.50000  0.00010  10.64
O008  4  1.00000  0.65860  0.59045 10.50000  0.02201  10.10
N009  3  0.58009  0.50000  0.33231 10.50000  0.10426   9.97
O00A  4  0.50000  0.36040  0.60878 10.50000  0.14639   9.96
O00B  4  0.76616  0.50000  0.53943 10.50000  0.06464   9.41
C00C  2  0.50000  0.41225  0.64175 10.50000  0.04173   9.30
N00D  3  0.83936  0.50000  0.58705 10.50000  0.13445   9.11
N00E  3  1.00000  0.50000  0.60052 10.25000  0.16698   9.09
N00F  3  0.50000  0.05350  0.57611 10.50000  0.00216   8.67
N00G  3  0.82410  0.50000  0.47336 10.50000  0.08778   8.38
N00H  3  1.00000  0.53110  0.74080 10.50000  0.00257   8.05
O00I  4  1.00000  0.66278  0.28118 10.50000  0.17947   7.94
N00J  3  0.38056  0.04165  0.56303 11.00000  0.06391   7.84
N00K  3  0.57277  0.50000  0.48392 10.50000  0.05691   7.80
N00L  3  0.82846  0.50000  0.22926 10.50000  0.08776   6.87
C00M  2  0.65033  0.50000  0.47227 10.50000  0.07238   6.03
N00N  3  0.50000  0.00000  0.44068 10.25000  0.06019   5.45
C00O  2  1.00000  0.52634  0.34190 10.50000  0.01377   5.28
C00P  2  0.90107  0.00000  0.44746 10.50000  0.03723   5.08
N00Q  3  1.00000  0.53605  0.26160 10.50000  0.05673   4.75
C00R  2  0.50000  0.46097  0.20053 10.50000  0.06428   4.69
C00S  2  0.92646  0.50000  0.47570 10.50000  0.00010   4.52
C00T  2  1.00000  0.53051  0.46250 10.50000  0.02192   4.52
O00U  4  0.50000  0.27415  0.44526 10.50000  0.08411   4.35
C00V  2  1.00000  0.65326  0.79160 10.50000  0.08020   4.33
C00W  2  0.74594  0.50000  0.19946 10.50000  0.01171   4.16
C00X  2  0.89085  0.50000  0.73791 10.50000  0.05400   4.16
C00Y  2  1.00000  0.11136  0.44070 10.50000  0.02709   3.99
O00Z  4  1.00000  0.72822  0.80054 10.50000  0.09563   3.76
C010  2  1.00000  0.50000  0.28090 10.25000  0.05081   3.59
N011  3  1.00000  0.63986  0.75927 10.50000  0.08564   3.57
C012  2  1.00000  0.00000  0.41142 10.25000  0.02934   3.42
N013  3  1.00000  0.70061  0.75482 10.50000  0.06911   3.39
C014  2  0.50000  0.33376  0.40615 10.50000  0.06883   3.09
HKLF 4
END
