TITL temp02_expF_1_0_expS_0_8_temp02_a.res in Imm2
REM Old TITL I222 in Imm2 #44
REM SHELXT solution in Imm2: R1 0.630, Rweak 0.099, Alpha 0.118
REM <I/s>   0.000 for    0 systematic absences,  Orientation as input
REM Flack x = -0.396 ( 0.786 ) from   350 Parsons' quotients
REM Formula found by SHELXT:  C35 N29 O14 Zr

CELL  0.71073   9.1390  15.1100  30.4810   90.000   90.000   90.000
ZERR   51.000   0.0018   0.0030   0.0061    0.000    0.000    0.000
LATT -2
SYMM -X, -Y, Z
SYMM X, -Y, Z
SYMM -X, Y, Z
SFAC H C N O ZR
UNIT 51 51 51 51 51
L.S. 10
BOND
LIST 6
FMAP 2
PLAN 20
ZR01  5  1.00000  0.03674  0.29312 10.50000  0.07284  27.50
O002  4  0.82472  0.00000  0.76498 10.50000  0.00010  22.44
N003  3  0.90212  0.00000  0.28246 10.50000  0.00010  22.03
N004  3  0.93756  0.50000  0.66544 10.50000  0.00010  20.58
N005  3  0.20650  0.00000  0.47201 10.50000  0.00010  18.47
O006  4  0.80663  0.00000  0.29698 10.50000  0.05058  16.88
O007  4  0.09801  0.00000  0.48216 10.50000  0.01883  16.11
N008  3  0.73198  0.50000  0.66419 10.50000  0.09490  15.92
N009  3  0.63478  0.47444  0.66090 11.00000  0.00982  15.81
O00A  4  0.00000  0.47018  0.37224 10.50000  0.00490  15.78
N00B  3  0.50000  0.44234  0.65585 10.50000  0.00379  14.88
C00C  2  0.00000  0.20037  0.49469 10.50000  0.03415  14.43
N00D  3  0.50000  0.50000  0.65570 10.25000  0.00288  14.25
O00E  4  0.00000  0.17432  0.41826 10.50000  0.00010  14.17
N00F  3  0.67597  0.00000  0.36796 10.50000  0.00010  13.85
N00G  3  0.93655  0.58980  0.67880 11.00000  0.02671  13.30
O00H  4  1.00000  0.50000  0.53746 10.25000  0.09076  13.04
N00I  3  0.50000  0.15197  0.43961 10.50000  0.00995  12.93
N00J  3  0.50000  0.00000  0.34365 10.25000  0.09630  11.76
O00K  4  1.00000  0.83222  0.71256 10.50000  0.02618  11.50
O00L  4  0.12226  0.09417  0.42822 11.00000  0.04910  11.24
N00M  3  0.00000  0.36410  0.35448 10.50000  0.04681  11.13
N00N  3  0.29484  0.00000  0.48163 10.50000  0.07004  11.13
C00O  2  0.74910  0.50000  0.64139 10.50000  0.05970  10.26
N00P  3  0.65562  0.00000  0.33080 10.50000  0.00841  10.19
N00Q  3  0.11382  0.14893  0.43230 11.00000  0.05800  10.15
N00R  3  0.39032  0.13475  0.43856 11.00000  0.05554   9.83
N00S  3  1.00000  0.64097  0.68674 10.50000  0.00010   9.37
N00T  3  0.00000  0.31789  0.36702 10.50000  0.09796   9.32
C00U  2  0.50000  0.11757  0.37005 10.50000  0.08269   9.26
O00V  4  0.79154  0.33322  0.59243 11.00000  0.04876   8.82
O00W  4  0.00000  0.14487  0.50911 10.50000  0.04811   8.58
O00X  4  0.50000  0.36019  0.33445 10.50000  0.03635   8.13
O00Y  4  0.50000  0.50000  0.44269 10.25000  0.02736   8.00
N00Z  3  0.67606  0.50000  0.60728 10.50000  0.00010   7.74
N010  3  0.50000  0.06025  0.37648 10.50000  0.06234   7.57
O011  4  0.73469  0.00000  0.23502 10.50000  0.04756   7.53
N012  3  0.34142  0.00000  0.42566 10.50000  0.00119   7.42
N013  3  0.00000  0.23838  0.36623 10.50000  0.01917   7.15
C014  2  0.33786  0.04622  0.45184 11.00000  0.00010   6.74
N015  3  0.50000  0.00000  0.70586 10.25000  0.00010   6.70
N016  3  1.00000  0.50000  0.71490 10.25000  0.05168   6.61
N017  3  0.41892  0.00000  0.48983 10.50000  0.04418   6.52
N018  3  0.32646  0.50000  0.38258 10.50000  0.04896   6.18
N019  3  0.50000  0.50000  0.53600 10.50000  0.09878   6.18
C01A  2  0.50000  0.30796  0.52699 10.50000  0.00320   6.02
C01B  2  0.86643  0.42415  0.61841 11.00000  0.00754   5.99
C01C  2  1.00000  0.69153  0.66801 10.50000  0.01908   5.78
C01D  2  0.00000  0.34269  0.38824 10.50000  0.00760   5.46
C01E  2  0.50000  0.36503  0.68113 10.50000  0.08353   5.14
C01F  2  0.50000  0.06170  0.72469 10.50000  0.00010   5.12
C01G  2  0.50000  0.37083  0.51079 10.50000  0.03512   4.91
C01H  2  1.00000  0.78527  0.66753 10.50000  0.01719   4.78
C01I  2  0.57972  0.25675  0.57870 11.00000  0.06244   4.50
C01J  2  0.50000  0.16230  0.38327 10.50000  0.07633   4.45
C01K  2  0.50000  0.28438  0.32992 10.50000  0.00495   4.23
C01L  2  0.35218  0.23432  0.44000 11.00000  0.00722   4.07
C01M  2  0.50000  0.00000  0.73861 10.25000  0.01607   4.01
C01N  2  0.30196  0.19462  0.43893 11.00000  0.03097   3.98
C01O  2  0.50000  0.50000  0.69149 10.25000  0.01296   3.87
C01P  2  0.32383  0.19930  0.41248 11.00000  0.02046   3.84
C01Q  2  0.56554  0.38437  0.57318 11.00000  0.05946   3.64
C01R  2  0.50000  0.17633  0.69498 11.00000  0.03418   3.35
C01S  2  0.79823  0.24921  0.60637 11.00000  0.03006   3.34
C01T  2  0.44255  0.23697  0.49099 11.00000  0.00670   3.29
C01U  2  0.23422  0.23011  0.44642 11.00000  0.01125   3.12
HKLF 4
END
