TITL temp02_expF_1_2_expS_0_5_temp02_a.res in Imm2
REM Old TITL I222 in Imm2 #44
REM SHELXT solution in Imm2: R1 0.751, Rweak 0.003, Alpha 0.159
REM <I/s>   0.000 for    0 systematic absences,  Orientation as input
REM Flack x = -1.725 ( 0.183 ) from   433 Parsons' quotients
REM Formula found by SHELXT:  C17 N8 O3 Cl2

CELL  0.71073   9.1390  15.1100  30.4810   90.000   90.000   90.000
ZERR   51.000   0.0018   0.0030   0.0061    0.000    0.000    0.000
LATT -2
SYMM -X, -Y, Z
SYMM X, -Y, Z
SYMM -X, Y, Z
SFAC H C N O ZR CL
UNIT 51 51 51 51 51 0
L.S. 10
BOND
LIST 6
FMAP 2
PLAN 20
CL01  6  0.56042  0.53081  0.44859 11.00000  0.02686  15.65
CL02  6  0.50000  1.00000  0.21752 10.25000  0.03676  14.47
CL03  6  0.50000  0.50000  0.60358 10.25000  0.03046  12.98
CL04  6  0.57492  0.50000  0.41987 10.50000  0.02399  12.60
N005  3  0.50000  0.46111  0.40659 10.50000  0.00581  11.57
N006  3  0.40415  0.50000  0.73470 10.50000  0.04647  11.01
N007  3  0.92042  0.50000  0.39291 10.50000  0.02712  10.31
C008  2 -0.50000  1.00000  0.52138 10.25000  0.00010  10.19
N009  3  0.76238  0.50000  0.31723 10.50000  0.00010   8.93
N00A  3  0.50000  0.52794  0.72473 10.50000  0.01576   8.38
O00B  4  0.72194  0.65943  0.66183 11.00000  0.00962   7.79
O00C  4 -0.50000  1.07487  0.53880 10.50000  0.03945   7.69
N00D  3  0.89269  0.50000  0.61649 10.50000  0.01002   7.67
N00E  3  1.00000  0.50000  0.40957 10.25000  0.00010   7.57
N00F  3  0.72779  0.50000  0.40086 10.50000  0.00010   7.24
N00G  3  1.00000  0.50000  0.62263 10.25000  0.03002   6.96
C00H  2  0.76432  0.50000  0.60771 10.50000  0.01490   6.68
N00I  3  0.70483  0.56673  0.45919 11.00000  0.03505   6.51
C00J  2  1.00000  0.50000  0.35202 10.25000  0.04188   6.48
C00K  2  0.00000  1.00000  0.42931 10.25000  0.00010   6.46
C00L  2  0.70044  0.50000  0.46649 10.50000  0.00010   6.36
C00M  2  1.00000  0.50000  0.38431 10.50000  0.06700   6.31
C00N  2  0.34178  0.50000  0.72987 10.50000  0.15331   6.20
C00O  2  0.00000  1.00000  0.47339 10.50000  0.00010   5.58
C00P  2  0.50000  0.50000  0.31093 10.50000  0.00010   5.27
C00Q  2  0.50000  0.69700  0.76363 10.50000  0.01187   5.26
C00R  2  0.56435  0.62300  0.67138 11.00000  0.01481   5.23
C00S  2  0.84308  0.50000  0.30806 10.50000  0.00118   5.13
C00T  2  0.42369  0.50000  0.78248 10.50000  0.02904   5.03
C00U  2  0.50000  0.69687  0.67310 10.50000  0.01124   4.98
C00V  2  1.00000  0.50000  0.32426 10.50000  0.03085   4.87
N00W  3  0.61575  0.69665  0.67229 11.00000  0.01599   4.82
C00X  2  0.88984  0.50000  0.34180 10.50000  0.00586   4.70
O00Y  4  0.50000  0.65758  0.26662 10.50000  0.21230   4.60
N00Z  3  0.84638  0.50000  0.45026 10.50000  0.00010   4.50
O010  4  0.50000  0.70160  0.25053 10.50000  0.08059   4.32
C011  2  0.50000  0.50000  0.33753 10.25000  0.08446   4.31
C012  2  0.50000  0.54237  0.31467 11.00000  0.06712   4.21
C013  2 -0.22114  1.00000  0.49097 10.50000  0.03314   4.19
C014  2  0.50000  0.77342  0.24738 10.50000  0.12996   4.03
N015  3  0.50000  0.82147  0.22958 10.50000  0.13561   3.88
C016  2  0.50000  0.79620  0.40160 10.50000  0.00010   3.87
C017  2  1.00000  0.50000  0.40981 10.25000  0.00010   3.84
O018  4  0.50000  0.74347  0.41177 10.50000  0.04339   3.77
C019  2  0.86331  0.50000  0.52396 10.50000  0.07479   3.77
C01A  2  0.88354  0.43129  0.33182 11.00000  0.08303   3.73
C01B  2  0.00000  1.00000  0.41026 10.25000  0.06073   3.55
C01C  2  0.50000  1.00000  0.36574 10.50000  0.13907   3.53
N01D  3  0.50000  0.87178  0.40081 10.50000  0.08696   3.49
C01E  2  0.50000  0.65157  0.45454 10.50000  0.00010   3.43
C01F  2 -0.14641  1.00000  0.46526 10.50000  0.07896   3.39
C01G  2  0.79897  0.40314  0.33214 11.00000  0.02980   3.38
C01H  2  1.00000  0.38771  0.33872 10.50000  0.05726   3.33
N01I  3  0.50000  0.81059  0.37806 10.50000  0.00010   3.32
C01J  2  0.36894  1.00000  0.35483 10.50000  0.01979   3.22
C01K  2  1.00000  0.65076  0.42248 10.50000  0.09449   3.16
C01L  2  1.00000  0.32905  0.56779 10.50000  0.05633   3.04
HKLF 4
END
