TITL temp02_expF_1_3_expS_0_9_temp02_a.res in Imm2
REM Old TITL I222 in Imm2 #44
REM SHELXT solution in Imm2: R1 0.762, Rweak 0.167, Alpha 0.289
REM <I/s>   0.000 for    0 systematic absences,  Orientation as input
REM Flack x = -9.990 ( 9.990 ) from   286 Parsons' quotients
REM Formula found by SHELXT:  C63 N15 O10

CELL  0.71073   9.1390  15.1100  30.4810   90.000   90.000   90.000
ZERR   51.000   0.0018   0.0030   0.0061    0.000    0.000    0.000
LATT -2
SYMM -X, -Y, Z
SYMM X, -Y, Z
SYMM -X, Y, Z
SFAC H C N O ZR
UNIT 51 51 51 51 51
L.S. 10
BOND
LIST 6
FMAP 2
PLAN 20
O001  4  0.74980  0.50000  0.55855 10.50000  0.03313  15.09
O002  4  0.63785  0.50000  0.56433 10.50000  0.07919  12.93
N003  3  0.27459  0.50000  0.24944 10.50000  0.03602  10.60
N004  3  0.00000  0.50000  0.16240 10.25000  0.03898  10.36
O005  4  0.89069  0.50000  0.44837 10.50000  0.03998   9.55
O006  4  0.50000  0.34342  0.50843 10.50000  0.01745   9.15
N007  3  0.90762  0.50000  0.55427 10.50000  0.08826   8.77
O008  4  0.66611  0.50000  0.44977 10.50000  0.05701   8.37
C009  2  1.00000  0.50000  0.57614 10.25000  0.08974   8.08
N00A  3  0.00000  0.40121  0.15271 10.50000  0.03442   7.39
N00B  3  1.00000  0.50000  0.62230 10.25000  0.09600   7.08
C00C  2  1.00000  0.53899  0.83686 10.50000  0.00123   6.69
C00D  2  0.50000  0.50000  0.15912 10.25000  0.05465   6.66
C00E  2  0.23274  0.50000  0.27437 10.50000  0.03318   6.45
C00F  2  0.28946  0.50000  0.21915 10.50000  0.12717   6.38
C00G  2  0.50000  0.50000  0.71631 10.25000  0.00010   6.38
C00H  2  0.50000  0.54025  0.18592 10.50000  0.01855   6.19
C00I  2  0.15218  0.46178  0.15080 11.00000  0.04193   5.84
C00J  2  0.60218  0.50000  0.71002 10.50000  0.05092   5.82
C00K  2  1.00000  0.29823  0.49804 10.50000  0.00290   5.74
C00L  2  0.59930  0.55399  0.72339 11.00000  0.01763   5.53
N00M  3  1.00000  0.60386  0.81212 10.50000  0.00010   5.06
N00N  3  0.00000  0.50000  0.29950 10.25000  0.02895   4.88
C00O  2  0.95393  0.35863  0.48961 11.00000  0.00010   4.70
C00P  2  0.50000  0.46717  0.44696 10.50000  0.05611   4.23
N00Q  3  0.45825  0.50000  0.38858 10.50000  0.06580   4.19
C00R  2  0.27870  0.45518  0.27650 11.00000  0.04080   4.13
C00S  2  0.38423  0.45097  0.29656 11.00000  0.05330   4.05
C00T  2  0.50000  0.60259  0.17685 10.50000  0.03062   4.04
C00U  2  0.26921  0.50000  0.16559 10.50000  0.05270   3.59
C00V  2  0.10630  0.50000  0.28489 10.50000  0.05252   3.58
C00W  2  0.33628  0.50000  0.38066 10.50000  0.00010   3.56
N00X  3  1.00000  0.46059  0.50269 10.50000  0.00010   3.50
C00Y  2  0.06568  0.38547  0.28929 11.00000  0.06924   3.31
C00Z  2  0.88983  0.50000  0.84920 10.50000  0.02513   3.27
C010  2  0.50000  0.56446  0.72466 10.50000  0.01010   3.27
C011  2  1.00000  0.25641  0.51907 10.50000  0.00010   3.26
C012  2  1.00000  0.22616  0.46154 10.50000  0.03068   3.19
C013  2  0.15689  0.50000  0.15503 10.50000  0.13656   3.17
C014  2  0.32891  0.50000  0.18863 10.50000  0.00010   3.14
C015  2  0.00000  0.38454  0.31760 10.50000  0.00010   3.13
HKLF 4
END
