TITL temp02_expF_1_3_expS_1_5_temp02_a.res in Imm2
REM Old TITL I222 in Imm2 #44
REM SHELXT solution in Imm2: R1 0.751, Rweak 0.269, Alpha 0.216
REM <I/s>   0.000 for    0 systematic absences,  Orientation as input
REM Flack x = -9.990 ( 3.085 ) from   103 Parsons' quotients
REM Formula found by SHELXT:  C50 N29 O7 Cl4

CELL  0.71073   9.1390  15.1100  30.4810   90.000   90.000   90.000
ZERR   51.000   0.0018   0.0030   0.0061    0.000    0.000    0.000
LATT -2
SYMM -X, -Y, Z
SYMM X, -Y, Z
SYMM -X, Y, Z
SFAC H C N O ZR CL
UNIT 51 51 51 51 51 0
L.S. 10
BOND
LIST 6
FMAP 2
PLAN 20
CL01  6  0.14675  0.50000  0.36134 10.50000  0.09901  16.26
CL02  6  0.23291  0.50000  0.35166 10.50000  0.13361  13.64
N003  3  0.00000  0.50000  0.31050 10.25000  0.07205  12.49
C004  2  0.87616  0.50000  0.67226 10.50000  0.02634  10.99
N005  3  0.03646  0.63973  0.41085 11.00000  0.11478  10.57
N006  3  0.50000  0.55009  0.28154 10.50000  0.00010  10.16
N007  3  0.14312  0.53938  0.40564 11.00000  0.08842  10.14
N008  3  0.17253  0.50000  0.41864 10.50000  0.04355   9.44
O009  4  1.00000  0.50000  0.67730 10.25000  0.00920   7.92
N00A  3  0.50000  0.64240  0.42392 10.50000  0.00076   7.47
C00B  2  0.59227  0.53595  0.47386 11.00000  0.02426   7.32
N00C  3  0.00000  1.00000  0.43214 10.25000  0.00010   7.17
N00D  3  0.50000  0.59313  0.24528 10.50000  0.01576   6.99
N00E  3  0.50000  0.50000  0.49623 10.25000  0.09076   6.98
N00F  3  0.50000  0.50000  0.22655 10.25000  0.00010   6.81
C00G  2  0.42414  0.50000  0.29548 10.50000  0.00010   6.64
O00H  4  0.80656  0.50000  0.68128 10.50000  0.08444   6.57
C00I  2  0.50000  0.41977  0.76918 10.50000  0.08705   6.20
N00J  3  0.50000  0.56018  0.42743 10.50000  0.00293   6.10
C00K  2  0.75182  0.50000  0.47399 10.50000  0.00010   5.98
C00L  2  0.50000  0.50000  0.37108 10.25000  0.04075   5.87
C00M  2  0.18902  0.57109  0.39346 11.00000  0.01956   5.82
C00N  2  0.30646  0.50000  0.42138 10.50000  0.06344   5.78
C00O  2  0.50000  0.50000  0.40371 10.25000  0.00010   5.72
C00P  2  1.00000  0.50000  0.55578 10.25000  0.00010   5.06
C00Q  2  0.69736  0.50000  0.54153 10.50000  0.02193   4.93
N00R  3  0.87843  0.50000  0.53303 10.50000  0.00010   4.74
C00S  2  0.61235  0.58430  0.29301 11.00000  0.03190   4.71
C00T  2  0.40506  0.53390  0.40233 11.00000  0.01336   4.44
C00U  2  0.00000  0.88982  0.45062 10.50000  0.00934   4.43
C00V  2  0.66069  0.50000  0.73616 10.50000  0.03905   4.30
N00W  3  0.50000  0.77708  0.59143 10.50000  0.00010   4.28
O00X  4  1.00000  0.73486  0.62496 10.50000  0.10548   4.23
N00Y  3  0.28088  0.50000  0.28315 10.50000  0.11629   4.16
O00Z  4  0.50000  0.33961  0.77345 10.50000  0.08494   4.03
C010  2  0.50000  0.76077  0.25584 10.50000  0.02566   3.88
C011  2  1.00000  0.86649  0.61022 10.50000  0.02126   3.71
C012  2  0.32287  0.58862  0.42472 11.00000  0.07251   3.69
C013  2  1.00000  0.72220  0.59262 10.50000  0.00010   3.56
C014  2 -0.04808  0.50000  0.27703 10.50000  0.00010   3.36
C015  2  0.00000  0.50000  0.25489 10.25000  0.00722   3.28
N016  3  0.50000  1.00000  0.57677 10.25000  0.11004   3.03
C017  2  0.00000  0.55875  0.28505 10.50000  0.03173   3.01
HKLF 4
END
