TITL temp02_expF_1_4_expS_1_4_temp02_a.res in Imm2
REM Old TITL I222 in Imm2 #44
REM SHELXT solution in Imm2: R1 0.800, Rweak 0.161, Alpha 0.105
REM <I/s>   0.000 for    0 systematic absences,  Orientation as input
REM Flack x = -9.990 ( 9.990 ) from   149 Parsons' quotients
REM Formula found by SHELXT:  C34 N13 O4

CELL  0.71073   9.1390  15.1100  30.4810   90.000   90.000   90.000
ZERR   51.000   0.0018   0.0030   0.0061    0.000    0.000    0.000
LATT -2
SYMM -X, -Y, Z
SYMM X, -Y, Z
SYMM -X, Y, Z
SFAC H C N O ZR
UNIT 51 51 51 51 51
L.S. 10
BOND
LIST 6
FMAP 2
PLAN 20
O001  4  0.30342  0.50000  0.69290 10.50000  0.13462   8.83
C002  2  0.50000  0.50000  0.37905 10.25000  0.02182   8.64
N003  3  1.00000  0.54215  0.30449 10.50000  0.02436   8.45
C004  2  0.50000  0.50000  0.43323 10.25000  0.03712   8.37
N005  3  0.66180  0.50000  0.36140 10.50000  0.03554   6.87
N006  3  0.67724  0.50000  0.38808 10.50000  0.02333   6.58
C007  2  0.62120  0.50000  0.41970 10.50000  0.00032   5.84
C008  2  0.89114  0.50000  0.37307 10.50000  0.11935   5.77
C009  2  0.14035  0.46505  0.70464 11.00000  0.00106   5.62
O00A  4  0.50000  0.34140  0.62971 10.50000  0.18781   5.27
N00B  3  1.00000  0.50000  0.43011 10.25000  0.00095   5.26
N00C  3  0.88696  0.50000  0.31165 10.50000  0.08023   5.22
C00D  2  0.50000  0.50000  0.69638 10.25000  0.00010   5.13
N00E  3  0.58741  0.50000  0.55909 10.50000  0.09050   5.09
C00F  2  1.00000  0.43252  0.42400 10.50000  0.02559   4.82
C00G  2  0.67108  0.50000  0.58107 10.50000  0.04688   4.66
C00H  2  0.92878  0.36057  0.42030 11.00000  0.06166   4.16
C00I  2  0.54867  0.50000  0.31820 10.50000  0.03905   4.06
C00J  2  0.79949  0.50000  0.29536 10.50000  0.02031   4.06
C00K  2  0.50000  0.00000  0.49479 10.25000  0.02230   4.00
N00L  3  0.50000  0.00000  0.60265 10.25000  0.00010   3.97
C00M  2  0.85405  0.50000  0.44282 10.50000  0.06889   3.97
N00N  3  1.00000  0.50000  0.55260 10.25000  0.04520   3.94
C00O  2  0.50000 -0.03137  0.46069 10.50000  0.00579   3.88
C00P  2  0.06039  0.00000  0.39654 10.50000  0.00010   3.75
C00Q  2  0.89032  0.50000  0.57695 10.50000  0.07772   3.72
C00R  2  0.50000  0.27129  0.62338 10.50000  0.09161   3.53
HKLF 4
END
