TITL temp02_expF_1_3_expS_0_8_temp02_a.res in Imm2
REM Old TITL I222 in Imm2 #44
REM SHELXT solution in Imm2: R1 0.763, Rweak 0.213, Alpha 0.180
REM <I/s>   0.000 for    0 systematic absences,  Orientation as input
REM Flack x = -3.239 ( 1.086 ) from   329 Parsons' quotients
REM Formula found by SHELXT:  C46 N27 O10 Cl5

CELL  0.71073   9.1390  15.1100  30.4810   90.000   90.000   90.000
ZERR   51.000   0.0018   0.0030   0.0061    0.000    0.000    0.000
LATT -2
SYMM -X, -Y, Z
SYMM X, -Y, Z
SYMM -X, Y, Z
SFAC H C N O ZR CL
UNIT 51 51 51 51 51 0
L.S. 10
BOND
LIST 6
FMAP 2
PLAN 20
CL01  6 -0.50000  0.00000  0.34809 10.25000  0.01665  16.33
CL02  6 -0.37901  0.00000  0.33551 10.50000  0.08018  13.31
N003  3  0.00000  0.50000  0.55627 10.25000  0.00010  12.32
N004  3 -0.42291  0.00000  0.36692 10.50000  0.00010  11.12
C005  2 -0.13337  0.00000  0.45591 10.50000  0.02281   9.70
CL06  6  0.00000  0.46159  0.35903 10.50000  0.04786   9.66
N007  3  0.00000  0.00000  0.46909 10.50000  0.06290   8.57
N008  3  0.10337  0.50000  0.55661 10.50000  0.08826   8.36
N009  3  1.00000  0.50000  0.69801 10.25000  0.00892   7.50
C00A  2  0.00000  0.00000  0.30925 10.25000  0.04075   7.35
N00B  3 -0.38976  0.00000  0.46254 10.50000  0.05891   7.28
N00C  3  0.35882  0.50000  0.54417 10.50000  0.00147   7.05
N00D  3 -0.17275 -0.07650  0.45133 11.00000  0.04110   6.39
C00E  2  0.55956  0.50000  0.66638 10.50000  0.02116   6.30
C00F  2  0.50000  0.50000  0.56638 10.25000  0.01507   6.22
C00G  2  0.00000  0.00000  0.36972 10.25000  0.00010   6.14
C00H  2  0.57770  0.50000  0.70008 10.50000  0.00010   6.03
N00I  3  0.00000  0.00000  0.62792 10.25000  0.00895   5.44
C00J  2 -0.45560  0.09129  0.40726 11.00000  0.04976   5.38
N00K  3 -0.34410  0.50000  0.28493 10.50000  0.02348   5.34
C00L  2 -0.23528  0.03419  0.32940 11.00000  0.01855   5.28
C00M  2  0.00000  0.29122  0.56677 10.50000  0.03245   5.19
C00N  2 -0.50000  0.50000  0.28576 10.25000  0.01875   4.69
N00O  3  0.25493  0.50000  0.48613 10.50000  0.08410   4.60
O00P  4  0.00000  0.06550  0.52054 10.50000  0.05989   4.51
C00Q  2  0.89590  0.50000  0.70258 10.50000  0.03375   4.33
N00R  3  0.50000  0.50000  0.63377 10.25000  0.00010   4.29
C00S  2  0.00000  0.20702  0.50857 10.50000  0.07632   4.25
O00T  4  0.17893  0.37454  0.60803 11.00000  0.06856   4.24
C00U  2  1.00000  0.57882  0.70786 10.50000  0.01237   4.15
C00V  2  1.00000  0.69471  0.69657 10.50000  0.00905   4.09
C00W  2  1.00000  0.50000  0.72210 10.25000  0.02375   3.94
C00X  2  0.07386  0.31257  0.56031 11.00000  0.11955   3.85
O00Y  4 -0.23003  0.15668  0.27790 11.00000  0.05811   3.84
C00Z  2 -0.18467  0.00000  0.38398 10.50000  0.00446   3.81
C010  2  0.30312  0.35480  0.60706 11.00000  0.08771   3.67
C011  2  0.50000  0.50000  0.47407 10.25000  0.00300   3.65
C012  2 -0.22174  0.17026  0.31517 11.00000  0.07455   3.45
N013  3  1.00000  0.75608  0.68195 10.50000  0.03018   3.19
N014  3 -0.50000  0.00000  0.53485 10.25000  0.00010   3.17
N015  3  0.50000  0.22690  0.54636 10.50000  0.03639   3.04
C016  2 -0.50000  0.18707  0.36908 10.50000  0.07469   3.00
HKLF 4
END
