TITL temp02_expF_1_0_expS_1_4_temp02_a.res in Imm2
REM Old TITL I222 in Imm2 #44
REM SHELXT solution in Imm2: R1 0.621, Rweak 0.220, Alpha 0.300
REM <I/s>   0.000 for    0 systematic absences,  Orientation as input
REM Flack x = -9.990 ( 9.990 ) from   131 Parsons' quotients
REM Formula found by SHELXT:  C71 N34 O14

CELL  0.71073   9.1390  15.1100  30.4810   90.000   90.000   90.000
ZERR   51.000   0.0018   0.0030   0.0061    0.000    0.000    0.000
LATT -2
SYMM -X, -Y, Z
SYMM X, -Y, Z
SYMM -X, Y, Z
SFAC H C N O ZR
UNIT 51 51 51 51 51
L.S. 10
BOND
LIST 6
FMAP 2
PLAN 20
N001  3  0.13203  0.50000  0.26507 10.50000  0.00010  11.78
N002  3  0.00000  0.34234  0.31555 10.50000  0.00489  10.32
N003  3  0.00000  0.50000  0.25340 10.25000  0.00352  10.32
N004  3  0.50000  0.38521  0.33286 10.50000  0.03020   9.87
N005  3  0.81961  0.50000  0.73331 10.50000  0.01234   9.12
C006  2  1.00000  0.92178  0.62306 10.50000  0.01646   8.83
O007  4  0.68197  0.50000  0.37554 10.50000  0.02071   8.82
N008  3  0.53424  0.50000  0.63787 10.50000  0.05654   8.49
N009  3  1.00000  0.56861  0.45236 10.50000  0.03881   8.32
O00A  4  0.11942  0.37574  0.31746 11.00000  0.03317   8.22
C00B  2  0.92582  0.50000  0.46442 10.50000  0.00010   7.49
N00C  3  0.84039  0.50000  0.36507 10.50000  0.00500   7.08
C00D  2  0.57057  0.46375  0.60398 11.00000  0.00288   6.93
C00E  2  0.00000  0.43730  0.24557 10.50000  0.00010   6.14
C00F  2  0.50000  0.50000  0.60182 10.25000  0.00010   6.11
C00G  2  0.84945  0.41666  0.71757 11.00000  0.05738   5.93
C00H  2  0.54825  0.50000  0.26023 10.50000  0.04908   5.88
C00I  2  0.50000  0.50000  0.68192 10.25000  0.09381   5.87
C00J  2  1.00000  0.45800  0.73040 10.50000  0.00889   5.67
C00K  2  0.50000  0.34602  0.44088 10.50000  0.00010   5.65
N00L  3  1.00000  0.57034  0.57846 10.50000  0.01356   5.60
C00M  2  1.00000  0.50000  0.56472 10.25000  0.02947   5.54
C00N  2  0.00000  0.43428  0.27484 10.50000  0.00010   5.53
N00O  3  0.59420  0.53311  0.65942 11.00000  0.04694   5.46
C00P  2  0.50000  0.46332  0.27883 10.50000  0.01230   5.41
N00Q  3  0.50000  0.42308  0.59623 10.50000  0.00010   5.35
O00R  4  1.00000  0.79596  0.46838 10.50000  0.16148   5.11
C00S  2  0.50000  0.41817  0.63668 10.50000  0.10899   5.06
C00T  2  1.00000  0.33561  0.71792 10.50000  0.00010   5.04
C00U  2  0.00000  0.27154  0.30637 10.50000  0.04601   5.04
C00V  2  0.50000  0.50000  0.29441 10.25000  0.00189   5.03
N00W  3  0.62624  0.44976  0.30939 11.00000  0.03662   4.85
N00X  3  0.50000  0.50000  0.80548 10.25000  0.00010   4.77
O00Y  4  1.00000  0.90934  0.50240 10.50000  0.05846   4.66
C00Z  2  0.68261  0.50000  0.72303 10.50000  0.02989   4.64
O010  4  1.08394  0.80774  0.50681 11.00000  0.01434   4.50
C011  2  0.50000  0.35061  0.35165 10.50000  0.00985   4.37
C012  2  0.50000  0.27901  0.31825 10.50000  0.00010   4.22
C013  2  0.80753  0.50000  0.43488 10.50000  0.02576   4.09
C014  2  0.50000  0.25904  0.48758 10.50000  0.00010   4.08
C015  2  0.50000  0.17030  0.50629 10.50000  0.01048   4.02
C016  2  0.69317  0.50000  0.58973 10.50000  0.00402   4.01
C017  2  0.61963  0.50000  0.31147 10.50000  0.00010   3.72
N018  3  0.60801  0.46830  0.46777 11.00000  0.04402   3.58
C019  2  0.83861  0.50000  0.54984 10.50000  0.00776   3.43
C01A  2  0.85071  0.50000  0.39917 10.50000  0.03955   3.41
C01B  2  1.00000  0.50000  0.52925 10.25000  0.06006   3.40
C01C  2  0.50000  0.10953  0.47503 10.50000  0.05595   3.40
C01D  2  0.50000  0.17643  0.47539 10.50000  0.00704   3.29
C01E  2  0.34491  0.33361  0.32195 11.00000  0.03237   3.29
C01F  2  0.50000  0.21683  0.42284 10.50000  0.00779   3.21
C01G  2  0.00000  0.47412  0.19452 10.50000  0.03039   3.11
C01H  2  0.74711  0.37969  0.71703 11.00000  0.02441   3.02
N01I  3  1.20934  1.00000  0.56281 10.50000  0.03611   3.00
HKLF 4
END
