TITL temp02_expF_1_0_expS_1_1_temp02_a.res in Imm2
REM Old TITL I222 in Imm2 #44
REM SHELXT solution in Imm2: R1 0.626, Rweak 0.159, Alpha 0.205
REM <I/s>   0.000 for    0 systematic absences,  Orientation as input
REM Flack x =  0.158 ( 1.609 ) from   244 Parsons' quotients
REM Formula found by SHELXT:  C38 N15 O4 Cl2

CELL  0.71073   9.1390  15.1100  30.4810   90.000   90.000   90.000
ZERR   51.000   0.0018   0.0030   0.0061    0.000    0.000    0.000
LATT -2
SYMM -X, -Y, Z
SYMM X, -Y, Z
SYMM -X, Y, Z
SFAC H C N O ZR CL
UNIT 51 51 51 51 51 0
L.S. 10
BOND
LIST 6
FMAP 2
PLAN 20
CL01  6  0.00000  0.50000  0.15125 10.25000  0.04468  17.29
CL02  6  1.00000  0.50000  0.45715 10.25000  0.05042  15.91
CL03  6  0.64607  0.50000  0.45957 10.50000  0.06406  14.55
N004  3  0.50000  0.50000  0.45747 10.25000  0.07402  11.50
N005  3  1.50000  0.50000  0.74200 10.25000  0.00010  10.72
N006  3  0.50000  0.52704  0.27223 10.50000  0.00412  10.49
N007  3  0.07735  0.50000  0.16843 10.50000  0.00010  10.16
N008  3  0.00000  0.56461  0.16231 10.50000  0.00860   9.44
N009  3  1.15401  0.50000  0.85411 10.50000  0.00010   9.26
O00A  4  0.77026  0.64481  0.40892 11.00000  0.00444   9.14
N00B  3  0.39104  0.46084  0.10238 11.00000  0.02122   9.02
N00C  3  1.39287  0.54083  0.74633 11.00000  0.04965   8.19
O00D  4  1.50000  0.50000  0.61872 10.25000  0.13090   7.76
N00E  3  0.50000  0.59863  0.45281 10.50000  0.02031   7.53
O00F  4  1.00000  0.72050  0.48324 10.50000  0.01572   7.25
O00G  4  0.00000  0.50000  0.33805 10.25000  0.14822   7.19
C00H  2  0.50000  0.50000  0.12998 10.25000  0.01561   6.95
N00I  3  0.34974  0.47093  0.26731 11.00000  0.00658   6.74
C00J  2  0.45661  0.50000  0.24707 10.50000  0.15825   6.47
N00K  3  1.50000  0.57603  0.74743 10.50000  0.00010   6.20
C00L  2  1.50000  0.56702  0.80523 10.50000  0.00010   6.09
C00M  2  0.86590  0.61097  0.41939 11.00000  0.00030   6.07
C00N  2  1.00000  0.50000  0.88105 10.25000  0.02362   5.95
C00O  2  0.50000  0.55938  0.14686 10.50000  0.02252   5.68
C00P  2  0.60105  0.70645  0.39206 11.00000  0.00010   5.67
C00Q  2  1.27090  0.53921  0.75137 11.00000  0.04970   5.61
C00R  2  1.00000  0.80385  0.47412 10.50000  0.00010   5.55
C00S  2  1.33000  0.50000  0.58618 10.50000  0.00133   5.21
C00T  2  1.17021  0.50000  0.89762 10.50000  0.00178   5.19
N00U  3  0.50000  0.71471  0.31335 10.50000  0.00010   4.73
C00V  2  0.50000  0.50000  0.24778 10.25000  0.20023   4.70
C00W  2  0.00000  0.75142  0.13405 10.50000  0.05892   4.67
C00X  2  1.00000  0.71091  0.41137 10.50000  0.00089   4.63
C00Y  2  1.50000  0.50000  0.78496 10.25000  0.00010   4.48
C00Z  2  0.00000  0.62090  0.17689 10.50000  0.00010   4.47
C010  2  0.00000  0.58462  0.19709 11.00000  0.07256   4.22
C011  2  0.00000  0.63893  0.20893 10.50000  0.00010   4.19
C012  2  0.50000  0.70792  0.42437 10.50000  0.00010   4.18
C013  2  0.33379  0.50000  0.17839 10.50000  0.12800   4.07
C014  2  1.00000  0.62140  0.41495 10.50000  0.00279   4.02
C015  2  0.54271  0.50000  0.32972 10.50000  0.00922   3.96
C016  2  1.19968  0.64891  0.52897 11.00000  0.00303   3.79
C017  2  1.16254  0.55720  0.87710 11.00000  0.03239   3.75
C018  2  0.50000  0.63409  0.46999 10.50000  0.00167   3.64
C019  2  1.13455  0.50000  0.52584 10.50000  0.02237   3.62
C01A  2  0.09331  0.50000  0.27311 10.50000  0.00287   3.49
N01B  3  0.50000  0.73830  0.48756 10.50000  0.00551   3.41
C01C  2  1.20029  0.75014  0.55801 11.00000  0.03671   3.29
C01D  2  0.61248  0.66376  0.42066 11.00000  0.02437   3.22
C01E  2  1.11462  0.50000  0.67669 10.50000  0.01623   3.17
C01F  2  0.54519  0.60288  0.40696 11.00000  0.00178   3.17
HKLF 4
END
