TITL temp02_expF_1_0_expS_1_2_temp02_a.res in Imm2
REM Old TITL I222 in Imm2 #44
REM SHELXT solution in Imm2: R1 0.667, Rweak 0.262, Alpha 0.236
REM <I/s>   0.000 for    0 systematic absences,  Orientation as input
REM Flack x = -1.079 ( 0.507 ) from   216 Parsons' quotients
REM Formula found by SHELXT:  C61 N51 O10 Zr

CELL  0.71073   9.1390  15.1100  30.4810   90.000   90.000   90.000
ZERR   51.000   0.0018   0.0030   0.0061    0.000    0.000    0.000
LATT -2
SYMM -X, -Y, Z
SYMM X, -Y, Z
SYMM -X, Y, Z
SFAC H C N O ZR
UNIT 51 51 51 51 51
L.S. 10
BOND
LIST 6
FMAP 2
PLAN 20
ZR01  5  0.50000  0.50000  0.59768 10.25000  0.02841  24.54
O002  4  1.00000  0.50000  0.71378 10.25000  0.14753  19.26
N003  3  0.00000  0.50000  0.31732 10.25000  0.03623  17.60
N004  3  0.50000  0.35022  0.40104 10.50000  0.00024  17.21
O005  4  0.42184  0.50000  0.26513 10.50000  0.00010  17.16
N006  3  0.62515  0.50000  0.60616 10.50000  0.00010  16.64
N007  3  0.50000  0.56608  0.61024 10.50000  0.00010  16.42
N008  3  0.29481  0.50000  0.31802 10.50000  0.11035  14.87
O009  4  1.00000  0.50000  0.68177 10.25000  0.00010  14.72
N00A  3  0.67756  0.50000  0.43660 10.50000  0.02216  13.25
N00B  3  0.12987  0.47166  0.32885 11.00000  0.02328  11.70
O00C  4  1.00000  0.50000  0.58678 10.25000  0.00010  11.04
O00D  4  0.66308  0.50000  0.44530 10.50000  0.10354  10.55
N00E  3  0.50000  0.47455  0.42537 10.50000  0.00010  10.07
N00F  3  0.70509  0.50000  0.66331 10.50000  0.00010   9.24
O00G  4  0.00000  0.00000  0.39148 10.25000  0.00010   8.52
N00H  3  0.50000  0.50000  0.34706 10.25000  0.00010   8.44
N00I  3  0.05636  1.00000  0.64609 10.50000  0.17336   8.41
N00J  3  0.00000  0.94193  0.59459 10.50000  0.00291   8.22
N00K  3  0.50000  0.50000  0.30160 10.25000  0.04557   8.08
N00L  3  0.39402  0.39829  0.38484 11.00000  0.01189   7.48
N00M  3  0.92008  0.50000  0.51028 10.50000  0.00010   7.12
N00N  3  1.00000  0.50000  0.65883 10.25000  0.04098   6.94
N00O  3  0.73442  0.58283  0.67397 11.00000  0.05336   6.91
N00P  3  0.50000  0.71348  0.56761 10.50000  0.00010   6.77
N00Q  3  0.00000  0.45230  0.24800 10.50000  0.04483   6.60
C00R  2  0.82859  0.59258  0.67805 11.00000  0.00010   6.29
O00S  4  0.18665  1.00000  0.60808 10.50000  0.00010   6.23
C00T  2  0.00000  0.74764  0.57956 10.50000  0.00010   5.79
C00U  2  0.00000  0.96214  0.62117 10.50000  0.00010   5.76
C00V  2  0.45725  1.00000  0.53516 10.50000  0.00010   5.61
N00W  3  0.92313  0.50000  0.42850 10.50000  0.00010   5.49
C00X  2  0.31486  1.00000  0.49971 10.50000  0.00010   5.48
C00Y  2  0.60823  0.50000  0.68550 10.50000  0.04420   5.42
N00Z  3  0.00000  0.37835  0.37588 10.50000  0.07626   5.17
C010  2  0.00000  0.29669  0.38250 10.50000  0.00010   5.16
N011  3  1.00000  0.70909  0.76416 10.50000  0.16044   5.09
C012  2  0.50000  0.84191  0.54454 10.50000  0.00010   5.08
C013  2  0.00000  0.29179  0.42204 10.50000  0.02847   5.08
C014  2  0.00000  0.34805  0.17315 10.50000  0.01464   4.91
C015  2  0.50000  0.27175  0.43330 10.50000  0.00010   4.90
C016  2  0.00000  0.18894  0.36458 10.50000  0.00587   4.61
C017  2  0.50000  0.55660  0.71754 10.50000  0.01332   4.60
C018  2  0.50000  0.57632  0.57388 11.00000  0.05123   4.60
C019  2  0.00000  0.16590  0.41167 10.50000  0.01032   4.54
C01A  2  0.22944  0.50000  0.26941 10.50000  0.03461   4.30
C01B  2  0.50000  0.62933  0.55501 10.50000  0.00010   4.19
N01C  3 -0.10039  0.35784  0.18153 11.00000  0.00010   4.18
C01D  2  0.00000  0.86474  0.57269 10.50000  0.01234   4.02
C01E  2  0.40032  0.41549  0.32631 11.00000  0.02519   3.86
C01F  2  0.24858  0.85577  0.50501 11.00000  0.06517   3.85
C01G  2  0.50000  0.50000  0.73384 10.25000  0.07970   3.81
C01H  2  0.24785  0.34966  0.37755 11.00000  0.04136   3.18
C01I  2  0.00000  0.76343  0.54655 10.50000  0.06110   3.17
C01J  2  0.43267  0.87951  0.51619 11.00000  0.01934   3.13
C01K  2  0.50000  0.71393  0.59755 10.50000  0.00010   3.10
N01L  3  1.00000  0.50000  0.82685 10.25000  0.10680   3.06
HKLF 4
END
