TITL temp02_expF_0_9_expS_1_4_temp02_a.res in Imm2
REM Old TITL I222 in Imm2 #44
REM SHELXT solution in Imm2: R1 0.667, Rweak 0.402, Alpha 0.286
REM <I/s>   0.000 for    0 systematic absences,  Orientation as input
REM Flack x = -1.428 ( 1.996 ) from   110 Parsons' quotients
REM Formula found by SHELXT:  C68 N25 O13 Cl4

CELL  0.71073   9.1390  15.1100  30.4810   90.000   90.000   90.000
ZERR   51.000   0.0018   0.0030   0.0061    0.000    0.000    0.000
LATT -2
SYMM -X, -Y, Z
SYMM X, -Y, Z
SYMM -X, Y, Z
SFAC H C N O ZR CL
UNIT 51 51 51 51 51 0
L.S. 10
BOND
LIST 6
FMAP 2
PLAN 20
CL01  6  1.00000  0.53223  0.30737 10.50000  0.01417  15.50
O002  4  0.50000  0.50000  0.43997 10.25000  0.08195  13.27
CL03  6  1.00000  1.00000  0.62722 10.25000  0.07939  12.79
CL04  6  1.00000  0.50000  0.40045 10.25000  0.11331  12.65
O005  4  0.36085  0.50000  0.62605 10.50000  0.11920  10.74
O006  4  0.82585  0.50000  0.31758 10.50000  0.04547  10.53
C007  2  0.67767  0.50000  0.30124 10.50000  0.03024  10.35
O008  4  0.60754  0.48187  0.42557 11.00000  0.06071  10.33
N009  3  0.50000  0.50000  0.29932 10.25000  0.00010  10.08
N00A  3  0.83074  0.50000  0.39750 10.50000  0.03707  10.00
N00B  3  0.50000  0.53326  0.64837 10.50000  0.01063   9.96
C00C  2  1.00000  0.50000  0.70911 10.25000  0.02337   9.84
N00D  3  0.86443  1.00000  0.60996 10.50000  0.00889   9.50
O00E  4  0.50000  0.60541  0.31484 10.50000  0.00301   8.87
N00F  3  1.00000  0.90855  0.65337 10.50000  0.04059   8.48
N00G  3  1.00000  0.92130  0.61086 10.50000  0.02340   8.20
O00H  4  1.00000  0.72320  0.61398 10.50000  0.00010   7.97
C00I  2  0.75368  0.50000  0.44398 10.50000  0.06891   7.40
C00J  2  0.50000  1.00000  0.51350 10.25000  0.00010   7.38
C00K  2  0.50000  0.75454  0.60750 10.50000  0.01867   7.03
N00L  3  1.00000  0.68847  0.72235 10.50000  0.02845   6.86
C00M  2  0.50000  0.69248  0.58813 10.50000  0.00095   6.81
N00N  3  0.50000  0.73780  0.64167 10.50000  0.03266   6.67
N00O  3  1.00000  0.58793  0.72153 10.50000  0.00409   6.45
C00P  2  0.83180  0.66453  0.36677 11.00000  0.03311   6.41
C00Q  2  1.00000  0.60934  0.46647 10.50000  0.01742   6.04
C00R  2  0.50000  1.00000  0.35505 10.25000  0.00010   5.77
C00S  2  0.83995  0.50000  0.72779 10.50000  0.03229   5.74
C00T  2  1.00000  0.59848  0.74960 11.00000  0.00010   5.72
C00U  2  0.68149  1.00000  0.55415 10.50000  0.02675   5.10
C00V  2  1.00000  0.69789  0.51556 10.50000  0.00182   5.01
C00W  2  0.50000  0.59570  0.56618 10.50000  0.00578   4.82
C00X  2  0.50000  0.61778  0.61274 10.50000  0.01377   4.73
C00Y  2  0.50000  0.63700  0.36404 10.50000  0.00010   4.60
C00Z  2  0.76888  0.84309  0.66855 11.00000  0.02628   4.45
C010  2  0.50000  1.00000  0.47232 10.25000  0.03933   4.38
C011  2  1.00000  0.75113  0.63618 10.50000  0.00010   4.36
N012  3  0.50000  0.72507  0.56560 10.50000  0.05576   4.30
C013  2  1.06853  0.68506  0.75127 11.00000  0.00722   4.20
C014  2  0.50000  0.58894  0.75781 10.50000  0.00010   3.97
C015  2  0.50000  0.50000  0.74446 10.25000  0.00010   3.79
C016  2  0.50000  0.50000  0.56502 10.25000  0.00010   3.55
C017  2  1.00000  0.55572  0.24219 10.50000  0.02052   3.55
C018  2  0.35738  1.00000  0.37955 10.50000  0.00010   3.44
C019  2  0.50000  0.83044  0.58176 10.50000  0.00010   3.35
C01A  2  1.00000  0.76368  0.65831 10.50000  0.00010   3.25
C01B  2  1.00000  0.74857  0.39680 10.50000  0.00010   3.23
C01C  2  0.75132  0.50000  0.36033 10.50000  0.01821   3.22
N01D  3  0.85434  0.58681  0.70672 11.00000  0.03671   3.22
C01E  2  0.81861  0.53862  0.36884 11.00000  0.00876   3.19
N01F  3  1.00000  0.92195  0.47549 10.50000  0.04778   3.03
C01G  2  0.80418  0.57838  0.35379 11.00000  0.01376   3.01
HKLF 4
END
