TITL temp02_expF_1_5_expS_1_4_temp02_a.res in Imm2
REM Old TITL I222 in Imm2 #44
REM SHELXT solution in Imm2: R1 0.856, Rweak 0.132, Alpha 0.069
REM <I/s>   0.000 for    0 systematic absences,  Orientation as input
REM Flack x = -9.990 ( 9.990 ) from   123 Parsons' quotients
REM Formula found by SHELXT:  C39 N23 O15

CELL  0.71073   9.1390  15.1100  30.4810   90.000   90.000   90.000
ZERR   51.000   0.0018   0.0030   0.0061    0.000    0.000    0.000
LATT -2
SYMM -X, -Y, Z
SYMM X, -Y, Z
SYMM -X, Y, Z
SFAC H C N O ZR
UNIT 51 51 51 51 51
L.S. 10
BOND
LIST 6
FMAP 2
PLAN 20
O001  4 -0.43524  0.50000  0.29821 10.50000  0.03750  14.94
O002  4  1.24354  0.50000  0.71904 10.50000  0.10595  14.03
O003  4  0.81283  0.50000  0.58774 10.50000  0.09885  13.82
N004  3  0.50000  0.50000  0.55262 10.25000  0.20686  12.74
O005  4  1.12098  0.50000  0.71316 10.50000  0.07010  12.48
N006  3  0.60599  0.50000  0.59949 10.50000  0.07262  12.08
N007  3  1.50000  0.50000  0.77633 10.25000  0.06887  11.57
O008  4 -0.50000  0.50000  0.32466 10.25000  0.03413  11.05
N009  3  0.00000  0.50000  0.30986 10.25000  0.04213  10.02
C00A  2  1.05908  0.64570  0.65174 11.00000  0.00717   9.41
N00B  3  0.00000  0.50000  0.37915 10.25000  0.03954   9.36
N00C  3  0.50000  0.53469  0.57713 10.50000  0.11310   9.28
N00D  3  1.35052  0.50000  0.72374 10.50000  0.07693   8.75
N00E  3  1.50000  0.56268  0.78946 10.50000  0.05645   8.74
O00F  4  1.00000  0.54016  0.58799 10.50000  0.10720   8.03
C00G  2  0.50000  0.63024  0.64019 10.50000  0.00010   7.39
N00H  3  1.35855  0.50000  0.77798 10.50000  0.10923   7.11
C00I  2 -0.03235  0.50000  0.35477 10.50000  0.12809   6.88
C00J  2  0.00000  0.54549  0.44367 10.50000  0.00424   6.70
C00K  2  0.50000  0.50000  0.46717 10.25000  0.00010   6.12
C00L  2 -0.13085  0.51899  0.38577 11.00000  0.12738   5.97
C00M  2 -0.27836  0.50000  0.38292 10.50000  0.01875   5.90
C00N  2  0.10950  0.50000  0.43840 10.50000  0.00111   5.85
C00O  2  0.00000  0.50000  0.18754 10.25000  0.00729   5.79
C00P  2  0.24976  0.50000  0.44897 10.50000  0.02066   5.74
C00Q  2  1.68876  1.00000  0.41215 10.50000  0.04596   5.22
C00R  2  0.00000  0.50000  0.41925 10.25000  0.01774   4.80
N00S  3  1.00000  1.00000  0.62181 10.25000  0.05412   4.67
O00T  4  0.50000  0.70158  0.63341 10.50000  0.08441   4.47
C00U  2  0.50000  0.36644  0.47020 10.50000  0.02813   4.41
C00V  2  1.50000  0.50000  0.71695 10.25000  0.07877   4.08
N00W  3  1.21292  0.75218  0.56861 11.00000  0.05082   3.89
C00X  2  1.29171  1.00000  0.54142 10.50000  0.03285   3.79
C00Y  2  0.00000  0.50000  0.46042 10.25000  0.00568   3.69
C00Z  2  1.50000  1.00000  0.40428 10.25000  0.10091   3.68
C010  2  0.00000  0.50000  0.50489 10.25000  0.00339   3.58
C011  2  0.00000  0.56604  0.19118 10.50000  0.02115   3.47
O012  4  1.00000  0.85627  0.50044 10.50000  0.10411   3.33
C013  2  1.00000  0.50000  0.68343 10.25000  0.14723   3.23
N014  3  1.50000  0.77429  0.81246 10.50000  0.01289   3.20
C015  2  1.50000  1.00000  0.47953 10.25000  0.00693   3.12
C016  2  1.00000  0.79088  0.51986 10.50000  0.03866   3.06
N017  3  1.50000  0.84487  0.36334 10.50000  0.12066   3.03
HKLF 4
END
