TITL temp02_expF_1_3_expS_0_5_temp02_b.res in Imm2
REM Old TITL I222 in Imm2 #44
REM SHELXT solution in Imm2: R1 0.940, Rweak 0.156, Alpha 0.233
REM <I/s>   0.000 for    0 systematic absences,  Orientation a'=c, b'=a, c'=b
REM Flack x = -9.990 ( 0.848 ) from   389 Parsons' quotients
REM Formula found by SHELXT:  C45 N24 O12 Cl12

CELL  0.71073  30.4810   9.1390  15.1100   90.000   90.000   90.000
ZERR   51.000   0.0061   0.0018   0.0030    0.000    0.000    0.000
LATT -2
SYMM -X, -Y, Z
SYMM X, -Y, Z
SYMM -X, Y, Z
SFAC H C N O ZR CL
UNIT 51 51 51 51 51 0
L.S. 10
BOND
LIST 6
FMAP 2
PLAN 20
CL01  6  0.56483  0.50000  0.55264 10.50000  0.07410  19.69
CL02  6  0.57379  1.00000  0.54166 10.50000  0.05696  18.76
CL03  6  0.56029  0.69594  0.60046 11.00000  0.13926  13.72
CL04  6  0.54415  0.91062  0.55576 11.00000  0.05474  13.45
O005  4  0.50000  0.70484  0.71655 10.50000  0.00661  11.83
N006  3  0.50000  0.50000  0.57602 10.25000  0.00407  11.26
N007  3  0.50000  0.50000  0.58862 10.25000  0.00010  11.11
C008  2  0.50000  0.50000  0.47916 10.25000  0.02980  10.09
C009  2  0.50000  0.50000  0.52843 10.50000  0.11536  10.05
O00A  4  0.50000  0.33791  0.38670 10.50000  0.01987   9.07
O00B  4  0.34554  0.50000  0.14719 10.50000  0.00010   8.52
N00C  3  0.50000  0.87593  0.54133 10.50000  0.00010   8.26
O00D  4  0.39506  0.50000  0.06922 10.50000  0.05307   7.77
O00E  4  0.17010  0.70022  0.54431 11.00000  0.00262   7.77
N00F  3  0.59192  0.71522  0.51391 11.00000  0.04522   7.65
N00G  3  0.24927  0.42275  0.07783 11.00000  0.16070   7.50
C00H  2  0.31315  0.50000  0.29079 10.50000  0.00010   7.18
N00I  3  0.38053  0.50000  0.14460 10.50000  0.09707   7.16
N00J  3  0.27401  0.50000  0.46026 10.50000  0.00010   7.04
N00K  3  0.64602  1.00000  0.68110 10.50000  0.16303   6.77
N00L  3  0.21995  0.50000  0.48228 10.50000  0.25198   6.74
C00M  2  0.50000  0.83129  1.07534 10.50000  0.12160   6.47
C00N  2  0.50000  0.59571  0.75439 10.50000  0.10119   6.47
C00O  2  0.37354  0.50000 -0.08968 10.50000  0.13973   5.96
C00P  2  0.50000  0.50000  0.74757 10.50000  0.07918   5.93
C00Q  2  0.50000  0.90418  1.08968 10.50000  0.21463   5.87
C00R  2  0.24759  0.50000  0.10179 10.50000  0.04356   4.98
C00S  2  0.15433  0.68006  0.60976 11.00000  0.00010   4.91
C00T  2  0.50000  0.50000  0.52894 10.25000  0.08619   4.61
C00U  2  0.13605  0.50000  0.47758 10.50000  0.17386   4.52
C00V  2  0.40839  0.50000  0.26998 10.50000  0.18188   4.24
C00W  2  0.58436  0.90169  0.77232 11.00000  0.24212   4.20
C00X  2  0.23685  0.50000  0.56990 11.00000  0.00231   4.17
C00Y  2  0.33236  0.50000  0.63367 10.50000  0.12821   4.17
C00Z  2  0.50000  0.88413  0.97625 10.50000  0.18097   4.16
N010  3  0.17258  0.50000  0.49992 10.50000  0.06058   4.14
C011  2  0.17731  0.50000 -0.05888 10.50000  0.04428   3.82
C012  2  0.50000  0.50000  0.87952 10.50000  0.06446   3.70
N013  3  0.57177  1.00000  0.29388 10.50000  0.00010   3.68
C014  2  0.50000  0.50000  0.32730 10.25000  0.13066   3.23
C015  2  0.36841  0.50000  0.36841 10.50000  0.10401   3.10
HKLF 4
END
