TITL temp02_expF_1_3_expS_1_1_temp02_b.res in Imm2
REM Old TITL I222 in Imm2 #44
REM SHELXT solution in Imm2: R1 0.758, Rweak 0.403, Alpha 0.111
REM <I/s>   0.000 for    0 systematic absences,  Orientation as input
REM Flack x = -9.990 ( 9.844 ) from   248 Parsons' quotients
REM Formula found by SHELXT:  C58 N16 O3

CELL  0.71073   9.1390  15.1100  30.4810   90.000   90.000   90.000
ZERR   51.000   0.0018   0.0030   0.0061    0.000    0.000    0.000
LATT -2
SYMM -X, -Y, Z
SYMM X, -Y, Z
SYMM -X, Y, Z
SFAC H C N O ZR
UNIT 51 51 51 51 51
L.S. 10
BOND
LIST 6
FMAP 2
PLAN 20
N001  3  1.35268  0.50000  0.74468 10.50000  0.02728   9.66
N002  3  1.50000  0.50000  0.73905 10.25000  0.00010   9.44
C003  2  1.50000  0.50000  0.70069 10.25000  0.00010   9.23
N004  3  1.00000  0.50000  0.68954 10.25000  0.03719   8.94
N005  3  1.08997  0.50000  0.81191 10.50000  0.01624   8.10
C006  2  0.57125  0.50000  0.41734 10.50000  0.07460   7.85
N007  3  0.70017  0.50000  0.41357 10.50000  0.13090   7.62
N008  3  1.00000  0.39897  0.82649 10.50000  0.00010   7.56
C009  2  0.82966  0.50000  0.42628 10.50000  0.00775   7.05
C00A  2  0.82787  0.50000  0.52500 10.50000  0.13052   6.23
O00B  4  0.50000  0.30967  0.47518 10.50000  0.01512   6.05
C00C  2  1.00000  0.50000  0.84758 10.25000  0.04809   5.97
N00D  3  1.50000  0.42621  0.69244 10.50000  0.01377   5.96
C00E  2  0.50000  0.50000  0.38467 10.25000  0.02789   5.85
C00F  2  1.08105  0.40272  0.81289 11.00000  0.05081   5.68
N00G  3  0.86153  0.50000  0.55188 10.50000  0.18966   5.52
C00H  2  1.00000  0.32289  0.83189 10.50000  0.00010   5.44
C00I  2  1.00000  0.50000  0.54026 10.25000  0.00215   5.22
C00J  2  1.00000  0.45543  0.62107 10.50000  0.00575   5.18
C00K  2  1.00000  0.43107  0.67414 10.50000  0.00010   5.14
O00L  4  0.50000  0.50000  0.25091 10.25000  0.01509   5.11
C00M  2  0.50000  0.50000  0.54313 10.25000  0.00010   5.02
C00N  2  0.63632  0.50000  0.52626 10.50000  0.01420   5.00
C00O  2  1.00000  0.50000  0.76290 10.25000  0.00124   4.90
C00P  2  0.50000  0.36207  0.49157 10.50000  0.00010   4.85
C00Q  2  1.29630  0.47172  0.68785 11.00000  0.01923   4.82
C00R  2  1.14061  0.50000  0.69493 11.00000  0.14261   4.72
C00S  2  1.00000  0.32716  0.48368 10.50000  0.09821   4.55
C00T  2  1.00000  0.50000  0.64500 10.25000  0.04932   4.54
C00U  2  1.00000  0.50000  0.32198 10.25000  0.02416   4.06
C00V  2  1.42746  0.50000  0.80598 10.50000  0.01121   4.04
C00W  2  0.07797  0.50000  0.15654 10.50000  0.02838   3.97
C00X  2  1.00000  0.21336  0.50526 10.50000  0.00010   3.80
C00Y  2  1.50000  0.56746  0.82565 10.50000  0.08797   3.77
C00Z  2  0.50000  0.27324  0.53658 10.50000  0.00010   3.66
N010  3  0.43130  0.50000  0.21860 10.50000  0.06169   3.41
C011  2  0.50000  0.50000  0.20680 10.25000  0.13052   3.39
C012  2  0.00000  0.37707  0.16435 10.50000  0.05212   3.33
C013  2  1.00000  0.50000  0.41355 10.25000  0.00010   3.29
C014  2  1.19891  0.44589  0.76428 11.00000  0.01425   3.17
C015  2  0.00000  0.44021  0.15242 10.50000  0.00138   3.04
HKLF 4
END
