TITL temp02_expF_1_1_expS_1_2_temp02_a.res in Imm2
REM Old TITL I222 in Imm2 #44
REM SHELXT solution in Imm2: R1 0.668, Rweak 0.151, Alpha 0.154
REM <I/s>   0.000 for    0 systematic absences,  Orientation as input
REM Flack x = -1.918 ( 1.099 ) from   257 Parsons' quotients
REM Formula found by SHELXT:  C71 N22 O10 Cl19

CELL  0.71073   9.1390  15.1100  30.4810   90.000   90.000   90.000
ZERR   51.000   0.0018   0.0030   0.0061    0.000    0.000    0.000
LATT -2
SYMM -X, -Y, Z
SYMM X, -Y, Z
SYMM -X, Y, Z
SFAC H C N O ZR CL
UNIT 51 51 51 51 51 0
L.S. 10
BOND
LIST 6
FMAP 2
PLAN 20
CL01  6  0.26664  0.50000  0.31124 10.50000  0.04320  18.48
CL02  6 -0.11796  0.46375  0.18706 11.00000  0.02751  16.98
C003  2  0.50000  0.57309  0.60170 10.50000  0.00010  16.60
O004  4  0.50000  0.34184  0.29119 10.50000  0.00623  15.84
CL05  6  0.14128  0.50000  0.30649 10.50000  0.06919  15.59
CL06  6 -0.30485  0.50000  0.19518 10.50000  0.04666  14.96
CL07  6  0.50000  0.50000  0.31791 10.25000  0.08751  14.86
CL08  6 -0.50000  0.52878  0.11362 10.50000  0.05251  14.80
CL09  6  0.00000  0.50000  0.18652 10.25000  0.09349  14.57
CL0A  6  0.50000  0.50000  0.46190 10.25000  0.07917  14.37
CL0B  6  0.93698  0.00000  0.44056 10.50000  0.11033  13.68
CL0C  6  0.82781  0.50000  0.51446 10.50000  0.04363  12.52
O00D  4  0.40895  0.50000  0.29787 10.50000  0.00671  11.17
O00E  4  0.50000  0.64713  0.59166 10.50000  0.06310  10.95
N00F  3  0.00000  0.36024  0.25409 10.50000  0.00010   9.87
N00G  3 -0.58959  0.50000  0.12189 10.50000  0.00328   8.04
O00H  4  1.00000  0.36768  0.43045 10.50000  0.00604   7.48
C00I  2  0.00000  0.43362  0.22999 10.50000  0.00010   7.16
C00J  2  0.50000  0.41546  0.24269 10.50000  0.00010   7.10
N00K  3  0.83806  0.00000  0.46822 10.50000  0.00010   7.02
N00L  3  0.50000  0.50000  0.38951 10.25000  0.02382   6.91
C00M  2  0.22039  0.50000  0.26763 10.50000  0.00010   6.86
N00N  3  0.00000  0.38356  0.22136 10.50000  0.00010   6.59
C00O  2  0.60209  0.54983  0.46578 11.00000  0.01464   6.31
C00P  2  0.72885  0.54772  0.47029 11.00000  0.00385   6.30
C00Q  2  0.00000  0.50000  0.31370 10.25000  0.13856   6.26
C00R  2  1.00000  0.15514  0.41564 10.50000  0.00010   6.22
C00S  2 -0.50000  0.50000  0.17827 10.25000  0.00010   6.19
C00T  2  0.00000  0.39652  0.30776 10.50000  0.00010   5.95
O00U  4  0.20835  0.50000  0.61417 10.50000  0.00243   5.81
N00V  3  0.04904  0.50000  0.88638 10.50000  0.00010   5.56
C00W  2  0.84640  0.74602  0.53596 11.00000  0.05179   5.25
C00X  2  0.94228  0.00000  0.37407 10.50000  0.00010   5.23
C00Y  2  1.00000  0.41156  0.46525 10.50000  0.00010   5.10
C00Z  2  0.37399  0.50000  0.61910 10.50000  0.02976   4.93
N010  3  0.17986  0.43820  0.26067 11.00000  0.00010   4.91
C011  2  0.08810  0.50000  0.72263 10.50000  0.01044   4.85
C012  2  0.50000  0.79276  0.53740 10.50000  0.07654   4.78
C013  2  0.63477  0.87555  0.52978 11.00000  0.00010   4.74
C014  2  0.00000  0.45955  0.69902 10.50000  0.00294   4.27
C015  2  0.50000  0.74447  0.45560 10.50000  0.05053   4.25
C016  2  0.50000  0.67639  0.43312 10.50000  0.00010   4.11
C017  2  1.22408  0.28403  0.43501 11.00000  0.00010   3.96
C018  2  1.00000  0.21842  0.41893 10.50000  0.00199   3.94
C019  2  0.50000  0.88900  0.53153 10.50000  0.00010   3.86
C01A  2  0.62399  0.81930  0.51934 11.00000  0.04142   3.84
N01B  3  1.00000  0.00000  0.26117 10.25000  0.07239   3.69
N01C  3  0.69184  0.70059  0.66317 11.00000  0.00010   3.66
C01D  2  1.00000  0.11646  0.39097 10.50000  0.10338   3.63
C01E  2  0.00000  0.50000  0.82872 10.25000  0.05439   3.62
C01F  2  0.50000  0.78343  0.41097 10.50000  0.00037   3.53
N01G  3  1.00000  0.64745  0.56279 10.50000  0.00010   3.47
C01H  2  0.07215  0.42152  0.72236 11.00000  0.00641   3.42
C01I  2  0.67646  0.84895  0.53361 11.00000  0.00010   3.03
HKLF 4
END
