TITL temp02_expF_1_3_expS_1_1_temp02_a.res in Imm2
REM Old TITL I222 in Imm2 #44
REM SHELXT solution in Imm2: R1 0.748, Rweak 0.260, Alpha 0.247
REM <I/s>   0.000 for    0 systematic absences,  Orientation a'=c, b'=a, c'=b
REM Flack x = -9.990 ( 9.990 ) from   234 Parsons' quotients
REM Formula found by SHELXT:  C30 N18 O

CELL  0.71073  30.4810   9.1390  15.1100   90.000   90.000   90.000
ZERR   51.000   0.0061   0.0018   0.0030    0.000    0.000    0.000
LATT -2
SYMM -X, -Y, Z
SYMM X, -Y, Z
SYMM -X, Y, Z
SFAC H C N O ZR
UNIT 51 51 51 51 51
L.S. 10
BOND
LIST 6
FMAP 2
PLAN 20
N001  3  0.92783  0.50000  0.43766 10.50000  0.00010  12.85
N002  3  1.00000  0.86872  0.51146 10.50000  0.01701  12.47
N003  3  0.92948  0.50000  0.50285 10.50000  0.00010  12.29
N004  3  1.00000  0.82238  0.57543 10.50000  0.01148  11.50
N005  3  0.93454  1.00000  0.45070 10.50000  0.00514  10.97
N006  3  0.94425  0.60482  0.45705 11.00000  0.04421  10.53
N007  3  0.95881  1.00000  0.49438 10.50000  0.00010  10.45
N008  3  1.00000  1.00000  0.52805 10.25000  0.02539  10.10
N009  3  0.96482  0.84515  0.50583 11.00000  0.06774   8.37
N00A  3  0.50000  0.00000  0.49309 10.25000  0.04194   8.12
N00B  3  0.97751  1.00000  0.43479 10.50000  0.00010   7.92
N00C  3  1.00000  0.71575  0.59496 10.50000  0.00954   7.11
C00D  2  0.90637  0.50000  0.47691 10.50000  0.01236   6.76
N00E  3  0.93979  0.77784  0.54019 11.00000  0.02170   6.58
C00F  2  0.93224  0.73396  0.48431 11.00000  0.02489   6.10
C00G  2  0.78263  0.00000  0.29938 10.50000  0.02332   6.06
C00H  2  0.78598  0.50000  0.53482 10.50000  0.01818   5.98
N00I  3  0.74128  0.00000  0.70062 10.50000  0.11968   5.97
C00J  2  0.76149  0.00000  0.36376 10.50000  0.02995   5.95
C00K  2  0.66079  0.24113  0.48197 11.00000  0.00828   5.63
C00L  2  0.66909  0.14844  0.51600 11.00000  0.00192   5.63
C00M  2  0.86190  0.50000  0.46337 10.50000  0.00542   5.50
O00N  4  0.92061  0.50000  0.69048 10.50000  0.04043   5.23
C00O  2  0.73674  0.00000  0.29996 10.50000  0.01777   5.10
C00P  2  0.93390  0.50000  0.63285 10.50000  0.00169   5.01
C00Q  2  0.50000  0.08578  0.45820 10.50000  0.01120   4.93
C00R  2  0.86254  0.50000  0.54620 10.50000  0.00209   4.84
C00S  2  0.57908  0.50000  0.62108 10.50000  0.01506   4.75
C00T  2  0.76463  0.00000  0.44415 10.50000  0.00010   4.74
N00U  3  0.58753  0.50000  0.52592 10.50000  0.00010   4.60
N00V  3  1.00000  0.83563  0.30825 10.50000  0.01869   4.51
C00W  2  0.50000  0.16540  0.54295 10.50000  0.07000   4.47
C00X  2  0.67486  0.30411  0.53109 11.00000  0.00157   4.40
C00Y  2  0.72174  0.50000  0.47145 10.50000  0.01283   3.62
C00Z  2  0.60070  0.50000  0.45982 10.50000  0.00010   3.58
C010  2  0.81170  0.11605  0.54310 11.00000  0.01851   3.38
C011  2  0.65157  0.00000  0.54072 10.50000  0.04693   3.35
C012  2  0.79757  0.00000  0.48566 10.50000  0.00010   3.29
C013  2  0.64858  0.38982  0.48250 11.00000  0.01818   3.16
C014  2  0.65622  0.40121  0.55941 11.00000  0.06597   3.09
HKLF 4
END
