TITL temp02_expF_1_2_expS_0_6_temp02_a.res in Imm2
REM Old TITL I222 in Imm2 #44
REM SHELXT solution in Imm2: R1 0.941, Rweak 0.158, Alpha 0.112
REM <I/s>   0.000 for    0 systematic absences,  Orientation as input
REM Flack x = -9.655 ( 0.590 ) from   420 Parsons' quotients
REM Formula found by SHELXT:  C76 N33 O14 Cl16

CELL  0.71073   9.1390  15.1100  30.4810   90.000   90.000   90.000
ZERR   51.000   0.0018   0.0030   0.0061    0.000    0.000    0.000
LATT -2
SYMM -X, -Y, Z
SYMM X, -Y, Z
SYMM -X, Y, Z
SFAC H C N O ZR CL
UNIT 51 51 51 51 51 0
L.S. 10
BOND
LIST 6
FMAP 2
PLAN 20
CL01  6  0.87673  0.50000  0.39163 10.50000  0.16687  22.73
CL02  6  0.96575  0.50000  0.36528 10.50000  0.05204  22.21
CL03  6  1.00000  0.50000  0.39283 10.25000  0.00393  19.54
CL04  6  0.61911  0.50000  0.36752 10.50000  0.00010  15.34
CL05  6  0.23991  0.50000  0.06578 10.50000  0.07947  15.16
CL06  6  0.32866  0.50000  0.25958 10.50000  0.06024  13.75
CL07  6  1.37327  0.50000  0.82863 10.50000  0.19948  13.08
CL08  6  0.50000  0.50000  0.31797 10.25000  0.00010  12.94
CL09  6  1.00000  0.80802  0.62226 10.50000  0.04932  12.65
N00A  3  0.00000  0.50000  0.26327 10.50000  0.24624  11.96
O00B  4  0.50000  0.42077  0.31388 10.50000  0.06189  11.72
N00C  3  0.50000  0.50000  0.44438 10.25000  0.02773  11.71
N00D  3  1.50000  0.50000  0.86033 10.25000  0.16871  11.46
N00E  3  0.50000  0.41385  0.27586 10.50000  0.05160  10.39
O00F  4  0.50000  0.38013  0.31285 11.00000  0.00462  10.16
C00G  2  1.50000  0.50000  0.99710 10.50000  0.00450   8.81
N00H  3  0.00000  0.50000  0.25488 10.50000  0.23190   8.75
O00I  4  1.00000  0.50000  0.50111 10.50000  0.24433   8.68
N00J  3  1.00000  0.61157  0.79560 10.50000  0.11230   8.20
N00K  3  1.50000  0.50000  0.70104 10.50000  0.03884   8.16
C00L  2  0.50000  0.50000  0.20559 10.25000  0.20820   7.78
N00M  3  1.50000  0.46626  0.79717 11.00000  0.00401   7.52
N00N  3  0.00000  0.35008  0.18117 10.50000  0.00010   7.42
N00O  3  1.19954  0.50000  0.73384 10.50000  0.19802   7.29
N00P  3  0.44577  0.50000  0.22830 10.50000  0.14758   6.85
N00Q  3  1.00000  0.50000  0.57362 10.50000  0.18880   6.77
N00R  3  1.00000  0.50000  0.69654 10.25000  0.17311   6.74
N00S  3  1.50000  0.50000  0.93684 10.50000  0.15487   6.73
N00T  3  0.50000  0.50000  0.44384 10.50000  0.00259   6.49
C00U  2  0.75329  0.50000  0.38414 11.00000  0.02062   6.37
C00V  2  0.00000  0.34890  0.11382 11.00000  0.01771   6.36
C00W  2  0.55964  0.50000  0.52811 11.00000  0.05559   6.22
C00X  2  0.13662  0.50000  0.08075 10.50000  0.05183   5.95
C00Y  2  1.50000  0.68375  0.97216 10.50000  0.16045   5.88
C00Z  2  0.00000  0.50000  0.13549 10.50000  0.15666   5.87
N010  3  1.50000  0.53725  0.95494 10.50000  0.08684   5.77
C011  2  1.00000  0.50000  0.46102 10.50000  0.11682   5.62
C012  2  0.19156  0.50000  0.18753 11.00000  0.14080   5.39
C013  2  0.50000  0.50000  0.45771 10.25000  0.10793   5.39
C014  2  1.13437  0.50000  0.85766 10.50000  0.01458   5.33
C015  2  1.00000  0.50000  0.73365 10.25000  0.20958   4.96
C016  2  1.00000  0.50000  0.41333 10.50000  0.00010   4.94
C017  2  1.00000  0.50000  0.71553 10.25000  0.17301   4.88
C018  2  0.83750  0.50000  0.45265 10.50000  0.09119   4.79
C019  2  1.00000  0.86200  0.57345 10.50000  0.15416   4.57
C01A  2  1.50000  0.50000  0.84781 10.25000  0.18535   4.48
N01B  3  0.50000  0.50000  0.17042 10.50000  0.29412   4.36
C01C  2  0.00000  0.50000  0.14383 10.25000  0.10984   4.31
C01D  2  0.50000  0.50000  0.36207 10.50000  0.03180   4.30
C01E  2  1.50000  0.69306  0.92750 10.50000  0.17903   3.99
C01F  2  0.89955  0.83584  0.58455 11.00000  0.15268   3.98
C01G  2  0.15328  0.50000  0.13183 11.00000  0.19750   3.98
C01H  2  0.13683  0.50000  0.00290 10.50000  0.19328   3.93
C01I  2  1.00000  0.33337  0.89791 10.50000  0.17420   3.92
C01J  2  1.05130  0.50000  0.90098 10.50000  0.13168   3.88
C01K  2  1.07462  0.50000  0.89646 10.50000  0.17452   3.66
O01L  4  0.87840  0.59000  0.39833 11.00000  0.23496   3.59
C01M  2  1.22224  0.59619  0.56305 11.00000  0.18438   3.46
C01N  2  1.00000  0.50000  0.81467 10.50000  0.15639   3.27
C01O  2  1.09521  0.70836  0.61415 11.00000  0.00740   3.25
C01P  2  1.00000  0.21935  0.97603 10.50000  0.09921   3.24
O01Q  4  1.00000  0.61208  0.73960 10.50000  0.20131   3.23
C01R  2  1.13389  0.56372  0.62963 11.00000  0.17859   3.04
HKLF 4
END
