TITL temp02_expF_0_8_expS_1_4_temp02_a.res in Imm2
REM Old TITL I222 in Imm2 #44
REM SHELXT solution in Imm2: R1 0.668, Rweak 0.279, Alpha 0.218
REM <I/s>   0.000 for    0 systematic absences,  Orientation as input
REM Flack x = -2.448 ( 1.313 ) from   109 Parsons' quotients
REM Formula found by SHELXT:  C99 N52 O35 Zr14

CELL  0.71073   9.1390  15.1100  30.4810   90.000   90.000   90.000
ZERR   51.000   0.0018   0.0030   0.0061    0.000    0.000    0.000
LATT -2
SYMM -X, -Y, Z
SYMM X, -Y, Z
SYMM -X, Y, Z
SFAC H C N O ZR
UNIT 51 51 51 51 51
L.S. 10
BOND
LIST 6
FMAP 2
PLAN 20
ZR01  5  0.50000  0.00000  0.37175 10.25000  0.02917  33.21
ZR02  5  0.09424  0.46152  0.69449 11.00000  0.08303  32.14
ZR03  5  0.00000  0.50000  0.68596 10.25000  0.05353  30.45
ZR04  5  0.50000  0.35197  0.61433 10.50000  0.02258  26.92
ZR05  5  0.39065  0.50000  0.56771 10.50000  0.03443  25.70
ZR06  5  0.00000  0.00000  0.60303 10.25000  0.00426  25.27
ZR07  5  0.30752  0.50000  0.67981 10.50000  0.00575  24.71
ZR08  5  0.50000  0.50000  0.57234 10.25000  0.04702  24.67
O009  4  0.00000  0.50000  0.58892 10.50000  0.03148  18.60
O00A  4  0.50000  0.00000  0.33969 10.25000  0.00010  18.58
N00B  3  0.14093  0.39232  0.60499 11.00000  0.00010  18.25
N00C  3  0.50000  0.03575  0.49616 10.50000  0.01525  16.98
N00D  3  0.50000  0.08821  0.40223 10.50000  0.11348  16.78
O00E  4  0.00000  0.00000  0.53410 10.25000  0.18397  15.58
O00F  4  0.50000  0.02252  0.68622 10.50000  0.00132  15.19
O00G  4  0.00000  0.31792  0.50551 10.50000  0.15268  15.15
O00H  4  0.50000  0.30868  0.32563 10.50000  0.00010  14.92
O00I  4  0.00000  0.00000  0.64228 10.25000  0.01547  14.35
O00J  4  0.50000  0.00000  0.58341 10.25000  0.11638  13.31
O00K  4  0.00000  0.30104  0.66051 10.50000  0.00010  13.31
N00L  3  0.50000  0.28370  0.42955 10.50000  0.02297  12.68
N00M  3  0.50000  0.50000  0.74591 10.25000  0.00010  12.53
N00N  3  0.50000  0.29198  0.36184 10.50000  0.00010  12.08
O00O  4  0.50000  0.26344  0.66209 10.50000  0.00010  11.61
O00P  4  0.29512  0.34661  0.64881 11.00000  0.00280  11.36
O00Q  4  0.00000  0.43127  0.74719 10.50000  0.00010  11.32
O00R  4  0.24318  0.50000  0.24410 10.50000  0.00010  11.03
N00S  3  0.28241  0.50000  0.59425 10.50000  0.00431  10.77
O00T  4  0.00000  0.39266  0.33436 10.50000  0.00010  10.37
O00U  4  0.13941  0.50000  0.76172 10.50000  0.00123   9.86
N00V  3  0.31010  0.43451  0.61457 11.00000  0.00010   9.69
C00W  2  0.00000  0.11628  0.50483 10.50000  0.09767   9.45
N00X  3  0.50000  0.50000  0.70704 10.50000  0.06045   9.16
N00Y  3  0.18963  0.41322  0.58284 11.00000  0.00010   9.09
N00Z  3  0.50000  0.09223  0.46213 10.50000  0.00010   8.88
O010  4  0.50000  0.50000  0.41738 10.25000  0.00375   8.65
N011  3  0.00000  0.18431  0.44231 10.50000  0.10564   8.22
N012  3  0.50000  0.00000  0.44423 10.25000  0.02884   7.96
N013  3  0.50000  0.12482  0.55013 10.50000  0.00010   7.96
N014  3  0.28380  0.50000  0.34031 10.50000  0.10338   7.79
O015  4  0.23760  0.25547  0.50093 11.00000  0.00554   7.71
O016  4  0.50000  0.30415  0.59842 10.50000  0.00010   7.61
N017  3  0.17867  0.44685  0.28032 11.00000  0.00065   7.60
N018  3  0.25316  0.32149  0.23828 11.00000  0.00010   7.57
N019  3  0.00000  0.04421  0.37909 10.50000  0.09001   7.48
N01A  3  0.23696  0.21334  0.47186 11.00000  0.00010   7.37
N01B  3  0.50000  0.29682  0.46146 10.50000  0.00010   6.56
C01C  2  0.25175  0.50000  0.32148 10.50000  0.00010   6.30
C01D  2  0.50000  0.19738  0.69858 10.50000  0.00010   5.95
C01E  2  0.36911  0.27226  0.37066 11.00000  0.00010   5.63
C01F  2  0.36497  0.34946  0.34854 11.00000  0.00010   5.61
C01G  2  0.50000  0.19736  0.38153 10.50000  0.00010   5.39
C01H  2  0.00000  0.36253  0.44083 10.50000  0.13392   5.31
N01I  3  0.00000  0.30894  0.54956 10.50000  0.00010   5.31
C01J  2  0.30732  0.50000  0.64482 10.50000  0.00010   5.25
C01K  2  0.27711  0.35590  0.26426 11.00000  0.00010   5.24
C01L  2  0.00000  0.26885  0.34470 10.50000  0.00010   5.06
C01M  2  0.00000  0.44693  0.33395 10.50000  0.04075   4.97
C01N  2  0.36187  0.20876  0.48159 11.00000  0.07919   4.78
C01O  2  0.00000  0.21578  0.37531 10.50000  0.00010   4.77
C01P  2  0.50000  0.50000  0.31359 10.50000  0.03958   4.72
C01Q  2  0.00000  0.50000  0.46457 10.25000  0.00010   4.69
C01R  2  0.15625  0.32933  0.27949 11.00000  0.00010   4.58
C01S  2  0.50000  0.53491  0.66867 11.00000  0.00010   4.54
C01T  2  0.22365  0.50000  0.46442 10.50000  0.00010   4.43
C01U  2  0.21110  0.42906  0.43420 11.00000  0.03578   4.18
C01V  2  0.00000  0.13958  0.56002 11.00000  0.00756   3.97
C01W  2  0.50000  0.34050  0.45686 10.50000  0.00010   3.96
C01X  2  0.50000  0.50000  0.24038 10.25000  0.11470   3.87
C01Y  2  0.50000  0.40080  0.31154 11.00000  0.02573   3.78
C01Z  2  0.71637  0.00000  0.62339 11.00000  0.06603   3.56
C020  2  0.20861  0.50000  0.53905 10.50000  0.00010   3.55
C021  2  0.27279  0.34171  0.32019 11.00000  0.03877   3.54
C022  2  0.10718  0.18846  0.40461 11.00000  0.00010   3.46
C023  2  0.25673  0.17878  0.44780 11.00000  0.00010   3.32
C024  2  0.00000  0.00000  0.45920 10.25000  0.16569   3.32
C025  2  0.00000  0.04583  0.34783 11.00000  0.08268   3.28
C026  2  0.25184  0.33091  0.55917 11.00000  0.00299   3.26
C027  2  0.57309  0.15821  0.54605 11.00000  0.00010   3.20
C028  2  0.00000  0.37779  0.74412 10.50000  0.05189   3.13
C029  2  0.66727  0.05305  0.61453 11.00000  0.01652   3.10
HKLF 4
END
