TITL temp02_expF_1_4_expS_1_4_temp02_b.res in Imm2
REM Old TITL I222 in Imm2 #44
REM SHELXT solution in Imm2: R1 0.802, Rweak 0.530, Alpha 0.251
REM <I/s>   0.000 for    0 systematic absences,  Orientation a'=b, b'=c, c'=a
REM Flack x = -9.990 ( 9.990 ) from   160 Parsons' quotients
REM Formula found by SHELXT:  C51 N38 O10

CELL  0.71073  15.1100  30.4810   9.1390   90.000   90.000   90.000
ZERR   51.000   0.0030   0.0061   0.0018    0.000    0.000    0.000
LATT -2
SYMM -X, -Y, Z
SYMM X, -Y, Z
SYMM -X, Y, Z
SFAC H C N O ZR
UNIT 51 51 51 51 51
L.S. 10
BOND
LIST 6
FMAP 2
PLAN 20
N001  3  0.50000  0.50000  0.17991 10.25000  0.09898  13.94
N002  3  0.54542  0.43299  0.62819 11.00000  0.02187  11.23
N003  3  0.50000  0.43041  0.57346 10.50000  0.02006  10.58
N004  3  0.47079  0.50000  0.09931 10.50000  0.03027  10.12
O005  4  0.50000  0.50000  0.01040 10.25000  0.15035  10.12
O006  4  0.50000  0.50000  0.56010 10.25000  0.05570   9.78
N007  3  0.50000  0.50000  0.29224 10.25000  0.02868   9.74
C008  2  0.50000  0.17663  0.32373 10.50000  0.00647   9.34
N009  3  0.50000  0.44403  0.12552 10.50000  0.04384   8.57
C00A  2  0.50000  0.45575  0.03213 10.50000  0.06082   8.35
N00B  3  0.50000  0.44519  0.87562 10.50000  0.03383   7.93
N00C  3  0.53699  0.42768  0.21709 11.00000  0.01917   7.85
N00D  3  0.50000  0.16285  0.92876 10.50000  0.02375   7.14
N00E  3  0.50000  0.45336  0.32135 10.50000  0.00010   6.63
N00F  3  0.50000  0.16303  0.47169 10.50000  0.00010   6.53
C00G  2  0.53200  0.43987  0.76221 11.00000  0.00176   6.42
C00H  2  0.50000  0.43161  0.41676 10.50000  0.00010   6.37
C00I  2  0.64327  0.42716  0.79874 11.00000  0.05833   6.29
C00J  2  0.50000  0.46869  0.17273 10.50000  0.03897   6.10
C00K  2  0.50000  0.26245  0.65350 10.50000  0.00010   5.65
C00L  2  0.50000  0.14536  0.85313 10.50000  0.00010   5.51
C00M  2  0.50000  0.27420  0.80131 10.50000  0.02617   5.47
C00N  2  0.27157  0.25309  0.14532 11.00000  0.00109   5.40
C00O  2  0.50000  0.30932  0.22738 10.50000  0.01448   5.26
C00P  2  0.50000  0.16726  0.24306 10.50000  0.00010   5.09
C00Q  2  0.50000  0.30233  0.98960 10.50000  0.02349   5.02
N00R  3  0.58740  0.08847  0.67791 11.00000  0.10335   4.95
C00S  2  0.50000  0.38182  0.61315 10.50000  0.04364   4.81
O00T  4  0.36143  0.23549  0.16017 11.00000  0.03285   4.72
C00U  2  0.50000  0.28176  0.54440 10.50000  0.09235   4.71
C00V  2  0.50000  0.01501  0.06032 10.50000  0.02666   4.53
C00W  2  0.50000  0.00000  0.28130 10.25000  0.01874   4.40
N00X  3  0.50000  0.29396  0.34850 10.50000  0.03171   4.38
C00Y  2  0.55534  0.43222  0.33734 11.00000  0.04070   4.26
C00Z  2  0.23213  0.27671  0.15216 11.00000  0.03766   4.12
O010  4  0.17007  0.27499  0.06135 11.00000  0.03783   4.07
N011  3  0.63934  0.10681  0.67374 11.00000  0.05610   3.96
C012  2  0.50000  0.08814  0.62162 10.50000  0.00010   3.76
N013  3  0.45205  0.29003  0.28270 11.00000  0.04188   3.66
C014  2  0.50000  0.03170  0.25378 10.50000  0.00188   3.60
HKLF 4
END
