TITL temp02_expF_1_4_expS_1_5_temp02_b.res in Imm2
REM Old TITL I222 in Imm2 #44
REM SHELXT solution in Imm2: R1 0.809, Rweak 0.455, Alpha 0.179
REM <I/s>   0.000 for    0 systematic absences,  Orientation a'=c, b'=a, c'=b
REM Flack x = -3.841 ( 1.316 ) from    97 Parsons' quotients
REM Formula found by SHELXT:  C52 N33 O21 Zr2

CELL  0.71073  30.4810   9.1390  15.1100   90.000   90.000   90.000
ZERR   51.000   0.0061   0.0018   0.0030    0.000    0.000    0.000
LATT -2
SYMM -X, -Y, Z
SYMM X, -Y, Z
SYMM -X, Y, Z
SFAC H C N O ZR
UNIT 51 51 51 51 51
L.S. 10
BOND
LIST 6
FMAP 2
PLAN 20
ZR01  5  1.00000  0.87902  0.60943 10.50000  0.11969  25.60
O002  4  1.00000  0.73016  0.63668 10.50000  0.01373  22.51
O003  4  1.00000  1.00000  0.58559 10.25000  0.06367  21.90
N004  3  0.88035  0.50000  0.58180 10.50000  0.02799  11.06
O005  4  0.58868  0.50000  0.63268 10.50000  0.07013  10.84
N006  3  0.92524  0.50000  0.64881 10.50000  0.00010  10.48
O007  4  0.94037  1.00000  0.50521 10.50000  0.01910  10.33
N008  3  0.96234  0.50000  0.61815 10.50000  0.08363  10.21
O009  4  0.76392  0.00000  0.32632 10.50000  0.01194   9.13
C00A  2  0.89666  0.50000  0.44382 10.50000  0.00010   9.10
O00B  4  0.73276  0.00000  0.74856 10.50000  0.08172   8.91
N00C  3  0.87636  0.35064  0.59404 11.00000  0.09888   8.31
N00D  3  0.73635  0.00000  0.39882 10.50000  0.00132   8.23
O00E  4  0.78583  0.00000  0.39438 10.50000  0.02129   8.18
O00F  4  0.87758  0.21238  0.61592 11.00000  0.06344   8.05
N00G  3  1.00000  0.50000  0.59613 10.25000  0.01845   7.58
N00H  3  0.72854  0.00000  0.48565 10.50000  0.00010   7.57
N00I  3  0.68088  0.27118  0.59049 11.00000  0.05986   7.50
C00J  2  0.96665  0.50000  0.66388 10.50000  0.18318   7.37
N00K  3  0.66616  0.17373  0.58696 11.00000  0.09516   7.35
N00L  3  0.56305  0.50000  0.30940 10.50000  0.01516   6.80
N00M  3  0.68162  0.50000  0.61231 10.50000  0.14930   6.79
C00N  2  0.57668  0.50000  0.74454 10.50000  0.00010   6.73
C00O  2  0.74045  0.50000  0.63817 10.50000  0.00010   6.72
N00P  3  0.58514  0.50000  0.53052 10.50000  0.03788   6.58
C00Q  2  0.92977  0.44944  0.59601 11.00000  0.03433   6.27
C00R  2  0.74418  0.00000  0.67232 10.50000  0.00010   6.14
C00S  2  0.91607  0.50000  0.80738 10.50000  0.01000   5.88
C00T  2  0.98038  0.50000  0.59768 10.50000  0.00010   5.71
C00U  2  0.71101  0.18361  0.58562 11.00000  0.04243   5.28
C00V  2  0.97738  0.50000  0.12319 10.50000  0.00010   4.76
C00W  2  0.67824  0.00000  0.60262 10.50000  0.00010   4.39
C00X  2  0.71927  0.33477  0.61391 11.00000  0.04845   4.39
C00Y  2  0.85966  0.00000  0.57160 10.50000  0.06021   4.35
C00Z  2  0.73910  0.41201  0.51817 11.00000  0.02155   4.20
C010  2  0.70621  0.00000  0.57433 10.50000  0.01393   3.99
C011  2  0.72342  0.19799  0.50255 11.00000  0.03926   3.95
C012  2  0.73411  0.35105  0.72210 11.00000  0.01398   3.61
C013  2  0.80221  0.50000  0.59799 10.50000  0.02971   3.59
O014  4  0.88788  0.50000  0.36930 10.50000  0.01090   3.37
N015  3  0.71452  0.00000  0.62996 10.50000  0.04916   3.37
N016  3  0.50000  0.31646  0.87681 10.50000  0.05277   3.30
O017  4  0.55652  0.50000  0.77890 10.50000  0.01047   3.30
C018  2  0.74521  0.27618  0.58184 11.00000  0.01392   3.19
HKLF 4
END
