TITL temp02_expF_1_3_expS_1_4_temp02_a.res in Imm2
REM Old TITL I222 in Imm2 #44
REM SHELXT solution in Imm2: R1 0.746, Rweak 0.570, Alpha 0.097
REM <I/s>   0.000 for    0 systematic absences,  Orientation as input
REM Flack x = -9.990 ( 9.990 ) from   169 Parsons' quotients
REM Formula found by SHELXT:  C38 N35 O18

CELL  0.71073   9.1390  15.1100  30.4810   90.000   90.000   90.000
ZERR   51.000   0.0018   0.0030   0.0061    0.000    0.000    0.000
LATT -2
SYMM -X, -Y, Z
SYMM X, -Y, Z
SYMM -X, Y, Z
SFAC H C N O ZR
UNIT 51 51 51 51 51
L.S. 10
BOND
LIST 6
FMAP 2
PLAN 20
N001  3  0.63083  0.50000  0.59893 10.50000  0.00010  11.70
N002  3  1.00000  1.00000  0.62823 10.25000  0.00901  11.46
O003  4  0.50000  0.65424  0.64491 10.50000  0.06209  10.48
N004  3  0.00000  0.50000  0.72659 10.25000  0.00596  10.35
N005  3  0.74651  0.50000  0.60850 10.50000  0.00010  10.03
O006  4  0.19009  0.50000  0.40063 10.50000  0.01111   9.61
O007  4  0.37208  0.50000  0.39523 10.50000  0.10191   8.94
N008  3  0.00000  0.38103  0.66038 10.50000  0.00010   8.92
N009  3  0.12103  0.47028  0.72273 11.00000  0.00010   8.75
N00A  3  0.00000  0.50000  0.37027 10.25000  0.13344   8.36
N00B  3  0.33791  0.50000  0.72397 10.50000  0.00010   8.12
O00C  4  0.50000  0.58674  0.66835 10.50000  0.05243   7.82
C00D  2  0.50000  0.50000  0.61152 10.25000  0.06862   7.40
N00E  3  0.00000  0.44598  0.67397 10.50000  0.05773   7.38
N00F  3  1.00000  0.91225  0.61948 10.50000  0.00149   7.29
C00G  2  0.18033  0.50000  0.73863 10.50000  0.05708   7.09
C00H  2  0.87241  0.50000  0.55917 10.50000  0.02805   7.06
C00I  2  0.73839  0.50000  0.57781 10.50000  0.00010   7.03
C00J  2  0.00000  0.50000  0.69020 10.50000  0.02802   7.02
N00K  3  0.65595  0.50000  0.53675 10.50000  0.00326   6.91
N00L  3  0.00000  0.50000  0.40558 10.25000  0.03038   6.79
N00M  3  1.34553  1.00000  0.52480 10.50000  0.12414   6.51
C00N  2 -0.10118  0.43613  0.67152 11.00000  0.00253   6.38
C00O  2 -0.13870  0.36398  0.65500 11.00000  0.02143   6.02
C00P  2  0.50000  0.50000  0.36176 10.25000  0.01781   5.99
C00Q  2  0.70594  0.50000  0.53047 10.50000  0.02182   5.91
C00R  2  1.15214  1.00000  0.62724 10.50000  0.00663   5.88
N00S  3  1.00000  1.00000  0.48898 10.25000  0.00010   5.66
O00T  4  0.50000  0.36792  0.33404 10.50000  0.04141   5.65
C00U  2  1.50000  1.08169  0.51684 10.50000  0.00641   5.60
C00V  2  0.50000  0.59424  0.63902 10.50000  0.04361   5.02
C00W  2  1.50000  1.00000  0.47372 10.25000  0.00010   4.93
C00X  2  0.50000  0.50000  0.51984 10.25000  0.05181   4.92
O00Y  4  0.00000  0.23678  0.30351 10.50000  0.02117   4.70
C00Z  2  0.00000  0.17490  0.33410 10.50000  0.01215   4.42
N010  3 -0.13983  0.50000  0.68089 10.50000  0.02655   4.35
O011  4  0.34833  0.50000  0.28094 10.50000  0.00186   4.30
C012  2  0.50000  0.29367  0.32902 10.50000  0.00010   4.27
C013  2  0.50000  0.50000  0.46198 10.25000  0.00010   3.86
O014  4  0.19661  0.46334  0.26137 11.00000  0.03166   3.82
C015  2  1.00000  0.50000  0.49757 10.25000  0.02644   3.61
C016  2  0.00000  0.38018  0.35321 10.50000  0.02692   3.60
N017  3 -0.18164  0.39071  0.67405 11.00000  0.07240   3.54
C018  2  0.32145  0.50000  0.68655 10.50000  0.01463   3.42
N019  3  0.20921  0.50000  0.28302 10.50000  0.00010   3.37
N01A  3  1.00000  0.72605  0.50896 10.50000  0.00010   3.03
HKLF 4
END
