TITL temp02_expF_1_5_expS_1_1_temp02_a.res in Imm2
REM Old TITL I222 in Imm2 #44
REM SHELXT solution in Imm2: R1 0.817, Rweak 0.177, Alpha 0.056
REM <I/s>   0.000 for    0 systematic absences,  Orientation as input
REM Flack x = -7.270 ( 3.693 ) from   225 Parsons' quotients
REM Formula found by SHELXT:  C60 N59 O4 Zr2

CELL  0.71073   9.1390  15.1100  30.4810   90.000   90.000   90.000
ZERR   51.000   0.0018   0.0030   0.0061    0.000    0.000    0.000
LATT -2
SYMM -X, -Y, Z
SYMM X, -Y, Z
SYMM -X, Y, Z
SFAC H C N O ZR
UNIT 51 51 51 51 51
L.S. 10
BOND
LIST 6
FMAP 2
PLAN 20
ZR01  5  0.70854  0.50000  0.85141 10.50000  0.14052  25.11
N002  3  1.00000  0.50000  0.73781 10.25000  0.04516  21.08
N003  3  0.61093  0.50000  0.82099 10.50000  0.07184  19.70
N004  3  0.89217  0.53361  0.72581 11.00000  0.04284  19.20
N005  3  0.83051  0.50000  0.85226 10.50000  0.05588  18.24
N006  3  0.80026  0.50000  0.74082 10.50000  0.04903  15.05
N007  3  0.50000  0.46068  0.84186 10.50000  0.01739  15.05
N008  3  0.00000  0.89732  0.64757 10.50000  0.05241  14.17
O009  4  0.68881  0.50000  0.73045 10.50000  0.06721  14.05
N00A  3  0.50000  0.34979  0.80621 10.50000  0.01896  13.90
N00B  3  0.00000  1.00000  0.64576 10.25000  0.00010  13.45
N00C  3  0.26541  0.50000  0.57729 10.50000  0.12099  12.81
N00D  3  0.50000  0.41916  0.82265 10.50000  0.10695  11.75
N00E  3  0.00000  0.46135  0.26543 10.50000  0.03478  11.66
N00F  3  1.00000  0.52982  0.85413 10.50000  0.02623  10.91
N00G  3  0.33116  0.50000  0.55009 10.50000  0.02991  10.70
N00H  3 -0.12035  1.00000  0.62307 10.50000  0.06604  10.15
N00I  3  0.27345  0.50000  0.52337 10.50000  0.04564  10.12
N00J  3  0.11584  0.50000  0.57133 10.50000  0.03053   9.93
C00K  2  1.00000  0.34174  0.77760 10.50000  0.03210   9.68
N00L  3  1.00000  0.54614  0.79897 10.50000  0.01954   9.12
N00M  3  0.36485  0.41422  0.80335 11.00000  0.07497   8.56
N00N  3  0.50000  0.35840  0.61338 10.50000  0.05224   8.29
N00O  3  0.93975  0.50000  0.79975 10.50000  0.04744   8.25
N00P  3  0.61485  0.50000  0.66482 10.50000  0.01558   8.12
C00Q  2  0.50000  0.50000  0.49937 10.25000  0.06030   7.98
N00R  3  0.00000  0.50000  0.23985 10.25000  0.00010   7.33
N00S  3  0.00000  0.50000  0.29243 10.25000  0.03051   7.21
C00T  2  0.50000  0.47413  0.66885 10.50000  0.03757   6.97
N00U  3  0.11684  0.50000  0.53522 10.50000  0.05632   6.96
C00V  2  0.50000  0.61168  0.43687 10.50000  0.06123   6.78
N00W  3  0.42003  0.50000  0.45310 10.50000  0.15628   6.65
N00X  3  0.19174  0.50000  0.39058 10.50000  0.03303   6.57
C00Y  2  0.74108  0.50000  0.67310 10.50000  0.01848   6.43
N00Z  3  0.50000  0.50000  0.32025 10.25000  0.04166   6.41
C010  2  0.83550  0.37064  0.80138 11.00000  0.01426   6.11
N011  3  1.00000  0.27064  0.79304 10.50000  0.03509   5.92
O012  4  0.00000  0.32928  0.45602 10.50000  0.01195   5.67
C013  2  0.12103  0.56461  0.59065 11.00000  0.00010   5.67
C014  2  0.00000  0.58264  0.58245 10.50000  0.03395   5.54
C015  2  0.25223  0.72965  0.54975 11.00000  0.01280   5.47
C016  2  0.00000  0.38583  0.44330 10.50000  0.00010   5.40
C017  2  0.00000  0.83165  0.63416 10.50000  0.14682   5.02
C018  2  0.83760  0.45621  0.79448 11.00000  0.06942   4.89
C019  2  0.00000  0.46376  0.14587 10.50000  0.06974   4.86
C01A  2  0.18683  1.00000  0.48760 10.50000  0.04557   4.68
C01B  2  0.50000  0.41376  0.60209 10.50000  0.01621   4.44
C01C  2  0.00000  0.70235  0.58941 10.50000  0.09064   4.27
C01D  2  0.08350  0.63917  0.58183 11.00000  0.07776   4.19
N01E  3  0.50000  0.27397  0.61704 10.50000  0.02276   4.15
C01F  2  0.50000  0.50000  0.71965 10.25000  0.09195   4.01
C01G  2  0.00000  1.00000  0.48172 10.25000  0.00010   3.95
C01H  2  0.50000  0.79195  0.47984 10.50000  0.06787   3.82
C01I  2  0.50000  0.50000  0.58786 10.25000  0.00010   3.60
C01J  2  0.31801  1.00000  0.47998 10.50000  0.08496   3.51
C01K  2  0.16969  0.69695  0.57977 11.00000  0.10027   3.42
C01L  2  0.08581  0.50000  0.44112 10.50000  0.00010   3.38
C01M  2  0.29672  0.78763  0.49737 11.00000  0.11073   3.08
HKLF 4
END
