TITL temp02_expF_1_3_expS_0_6_temp02_b.res in Imm2
REM Old TITL I222 in Imm2 #44
REM SHELXT solution in Imm2: R1 0.883, Rweak 0.083, Alpha 0.199
REM <I/s>   0.000 for    0 systematic absences,  Orientation a'=c, b'=a, c'=b
REM Flack x = -9.990 ( 9.990 ) from   385 Parsons' quotients
REM Formula found by SHELXT:  C52 N17 O4

CELL  0.71073  30.4810   9.1390  15.1100   90.000   90.000   90.000
ZERR   51.000   0.0061   0.0018   0.0030    0.000    0.000    0.000
LATT -2
SYMM -X, -Y, Z
SYMM X, -Y, Z
SYMM -X, Y, Z
SFAC H C N O ZR
UNIT 51 51 51 51 51
L.S. 10
BOND
LIST 6
FMAP 2
PLAN 20
N001  3  0.47770  0.50000  0.37512 10.50000  0.15747  11.66
N002  3  0.50000  0.28761  0.22021 10.50000  0.02604  11.40
N003  3  0.50000  0.28593  0.25688 10.50000  0.04234  11.34
O004  4  0.42639  1.00000  0.40365 10.50000  0.01843   9.23
N005  3  0.50000  1.00000  0.28365 10.25000  0.15517   9.06
O006  4  0.50000  0.40362  0.31052 10.50000  0.13484   8.74
C007  2  0.45554  1.00000  0.36369 10.50000  0.01643   8.55
C008  2  0.38751  0.50000  0.40321 10.50000  0.09548   7.50
C009  2  0.44062  0.50000  0.32270 11.00000  0.00844   7.09
C00A  2  0.50000  1.00000  0.19356 10.25000  0.05398   6.98
C00B  2  0.43340  0.58558  0.37390 11.00000  0.00142   6.88
N00C  3  0.43645  0.80824  0.33929 11.00000  0.00010   6.64
C00D  2  0.50000  0.50000  0.70108 10.25000  0.03876   5.81
N00E  3  0.26121  0.50000  0.37405 10.50000  0.00034   5.33
C00F  2  0.30600  0.64504  0.74518 11.00000  0.00658   4.71
C00G  2  0.33374  0.66911  0.79774 11.00000  0.02117   4.28
C00H  2  0.19865  0.50000  0.60318 10.50000  0.01952   4.21
C00I  2  0.35548  0.50000  0.80105 11.00000  0.01788   4.12
C00J  2  0.47028  1.00000  0.77509 10.50000  0.11737   4.05
C00K  2  0.36190  1.00000  0.73550 10.50000  0.16459   3.91
N00L  3  0.27215  0.50000  0.55069 10.50000  0.01112   3.79
C00M  2  0.45944  1.00000  0.91592 10.50000  0.00029   3.73
C00N  2  0.41178  0.50000  0.08408 10.50000  0.02919   3.71
C00O  2  0.50000  0.58798  0.74127 10.50000  0.00138   3.64
N00P  3  0.50000  0.60888  0.45592 10.50000  0.17472   3.62
C00Q  2  0.31982  0.94959  0.33286 11.00000  0.14718   3.58
C00R  2  0.33520  0.67017  0.85553 11.00000  0.04299   3.41
C00S  2  0.33731  1.00000  0.61594 10.50000  0.14392   3.37
C00T  2  0.34992  0.57557  0.55288 11.00000  0.08431   3.19
HKLF 4
END
