TITL temp02_expF_1_5_expS_0_5_temp02_a.res in Imm2
REM Old TITL I222 in Imm2 #44
REM SHELXT solution in Imm2: R1 0.866, Rweak 0.287, Alpha 0.074
REM <I/s>   0.000 for    0 systematic absences,  Orientation as input
REM Flack x = -9.990 ( 9.990 ) from   386 Parsons' quotients
REM Formula found by SHELXT:  C40 N19 O17

CELL  0.71073   9.1390  15.1100  30.4810   90.000   90.000   90.000
ZERR   51.000   0.0018   0.0030   0.0061    0.000    0.000    0.000
LATT -2
SYMM -X, -Y, Z
SYMM X, -Y, Z
SYMM -X, Y, Z
SFAC H C N O ZR
UNIT 51 51 51 51 51
L.S. 10
BOND
LIST 6
FMAP 2
PLAN 20
N001  3  0.33471  0.50000  0.70480 10.50000  0.12614  12.50
N002  3  0.18642  0.50000  0.70538 10.50000  0.06027  12.15
N003  3  0.50000  0.50000  0.71927 10.25000  0.09900  11.20
N004  3  0.50000  0.50000  0.68872 10.50000  0.13575  10.61
N005  3  0.84418  0.50000  0.39425 10.50000  0.05605  10.05
C006  2  0.67699  0.50000  0.39772 10.50000  0.01786   8.91
O007  4  0.00000  0.47150  0.79259 10.50000  0.02991   8.72
O008  4  0.00000  0.34076  0.65254 10.50000  0.06146   8.49
C009  2  0.32789  0.50000  0.52940 10.50000  0.01975   8.31
O00A  4  0.50000  0.50000  0.53461 10.25000  0.07785   7.81
N00B  3  0.12548  0.50000  0.59840 10.50000  0.08536   7.14
N00C  3  0.00000  0.40879  0.66288 10.50000  0.04196   7.03
C00D  2  0.22918  0.50000  0.60076 10.50000  0.02232   6.78
C00E  2  0.50000  1.00000  0.62739 10.25000  0.10407   6.50
C00F  2  0.50000  0.62688  0.65724 10.50000  0.04376   6.44
O00G  4  0.11908  0.50000  0.79017 10.50000  0.08350   6.31
C00H  2  0.12114  0.45099  0.65748 11.00000  0.04293   6.10
N00I  3  0.19660  0.50000  0.53516 10.50000  0.10279   6.03
C00J  2  1.00000  0.50000  0.32745 10.25000  0.00938   5.72
O00K  4  0.50000  0.34246  0.46715 10.50000  0.06706   5.59
C00L  2  0.00000  0.47303  0.59666 10.50000  0.02930   5.57
C00M  2  0.50000  0.86644  0.59438 10.50000  0.09014   5.23
O00N  4  0.63723  0.63619  0.65479 11.00000  0.08443   4.99
C00O  2  0.92039  1.00000  0.51123 10.50000  0.04886   4.55
C00P  2  0.80317  1.00000  0.55061 10.50000  0.01335   4.33
C00Q  2  1.00000  1.00000  0.46895 10.25000  0.00010   4.26
C00R  2  0.50000  0.44710  0.40057 10.50000  0.05273   4.16
C00S  2  0.50000  0.28978  0.47496 10.50000  0.08431   4.02
C00T  2  0.57210  0.50000  0.20741 10.50000  0.05503   3.90
C00U  2  1.00000  0.53971  0.39551 10.50000  0.05681   3.88
O00V  4  0.65641  1.00000  0.44541 10.50000  0.20342   3.83
C00W  2  0.33252  0.50000  0.60535 10.50000  0.04416   3.66
C00X  2  0.88446  0.50000  0.26855 10.50000  0.00111   3.64
O00Y  4  0.50000  0.97339  0.45498 10.50000  0.11403   3.63
C00Z  2  0.50000  0.50000  0.62958 10.25000  0.00660   3.19
N010  3  1.00000  0.66392  0.44951 10.50000  0.07615   3.09
N011  3  0.65802  1.00000  0.62704 10.50000  0.08457   3.03
C012  2  1.00000  0.35427  0.31440 10.50000  0.08079   3.02
C013  2  0.50000  0.82062  0.60721 10.50000  0.04717   3.00
HKLF 4
END
