TITL temp02_expF_1_3_expS_1_0_temp02_a.res in Imm2
REM Old TITL I222 in Imm2 #44
REM SHELXT solution in Imm2: R1 0.758, Rweak 0.479, Alpha 0.135
REM <I/s>   0.000 for    0 systematic absences,  Orientation as input
REM Flack x = -9.990 ( 9.990 ) from   269 Parsons' quotients
REM Formula found by SHELXT:  C30 N15 O4

CELL  0.71073   9.1390  15.1100  30.4810   90.000   90.000   90.000
ZERR   51.000   0.0018   0.0030   0.0061    0.000    0.000    0.000
LATT -2
SYMM -X, -Y, Z
SYMM X, -Y, Z
SYMM -X, Y, Z
SFAC H C N O ZR
UNIT 51 51 51 51 51
L.S. 10
BOND
LIST 6
FMAP 2
PLAN 20
N001  3  0.80487  0.50000  0.51985 10.50000  0.01737   9.82
O002  4  0.35068  0.50000  0.63689 10.50000  0.07877   8.32
C003  2  0.89699  0.50000  0.52308 10.50000  0.13671   7.80
N004  3  0.50000  0.45700  0.51878 10.50000  0.08048   7.79
O005  4  1.00000  0.50000  0.20582 10.25000  0.00010   7.61
C006  2  0.50000  0.36226  0.57682 10.50000  0.00010   7.57
N007  3  0.19153  0.50000  0.63088 10.50000  0.04048   7.05
N008  3  0.50000  0.50000  0.63647 10.25000  0.08452   7.05
N009  3  1.00000  0.50000  0.52199 10.25000  0.06103   6.93
C00A  2  0.00000  0.45184  0.65065 10.50000  0.02226   6.42
C00B  2  0.63620  0.50000  0.52108 10.50000  0.14053   6.39
C00C  2  1.00000  0.58565  0.52682 10.50000  0.00651   5.96
C00D  2  0.50000  0.56216  0.79450 10.50000  0.08128   5.72
N00E  3  0.38788  0.34743  0.57029 11.00000  0.07569   5.46
C00F  2  0.15539  0.50000  0.65983 10.50000  0.00059   5.28
C00G  2  0.00000  0.50000  0.72307 10.25000  0.00010   4.98
C00H  2  0.36683  0.50000  0.79189 10.50000  0.13841   4.96
C00I  2  0.36623  0.50000  0.79082 10.50000  0.17936   4.74
C00J  2  1.00000  0.63801  0.56871 10.50000  0.00483   4.68
N00K  3  0.68896  0.50000  0.30574 10.50000  0.07254   4.22
C00L  2  0.50000  0.50000  0.21782 10.50000  0.13362   4.00
C00M  2  0.00000  0.35586  0.89090 10.50000  0.00010   3.89
O00N  4  0.00000  0.50000  0.87075 10.25000  0.18968   3.64
C00O  2  0.06445  0.50000  0.84345 10.50000  0.01630   3.60
C00P  2  0.00000  0.50000  0.91005 10.25000  0.00010   3.54
N00Q  3  1.00000  0.50000  0.37832 10.25000  0.00010   3.22
C00R  2  0.50000  0.45847  0.08995 10.50000  0.10577   3.02
HKLF 4
END
