TITL temp02_expF_1_5_expS_0_6_temp02_a.res in Imm2
REM Old TITL I222 in Imm2 #44
REM SHELXT solution in Imm2: R1 0.843, Rweak 0.388, Alpha 0.072
REM <I/s>   0.000 for    0 systematic absences,  Orientation as input
REM Flack x = -9.990 ( 9.990 ) from   372 Parsons' quotients
REM Formula found by SHELXT:  C33 N33 O3

CELL  0.71073   9.1390  15.1100  30.4810   90.000   90.000   90.000
ZERR   51.000   0.0018   0.0030   0.0061    0.000    0.000    0.000
LATT -2
SYMM -X, -Y, Z
SYMM X, -Y, Z
SYMM -X, Y, Z
SFAC H C N O ZR
UNIT 51 51 51 51 51
L.S. 10
BOND
LIST 6
FMAP 2
PLAN 20
O001  4  0.21471  0.00000  0.23769 10.50000  0.04459  13.85
N002  3  0.33381  0.00000  0.23568 10.50000  0.01224  12.27
C003  2  0.50000  0.02301  0.83390 10.50000  0.09838  11.34
N004  3  0.50000  0.00000  0.35216 10.25000  0.02266  10.78
N005  3  0.50000  0.00000  0.49985 10.25000  0.01024  10.66
N006  3  0.50000  0.04709  0.49033 10.50000  0.03753   9.82
N007  3  0.41584  0.03575  0.35230 11.00000  0.02788   9.81
N008  3  0.50000  0.04026  0.22754 10.50000  0.00329   9.46
O009  4  0.00000  0.00000  0.23608 10.25000  0.15824   9.13
N00A  3  0.00000  0.00000  0.39582 10.25000  0.00010   7.92
C00B  2  0.50000  0.17377  0.49398 10.50000  0.03441   7.84
N00C  3  0.59976  0.00000  0.55550 10.50000  0.07919   7.44
N00D  3  0.34888  0.00000  0.35821 10.50000  0.05995   6.92
C00E  2  0.21259  0.00000  0.34791 10.50000  0.06898   6.60
C00F  2  0.50000  0.00000  0.16610 10.25000  0.03927   6.17
N00G  3  0.50000  0.14575  0.29281 10.50000  0.02602   6.02
N00H  3  0.80090  0.00000  0.55942 10.50000  0.04797   5.93
C00I  2  0.50000  0.50000  0.44582 10.25000  0.01030   5.23
N00J  3  0.50000  0.44406  0.43599 10.50000  0.00010   5.19
C00K  2  0.62374  0.50000  0.42501 10.50000  0.07340   5.11
C00L  2  1.00000  0.00000  0.58039 10.25000  0.06458   5.03
C00M  2  1.00000  0.00000  0.60707 10.25000  0.02150   4.59
N00N  3  0.57120  0.21605  0.49633 11.00000  0.10312   4.38
C00O  2  0.91171  0.00000  0.56659 10.50000  0.04622   4.28
C00P  2  0.62395  0.06662  0.55509 11.00000  0.09117   4.17
C00Q  2  0.50000  0.25094  0.48299 10.50000  0.03751   4.11
C00R  2  0.17610  0.03024  0.42160 11.00000  0.04232   4.08
C00S  2  0.50000  0.50000  0.41891 10.25000  0.00543   3.91
C00T  2  0.20442  0.09426  0.28632 11.00000  0.04410   3.63
N00U  3  1.00000  0.22895  0.65583 10.50000  0.05216   3.43
N00V  3  1.00000  0.00000  0.63977 10.25000  0.07163   3.43
C00W  2  0.38513  0.13877  0.28424 11.00000  0.07908   3.34
N00X  3  1.00000  0.29651  0.52330 10.50000  0.02863   3.31
N00Y  3  0.50000  0.00000  0.69728 10.25000  0.03692   3.03
HKLF 4
END
