TITL temp02_expF_1_3_expS_0_9_temp02_b.res in Imm2
REM Old TITL I222 in Imm2 #44
REM SHELXT solution in Imm2: R1 0.764, Rweak 0.222, Alpha 0.259
REM <I/s>   0.000 for    0 systematic absences,  Orientation a'=c, b'=a, c'=b
REM Flack x = -9.990 ( 9.990 ) from   271 Parsons' quotients
REM Formula found by SHELXT:  C59 N31 O7

CELL  0.71073  30.4810   9.1390  15.1100   90.000   90.000   90.000
ZERR   51.000   0.0061   0.0018   0.0030    0.000    0.000    0.000
LATT -2
SYMM -X, -Y, Z
SYMM X, -Y, Z
SYMM -X, Y, Z
SFAC H C N O ZR
UNIT 51 51 51 51 51
L.S. 10
BOND
LIST 6
FMAP 2
PLAN 20
N001  3  0.43816  0.73799  0.34091 11.00000  0.06961  13.16
N002  3  0.50000  0.50000  0.14866 10.25000  0.00010  12.66
N003  3  0.32843  0.00000  0.88174 10.50000  0.01489  11.45
C004  2  0.44805  0.54158  0.34941 11.00000  0.08551  10.38
N005  3  0.43359  0.84948  0.34589 11.00000  0.07696  10.22
N006  3  0.36073  0.00000  0.92145 10.50000  0.07630   9.79
N007  3  0.50000  1.00000  0.16290 10.25000  0.04264   8.56
N008  3  0.43065  0.50000  0.37721 10.50000  0.01365   8.47
N009  3  0.50000  0.57719  0.43860 10.50000  0.04952   8.07
N00A  3  0.50000  1.00000  0.27090 10.25000  0.00010   7.74
O00B  4  0.50000  0.50000  0.07855 10.25000  0.00010   7.73
O00C  4  0.50000  0.57797  0.21622 10.50000  0.01362   7.64
C00D  2  0.25420  0.00000  0.40616 10.50000  0.00010   7.47
N00E  3  0.27810  0.07748  0.42493 11.00000  0.04536   7.42
C00F  2  0.23488  0.00000  0.34552 10.50000  0.00294   6.68
C00G  2  0.43505  0.94401  0.39419 11.00000  0.00555   6.48
C00H  2  0.26402  0.10918  0.36948 11.00000  0.03923   6.48
N00I  3  0.23760  0.11276  0.33350 11.00000  0.01608   6.46
C00J  2  0.34874  0.07012  0.87587 11.00000  0.01084   6.15
N00K  3  0.45527  0.50000  0.40357 10.50000  0.02342   5.33
C00L  2  0.46433  1.00000  0.25912 10.50000  0.00010   5.18
C00M  2  0.27381  0.20592  0.40707 11.00000  0.04251   5.08
C00N  2  0.35764  0.50000  0.36346 10.50000  0.05424   4.90
C00O  2  0.34204  0.00000  0.72470 10.50000  0.01114   4.87
C00P  2  0.50000  1.00000  0.47346 10.25000  0.00010   4.72
C00Q  2  0.50000  0.80146  0.19792 10.50000  0.00569   4.68
N00R  3  0.42137  1.00000  0.33582 10.50000  0.09123   4.64
C00S  2  0.27901  0.09796  0.50148 11.00000  0.00441   4.55
C00T  2  0.24138  0.17325  0.48851 11.00000  0.00182   4.06
C00U  2  0.31130  0.50000  0.34890 10.50000  0.00010   4.02
C00V  2  0.50000  0.88560  0.23124 10.50000  0.10314   4.01
C00W  2  0.29088  0.00000  0.45772 10.50000  0.04174   3.80
C00X  2  0.50000  0.69620  0.37398 10.50000  0.01641   3.65
O00Y  4  0.50000  0.81554  0.41015 10.50000  0.13048   3.51
O00Z  4  0.34432  0.00000  0.64816 10.50000  0.04542   3.48
C010  2  0.17538  0.00000  0.34074 10.50000  0.00010   3.42
C011  2  0.40074  0.80152  0.35503 11.00000  0.02661   3.42
C012  2  0.19106 -0.05386  0.39107 11.00000  0.09310   3.27
HKLF 4
END
