TITL temp02_expF_1_5_expS_0_9_temp02_a.res in Imm2
REM Old TITL I222 in Imm2 #44
REM SHELXT solution in Imm2: R1 0.849, Rweak 0.367, Alpha 0.072
REM <I/s>   0.000 for    0 systematic absences,  Orientation as input
REM Flack x = -9.990 ( 3.909 ) from   258 Parsons' quotients
REM Formula found by SHELXT:  C39 N18 O12

CELL  0.71073   9.1390  15.1100  30.4810   90.000   90.000   90.000
ZERR   51.000   0.0018   0.0030   0.0061    0.000    0.000    0.000
LATT -2
SYMM -X, -Y, Z
SYMM X, -Y, Z
SYMM -X, Y, Z
SFAC H C N O ZR
UNIT 51 51 51 51 51
L.S. 10
BOND
LIST 6
FMAP 2
PLAN 20
N001  3 -0.11828  0.50000  0.29840 10.50000  0.07101  10.02
N002  3 -0.24372  0.50000  0.30146 10.50000  0.09097   9.85
O003  4  0.24207  0.50000  0.62829 10.50000  0.06440   9.51
C004  2  0.00000  0.50000  0.29836 10.25000  0.05625   9.51
O005  4  0.00000  0.86117  0.39691 10.50000  0.24430   8.67
C006  2  0.11240  0.50000  0.61422 10.50000  0.12096   8.42
N007  3  0.50000  0.50000  0.37838 10.50000  0.19470   7.61
N008  3  0.50000  0.50000  0.35274 10.25000  0.12720   7.54
N009  3  0.04180  0.52237  0.35900 11.00000  0.11506   7.29
C00A  2 -0.50000  0.50000  0.24076 10.25000  0.00427   7.01
N00B  3 -0.50000  0.45105  0.23139 10.50000  0.11485   6.54
C00C  2  0.80699  0.50000  0.49571 10.50000  0.01018   6.49
C00D  2  1.00000  0.53453  0.48466 10.50000  0.06727   6.46
C00E  2  0.39316  0.50000  0.35685 10.50000  0.06099   6.43
C00F  2  0.50000  0.56724  0.36336 10.50000  0.01120   6.28
C00G  2  0.00000  0.68471  0.35772 10.50000  0.01644   5.97
C00H  2  0.50000  0.50000  0.48899 10.25000  0.05843   5.76
C00I  2  0.68663  0.50000  0.41185 10.50000  0.00010   5.67
C00J  2  0.50000  0.50000  0.41945 10.25000  0.02947   5.45
C00K  2  0.00000  0.62543  0.35060 10.50000  0.06513   5.36
C00L  2  0.50000  0.62855  0.35905 10.50000  0.10098   4.99
C00M  2  0.00000  0.50000  0.23996 10.25000  0.03737   4.79
C00N  2  0.20158  0.58450  0.35569 11.00000  0.04724   4.73
N00O  3  1.00000  0.71309  0.56215 10.50000  0.15856   4.66
O00P  4  0.00000  0.50000  0.81436 10.25000  0.09446   4.31
C00Q  2 -0.50000  0.38453  0.22266 10.50000  0.01220   4.30
C00R  2 -0.50000  0.50000  0.18564 10.50000  0.18395   4.28
C00S  2 -0.26334  0.50000  0.21851 10.50000  0.02701   4.06
C00T  2  0.65783  0.50000  0.48735 10.50000  0.02028   4.03
O00U  4  0.43901  0.50000  0.71058 10.50000  0.05102   3.85
N00V  3  1.00000  1.00000  0.54130 10.25000  0.00315   3.65
C00W  2  0.50000  0.55828  0.64949 10.50000  0.16991   3.47
N00X  3  0.50000  0.64881  0.56916 10.50000  0.08169   3.35
O00Y  4  0.50000  0.55305  0.70578 10.50000  0.12508   3.28
C00Z  2  0.62485  0.50000  0.44565 10.50000  0.00010   3.20
O010  4  0.00000  0.50000  0.75640 10.25000  0.05916   3.15
O011  4  0.05722  0.50000  0.78013 10.50000  0.02441   3.02
HKLF 4
END
