TITL temp02_expF_1_4_expS_1_4_temp02_c.res in Imm2
REM Old TITL I222 in Imm2 #44
REM SHELXT solution in Imm2: R1 0.822, Rweak 0.249, Alpha 0.221
REM <I/s>   0.000 for    0 systematic absences,  Orientation a'=c, b'=a, c'=b
REM Flack x =  0.374 ( 1.234 ) from   150 Parsons' quotients
REM Formula found by SHELXT:  C45 N34 O12 Cl13

CELL  0.71073  30.4810   9.1390  15.1100   90.000   90.000   90.000
ZERR   51.000   0.0061   0.0018   0.0030    0.000    0.000    0.000
LATT -2
SYMM -X, -Y, Z
SYMM X, -Y, Z
SYMM -X, Y, Z
SFAC H C N O ZR CL
UNIT 51 51 51 51 51 0
L.S. 10
BOND
LIST 6
FMAP 2
PLAN 20
CL01  6  0.56817  0.50000  0.39091 10.50000  0.03082  20.69
CL02  6  0.50000  0.00000  0.43901 10.25000  0.06649  19.43
CL03  6  0.45874  0.00000  0.35873 10.50000  0.05715  16.94
CL04  6  0.57055  0.35632  0.37346 11.00000  0.10353  15.45
CL05  6  0.50000  0.14668  0.43926 10.50000  0.07164  14.22
CL06  6  0.50000  0.14589  0.50058 10.50000  0.00613  13.55
O007  4  0.55355  0.30338  0.41598 11.00000  0.01545  10.08
N008  3  0.67070  0.34871  0.89762 11.00000  0.05097   9.95
N009  3  0.50000  0.17672  0.40054 10.50000  0.00010   9.53
O00A  4  0.60417  0.00000  0.97259 10.50000  0.02067   9.32
N00B  3  0.77188  0.50000  0.70138 10.50000  0.06834   9.03
N00C  3  0.52526  0.16555  0.42224 11.00000  0.00010   8.76
C00D  2  0.73515  0.50000  0.65191 10.50000  0.00010   8.24
O00E  4  0.65683  0.19270  0.97558 11.00000  0.00069   8.10
N00F  3  0.74739  0.00000  0.97873 10.50000  0.02245   7.76
C00G  2  0.56513  0.00000  0.83548 10.50000  0.02394   7.66
O00H  4  0.71943  0.50000  1.13024 10.50000  0.00996   7.31
N00I  3  0.73716  0.50000  0.74718 10.50000  0.07288   7.28
N00J  3  0.50000  0.42212 -0.07251 10.50000  0.01669   7.10
N00K  3  0.80378  0.50000  0.67623 10.50000  0.00010   6.86
N00L  3  0.66361  0.50000  0.89402 10.50000  0.06768   6.80
N00M  3  0.60821  0.43121  0.39318 11.00000  0.07171   6.64
C00N  2  0.75499  0.50000  0.85707 10.50000  0.00749   6.59
C00O  2  0.73760  0.00000  0.91919 10.50000  0.07810   5.96
C00P  2  0.50000  0.43733 -0.13024 10.50000  0.00543   5.94
C00Q  2  0.76571  0.05126  0.90328 11.00000  0.01883   5.77
N00R  3  0.81442  0.35318  0.88808 11.00000  0.08034   5.67
C00S  2  0.66613  0.16097  0.92431 11.00000  0.00416   5.62
N00T  3  0.60009  0.00000  0.75139 10.50000  0.11464   5.57
C00U  2  0.50000  0.50000 -0.02417 10.25000  0.01448   5.48
C00V  2  0.77617  0.50000  0.93624 10.50000  0.00010   5.18
N00W  3  0.50000  0.25989  0.14449 10.50000  0.01763   5.13
C00X  2  0.77739  0.50000  1.11905 10.50000  0.02493   5.07
C00Y  2  0.64003  0.41049  0.90383 11.00000  0.00010   4.59
C00Z  2  0.53615  0.45179  0.55732 11.00000  0.01841   4.56
C010  2  0.66063  0.00000  0.89425 10.50000  0.03286   4.56
C011  2  0.77803  0.50000  0.64750 10.50000  0.03205   4.39
C012  2  0.62980  0.50000  0.49200 10.50000  0.04184   3.71
C013  2  0.79339  0.22725  0.89637 11.00000  0.00010   3.41
C014  2  0.79283  0.50000  0.73854 10.50000  0.00241   3.04
C015  2  0.55881  0.00000  0.64746 10.50000  0.00108   3.03
HKLF 4
END
