TITL temp02_expF_1_3_expS_1_2_temp02_a.res in Imm2
REM Old TITL I222 in Imm2 #44
REM SHELXT solution in Imm2: R1 0.759, Rweak 0.431, Alpha 0.066
REM <I/s>   0.000 for    0 systematic absences,  Orientation as input
REM Flack x = -9.990 ( 9.990 ) from   220 Parsons' quotients
REM Formula found by SHELXT:  C55 N33 O8

CELL  0.71073   9.1390  15.1100  30.4810   90.000   90.000   90.000
ZERR   51.000   0.0018   0.0030   0.0061    0.000    0.000    0.000
LATT -2
SYMM -X, -Y, Z
SYMM X, -Y, Z
SYMM -X, Y, Z
SFAC H C N O ZR
UNIT 51 51 51 51 51
L.S. 10
BOND
LIST 6
FMAP 2
PLAN 20
N001  3  0.92597  0.50000  0.64187 10.50000  0.02239  12.50
N002  3  0.76744  0.50000  0.64425 10.50000  0.00010  12.26
N003  3  0.86943  0.50000  0.61682 10.50000  0.02758   9.59
N004  3  0.50000  0.47413  0.66173 10.50000  0.04145   9.42
N005  3  1.00000  0.55719  0.63596 10.50000  0.00279   9.00
C006  2  0.50000  0.36059  0.36975 10.50000  0.00010   8.82
N007  3  0.38443  0.50000  0.51345 10.50000  0.00010   8.53
O008  4  0.31883  0.50000  0.32352 10.50000  0.12680   8.23
N009  3  0.00000  0.33137  0.37578 10.50000  0.00507   8.22
N00A  3  0.00000  0.00000  0.52684 10.25000  0.00010   7.97
N00B  3  0.64728  0.44888  0.66061 11.00000  0.02046   7.88
N00C  3 -0.10060  0.50000  0.31723 10.50000  0.00010   7.72
C00D  2  0.50000  0.50000  0.20967 10.25000  0.00641   7.41
N00E  3  0.50000  0.40869  0.72399 10.50000  0.01643   7.36
C00F  2  0.00000 -0.07061  0.52978 10.50000  0.00010   7.18
N00G  3  0.28524  0.50000  0.43592 10.50000  0.00809   7.03
C00H  2  0.00000  0.00000  0.56082 10.25000  0.00280   6.54
N00I  3  0.50000  0.50000  0.71587 10.25000  0.02297   6.54
C00J  2  0.50000  0.43773  0.70340 10.50000  0.01218   6.38
N00K  3  0.25669  0.50000  0.50932 10.50000  0.00751   5.73
O00L  4  0.82816  0.50000  0.78191 10.50000  0.11619   5.59
C00M  2  0.11309  0.35205  0.37061 11.00000  0.00148   5.47
C00N  2  0.00000 -0.11405  0.55495 10.50000  0.06383   5.28
C00O  2  0.00000  0.45237  0.38299 10.50000  0.05370   5.22
O00P  4  0.38171  0.31562  0.37674 11.00000  0.10376   4.74
C00Q  2  0.00000  0.42427  0.35521 10.50000  0.05432   4.69
C00R  2  0.00000  0.26578  0.37903 10.50000  0.00010   4.67
C00S  2  0.50000  0.04876  0.41647 10.50000  0.00383   4.43
C00T  2  0.50000  0.26158  0.72786 10.50000  0.01970   4.42
C00U  2  0.30773  0.00000  0.42173 10.50000  0.03997   4.38
C00V  2  0.62979  0.50000  0.79033 10.50000  0.02686   4.28
C00W  2  0.14693  0.47310  0.44516 11.00000  0.00308   4.18
C00X  2  1.00000  0.63263  0.65018 10.50000  0.01348   3.98
C00Y  2  0.50000  0.50000  0.59250 10.25000  0.00010   3.93
C00Z  2  0.63802  0.50000  0.71711 10.50000  0.03879   3.91
C010  2  1.00000  0.65297  0.70064 10.50000  0.00953   3.89
C011  2  0.30563  0.50000  0.37459 10.50000  0.05542   3.66
C012  2  1.00000  0.61528  0.60425 10.50000  0.00010   3.65
C013  2  0.00000  0.47178  0.43827 10.50000  0.00010   3.50
C014  2  0.30018  0.32815  0.72341 11.00000  0.06422   3.38
N015  3  0.50000  0.50000  0.24329 10.25000  0.02500   3.34
C016  2  0.27869  0.50000  0.46811 10.50000  0.02472   3.34
C017  2  0.77052  0.50000  0.72877 10.50000  0.00010   3.27
N018  3  0.33912  0.25228  0.45746 11.00000  0.00535   3.24
C019  2  0.50000  0.28078  0.30965 10.50000  0.04429   3.11
HKLF 4
END
