TITL temp02_expF_1_3_expS_0_7_temp02_a.res in Imm2
REM Old TITL I222 in Imm2 #44
REM SHELXT solution in Imm2: R1 0.833, Rweak 0.371, Alpha 0.105
REM <I/s>   0.000 for    0 systematic absences,  Orientation as input
REM Flack x = -9.990 ( 9.990 ) from   396 Parsons' quotients
REM Formula found by SHELXT:  C24 N9 O7

CELL  0.71073   9.1390  15.1100  30.4810   90.000   90.000   90.000
ZERR   51.000   0.0018   0.0030   0.0061    0.000    0.000    0.000
LATT -2
SYMM -X, -Y, Z
SYMM X, -Y, Z
SYMM -X, Y, Z
SFAC H C N O ZR
UNIT 51 51 51 51 51
L.S. 10
BOND
LIST 6
FMAP 2
PLAN 20
O001  4  0.82016  0.50000  0.32334 10.50000  0.10822  13.21
O002  4  0.73314  0.50000  0.31317 10.50000  0.14484  12.45
N003  3  1.50000  0.50000  0.43247 10.25000  0.02001  10.85
O004  4  1.00000  0.50000  0.32889 10.50000  0.11151  10.40
C005  2  1.50000  0.50000  0.46122 10.25000  0.00010  10.33
O006  4  0.71019  0.50000  0.59332 10.50000  0.02879   9.95
O007  4  0.50000  0.50000  0.61172 10.25000  0.04476   9.63
N008  3  0.82435  0.50000  0.59283 10.50000  0.00010   8.51
C009  2  0.50000  0.50000  0.92193 10.25000  0.11420   8.40
N00A  3  1.00000  0.50000  0.60468 10.25000  0.03450   8.20
C00B  2  0.72084  0.64233  0.64129 11.00000  0.05628   8.12
N00C  3  1.41587  0.50000  0.43854 10.50000  0.00539   7.94
N00D  3  1.40222  0.50000  0.40258 10.50000  0.01038   7.63
O00E  4  1.00000  0.50000  0.68517 10.25000  0.05941   7.61
N00F  3  0.62308  0.50000  0.92683 10.50000  0.00010   7.61
O00G  4  0.50000  0.31535  0.23418 10.50000  0.00458   7.54
N00H  3  1.00000  0.50000  0.38190 10.25000  0.18768   6.99
C00I  2  0.50000  0.53320  0.72850 10.50000  0.00010   6.63
C00J  2  0.29391  0.50000  0.19577 10.50000  0.05995   6.42
C00K  2  0.50000  0.50000  0.25555 10.25000  0.00022   6.41
C00L  2  1.00000  0.50000  0.57817 10.25000  0.00463   6.17
C00M  2  0.50000  0.44813  0.29148 10.50000  0.16798   6.15
C00N  2  0.50000  0.50000  0.75095 10.25000  0.00010   5.94
C00O  2  0.62312  0.50000  0.75938 10.50000  0.01127   5.78
C00P  2  0.36832  0.50000  0.18304 10.50000  0.00010   5.33
C00Q  2  0.50000  0.50000  0.32238 10.25000  0.08661   5.05
C00R  2  0.50000  0.59505  0.90517 10.50000  0.01498   4.99
C00S  2  1.40423  0.55969  0.45343 11.00000  0.04785   4.81
C00T  2  0.67776  0.50000  0.73798 10.50000  0.02559   4.78
C00U  2  1.17614  0.50000  0.46804 10.50000  0.02741   4.73
C00V  2  0.06665  0.50000  0.17507 10.50000  0.17254   4.64
N00W  3  0.00000  0.50000  0.07317 10.25000  0.20194   4.53
C00X  2  1.09835  0.50000  0.68880 10.50000  0.17260   4.51
C00Y  2  0.50000  0.71338  0.64925 10.50000  0.00505   4.39
N00Z  3  1.00000  0.27190  0.54273 10.50000  0.10572   4.38
O010  4  1.50000  0.77414  0.39799 10.50000  0.00206   4.21
C011  2  0.80086  0.38194  0.32829 11.00000  0.07542   4.18
N012  3  0.79207  0.60136  0.62822 11.00000  0.02487   3.77
C013  2  0.50000  0.66521  0.71352 10.50000  0.04938   3.58
C014  2  1.00000  0.54012  0.38551 11.00000  0.16320   3.46
C015  2  0.00000  0.50000  0.20090 10.25000  0.16296   3.17
C016  2  1.00000  0.50000  0.44807 10.25000  0.04248   3.10
HKLF 4
END
