TITL temp02_expF_1_2_expS_0_8_temp02_a.res in Imm2
REM Old TITL I222 in Imm2 #44
REM SHELXT solution in Imm2: R1 0.663, Rweak 0.104, Alpha 0.056
REM <I/s>   0.000 for    0 systematic absences,  Orientation as input
REM Flack x = -1.482 ( 0.920 ) from   343 Parsons' quotients
REM Formula found by SHELXT:  C65 N33 O13 Cl16

CELL  0.71073   9.1390  15.1100  30.4810   90.000   90.000   90.000
ZERR   51.000   0.0018   0.0030   0.0061    0.000    0.000    0.000
LATT -2
SYMM -X, -Y, Z
SYMM X, -Y, Z
SYMM -X, Y, Z
SFAC H C N O ZR CL
UNIT 51 51 51 51 51 0
L.S. 10
BOND
LIST 6
FMAP 2
PLAN 20
CL01  6  0.17731  0.50000  0.55913 10.50000  0.09352  18.76
CL02  6  0.31241  0.50000  0.55003 10.50000  0.07247  18.59
CL03  6  0.28363  0.50000  0.66693 10.50000  0.04481  16.81
CL04  6  0.00000  0.36829  0.61978 10.50000  0.06311  15.56
CL05  6  1.00000  0.53323  0.40549 10.50000  0.02921  14.29
CL06  6  0.00000  0.43978  0.55799 10.50000  0.05465  13.85
CL07  6  1.00000  1.00000  0.48948 10.25000  0.05535  13.67
CL08  6  0.50000  0.50000  0.28813 10.25000  0.03629  12.80
CL09  6  0.38825  0.50000  0.67329 10.50000  0.08447  12.59
O00A  4  0.11606  0.33868  0.62167 11.00000  0.03511  12.23
N00B  3  0.50000  0.53859  0.53978 10.50000  0.00476  11.32
N00C  3  0.67352  1.00000  0.40896 10.50000  0.05411  10.34
O00D  4  0.00000  0.50000  0.67879 10.25000  0.09474  10.29
O00E  4  1.00000  0.46382  0.26191 10.50000  0.03947  10.13
N00F  3  1.00000  0.50000  0.28448 10.25000  0.15813  10.06
N00G  3  0.15904  0.42433  0.61564 11.00000  0.03176   9.03
N00H  3  0.62417  0.05733  0.58386 11.00000  0.07261   8.58
N00I  3  1.00000  1.00000  0.45329 10.25000  0.00516   8.34
N00J  3  0.50000  0.55273  0.51402 10.50000  0.00010   8.10
N00K  3  0.50000  0.03579  0.58607 10.50000  0.00010   7.94
O00L  4  0.18008  0.45008  0.67691 11.00000  0.04860   7.91
N00M  3  1.00000  0.93293  0.47032 10.50000  0.03635   7.60
C00N  2  1.00000  0.80087  0.30962 10.50000  0.00010   7.51
N00O  3  0.50000  0.50000  0.50739 10.25000  0.03839   7.49
N00P  3  0.50000  0.44983  0.26615 10.50000  0.07603   7.49
O00Q  4  0.79644  0.50000  0.27103 10.50000  0.00010   7.38
C00R  2  0.55610  0.00000  0.60294 10.50000  0.00010   7.22
N00S  3  0.58733  0.50000  0.26208 10.50000  0.04080   7.05
N00T  3  0.50000  0.12309  0.59262 10.50000  0.00010   6.96
N00U  3  0.50000  0.46196  0.67511 10.50000  0.02714   6.53
C00V  2  0.50000  0.07188  0.62254 10.50000  0.00010   6.41
C00W  2  0.91972  0.50000  0.42139 10.50000  0.07048   6.38
C00X  2  1.00000  0.50000  0.29349 10.25000  0.05662   6.25
N00Y  3  0.34631  0.50000  0.36262 10.50000  0.05849   6.18
C00Z  2  0.50000  0.35907  0.60780 10.50000  0.02140   6.03
C010  2  0.25832  0.50000  0.49864 10.50000  0.00010   5.99
C011  2  0.50000  0.38110  0.26945 10.50000  0.02977   5.97
C012  2  0.00000  0.50000  0.76112 10.25000  0.00956   5.90
C013  2  0.50000  0.50000  0.63721 10.25000  0.05593   5.77
C014  2  0.53498  0.88076  0.46600 11.00000  0.04143   5.76
C015  2  1.00000  1.00000  0.52921 10.50000  0.08129   5.64
C016  2  0.50000  0.50000  0.23888 10.25000  0.00010   5.35
C017  2  0.20312  0.50000  0.62042 10.50000  0.06676   5.33
C018  2  0.50000  0.50000  0.68791 10.25000  0.00010   5.14
C019  2  0.55412  0.81209  0.45483 11.00000  0.04817   4.70
C01A  2  0.50000  0.50000  0.42231 10.25000  0.08989   4.54
C01B  2  0.64642  0.26602  0.34894 11.00000  0.00010   4.47
C01C  2  1.00000  0.50000  0.33701 10.25000  0.03062   4.42
C01D  2  1.00000  0.84428  0.33708 10.50000  0.00981   4.40
C01E  2  0.50000  0.28364  0.28094 10.50000  0.00334   4.35
C01F  2  1.00000  0.84080  0.45132 10.50000  0.04600   4.23
N01G  3  1.00000  0.78624  0.27553 10.50000  0.00963   4.15
C01H  2  0.50000  0.97509  0.45070 10.50000  0.00021   4.08
C01I  2  0.50000  0.19936  0.63782 11.00000  0.04892   4.03
C01J  2  0.62389  0.22080  0.32171 11.00000  0.05738   3.60
C01K  2  1.00000  0.65569  0.44099 10.50000  0.04581   3.53
C01L  2  0.50000  0.43990  0.65485 10.50000  0.02630   3.49
C01M  2  0.50000  0.14171  0.31943 10.50000  0.00596   3.12
C01N  2  1.00000  0.79567  0.35903 10.50000  0.01197   3.09
C01O  2  0.50000  0.91722  0.42614 11.00000  0.04204   3.08
HKLF 4
END
