TITL temp02_expF_1_0_expS_0_7_temp02_a.res in Imm2
REM Old TITL I222 in Imm2 #44
REM SHELXT solution in Imm2: R1 1.103, Rweak 0.504, Alpha 0.205
REM <I/s>   0.000 for    0 systematic absences,  Orientation as input
REM Flack x =  0.300 ( 0.163 ) from   458 Parsons' quotients
REM Formula found by SHELXT:  C31 N14 O5 Cl11

CELL  0.71073   9.1390  15.1100  30.4810   90.000   90.000   90.000
ZERR   51.000   0.0018   0.0030   0.0061    0.000    0.000    0.000
LATT -2
SYMM -X, -Y, Z
SYMM X, -Y, Z
SYMM -X, Y, Z
SFAC H C N O ZR CL
UNIT 51 51 51 51 51 0
L.S. 10
BOND
LIST 6
FMAP 2
PLAN 20
CL01  6  1.06079  0.00000  0.30546 10.50000  0.00010  21.99
CL02  6  0.78911  0.00000  0.52319 10.50000  0.30894  19.36
CL03  6  0.67091  0.00000  0.42066 10.50000  0.00010  17.06
CL04  6  0.50000  0.00000  0.72205 10.25000  0.19907  16.06
CL05  6  0.85507  0.00000  0.44324 10.50000  0.10226  14.59
CL06  6  1.00000  0.00000  0.44231 10.50000  0.07426  14.49
CL07  6  0.50000  0.50000  0.34468 10.50000  0.14711  14.25
CL08  6  0.50000  0.50000  0.32550 10.50000  0.28941  14.07
CL09  6  1.00000  0.00000  0.45981 10.25000  0.28884  13.94
CL0A  6  1.00000 -0.03547  0.30127 11.00000  0.01259  13.37
CL0B  6  0.50000 -0.04420  0.42073 10.50000  0.03587  13.13
N00C  3  0.50000  0.68783  0.72413 10.50000  0.02194  11.12
N00D  3  0.70499  0.50000  0.61383 10.50000  0.20985  10.76
O00E  4  0.50000  0.00000  0.69857 11.00000  0.30393   9.48
O00F  4  0.50000  0.50000  0.15057 10.25000  0.20377   9.04
O00G  4  0.50000  0.00000  0.69971 10.25000  0.20740   8.54
N00H  3  0.50000  0.38694  0.40349 11.00000  0.22031   8.33
N00I  3  0.50000  0.04601  0.85874 11.00000  0.01063   8.32
C00J  2  1.00000  0.50000  0.52471 10.25000  0.17053   8.29
N00K  3  0.50000  0.52505  0.66697 10.50000  0.26875   8.01
N00L  3  0.50000  0.35225  0.46679 10.50000  0.18066   7.69
N00M  3  0.50000 -0.08791  0.32148 10.50000  0.26148   7.63
C00N  2  1.00000  0.00000  0.37451 10.25000  0.00169   7.49
N00O  3  1.00000  0.00000  0.36031 10.50000  0.06798   7.47
O00P  4  0.50000  0.17870  0.56379 10.50000  0.26072   7.25
C00Q  2  0.50000  0.26323  0.49977 10.50000  0.19489   7.12
N00R  3  0.50000  0.00000  0.36932 10.50000  0.21868   7.04
C00S  2  0.50000  0.00000  0.59398 10.25000  0.13311   6.46
C00T  2  1.00000  0.53905  0.60871 10.50000  0.10919   6.41
C00U  2  0.50000  0.50000  0.29503 10.50000  0.20805   6.36
N00V  3  0.83363  0.50000  0.63482 11.00000  0.30663   6.19
C00W  2  0.50000  0.05050  0.58247 10.50000  0.18518   6.12
C00X  2  0.50000  0.42446  0.12569 10.50000  0.09310   6.11
O00Y  4  0.50000  0.40948  0.19548 10.50000  0.00010   6.10
C00Z  2  0.50000  0.50000  0.58210 10.25000  0.09603   6.08
C010  2  1.00000  0.00000  0.35919 10.50000  0.00129   5.87
C011  2  0.50000  0.50000  0.62340 10.50000  0.01429   5.45
C012  2  1.24711  0.00000  0.26135 10.50000  0.15007   5.26
C013  2  0.50000  0.11711  0.66579 11.00000  0.00828   5.12
C014  2  0.50000  0.50000  0.29850 11.00000  0.01498   5.01
C015  2  0.50000  0.00000  0.52040 10.25000  0.14550   4.42
C016  2  0.50000  0.50000  0.22914 10.50000  0.21110   4.37
C017  2  0.50000  0.00000  0.61051 11.00000  0.08875   4.33
C018  2  0.50000  0.00000  0.39507 10.50000  0.23159   3.77
C019  2  0.70130  0.50000  0.59313 10.50000  0.13983   3.74
N01A  3  0.65119  0.50000  0.17089 10.50000  0.19085   3.67
C01B  2  0.87795  0.00000  0.43478 11.00000  0.00010   3.62
C01C  2  0.67706  0.50000  0.24214 11.00000  0.20729   3.61
C01D  2  1.11130  0.00000  0.31090 11.00000  0.10969   3.34
C01E  2  0.50000  0.50000  0.51194 10.25000  0.19675   3.30
C01F  2  0.17079  0.26243  0.49411 11.00000  0.05201   3.15
C01G  2  0.50000  0.27424  0.17690 10.50000  0.01860   3.14
C01H  2  0.50000  0.00000  0.87431 10.50000  0.03714   3.13
C01I  2  1.08853  0.00000  0.32829 10.50000  0.04372   3.03
HKLF 4
END
