TITL temp02_expF_1_1_expS_1_5_temp02_a.res in Imm2
REM Old TITL I222 in Imm2 #44
REM SHELXT solution in Imm2: R1 0.650, Rweak 0.394, Alpha 0.110
REM <I/s>   0.000 for    0 systematic absences,  Orientation as input
REM Flack x = -9.990 ( 0.433 ) from    87 Parsons' quotients
REM Formula found by SHELXT:  C73 N36 O16 Cl15

CELL  0.71073   9.1390  15.1100  30.4810   90.000   90.000   90.000
ZERR   51.000   0.0018   0.0030   0.0061    0.000    0.000    0.000
LATT -2
SYMM -X, -Y, Z
SYMM X, -Y, Z
SYMM -X, Y, Z
SFAC H C N O ZR CL
UNIT 51 51 51 51 51 0
L.S. 10
BOND
LIST 6
FMAP 2
PLAN 20
CL01  6  0.39208  0.50000  0.37184 10.50000  0.09564  22.05
CL02  6  0.25642  0.50000  0.36274 10.50000  0.08540  21.88
CL03  6 -0.50000  0.34786  0.32184 10.50000  0.11648  16.87
CL04  6  0.17571  0.50000  0.25040 10.50000  0.06053  16.52
CL05  6  0.00000  0.50000  0.82335 10.25000  0.04020  14.40
CL06  6  0.00000  0.45673  0.35884 10.50000  0.07134  13.35
CL07  6  0.00000  0.50000  0.30272 10.25000  0.07973  13.12
CL08  6  0.50000  0.50000  0.38591 10.25000  0.05671  13.00
CL09  6  0.00000  0.53612  0.79114 10.50000  0.00016  12.63
N00A  3  0.00000  0.44119  0.23876 10.50000  0.00010  12.07
O00B  4  0.50000  0.50000  0.67746 10.25000  0.00010  11.94
O00C  4  0.50000  0.67443  0.64560 10.50000  0.01934  10.74
N00D  3 -0.08427  0.00000  0.55331 10.50000  0.02886  10.53
N00E  3  0.11062  0.50000  0.35933 10.50000  0.00171  10.49
N00F  3  0.50000  0.55429  0.18935 10.50000  0.03342  10.05
C00G  2  0.50000  0.54192  0.65679 10.50000  0.00010   9.82
N00H  3 -0.12513  0.43157  0.30919 11.00000  0.03959   9.22
N00I  3 -0.08478  0.35751  0.31158 11.00000  0.00010   9.22
C00J  2  0.50000  0.12482  0.45827 10.50000  0.06297   8.05
O00K  4  0.17285  0.50000  0.64209 10.50000  0.02482   7.57
N00L  3  0.00000  0.46063  0.29495 10.50000  0.07320   7.56
N00M  3 -0.15219  0.50000  0.31438 10.50000  0.00010   7.42
N00N  3  0.26141  0.50000  0.23591 10.50000  0.00071   7.35
N00O  3 -0.19948  0.00000  0.54731 10.50000  0.04016   6.82
N00P  3  0.00000  0.31457  0.48255 10.50000  0.02336   6.81
O00Q  4 -0.36403  0.37381  0.32389 11.00000  0.04140   6.77
C00R  2  0.71228  0.00000  0.45884 10.50000  0.00329   6.49
O00S  4  0.00000  0.17870  0.32899 10.50000  0.09121   6.45
C00T  2  0.00000  0.40298  0.33057 10.50000  0.08309   6.41
C00U  2  0.50000  0.73587  0.64918 10.50000  0.08976   6.37
C00V  2  0.27083  0.50000  0.19918 10.50000  0.00010   6.28
C00W  2  0.00000  0.50000  0.62941 10.25000  0.00010   6.23
C00X  2  0.00000  0.23444  0.46519 10.50000  0.01466   6.05
N00Y  3  0.37345  0.50000  0.17665 10.50000  0.00010   5.66
C00Z  2  1.00000  0.00000  0.45818 10.25000  0.02871   5.63
C010  2  0.50000  0.00000  0.45963 10.25000  0.03179   5.56
O011  4  0.00000  0.50000  0.49029 10.25000  0.00565   5.27
C012  2  0.00000  0.12546  0.56079 10.50000  0.00010   5.16
C013  2  0.00000  0.34903  0.65104 10.50000  0.09302   5.15
C014  2  0.00000  0.60268  0.77900 10.50000  0.03404   5.12
C015  2  0.50000  0.59377  0.62646 10.50000  0.04216   4.99
C016  2  0.00000  0.00000  0.35998 10.25000  0.01420   4.83
C017  2  0.24974  0.52512  0.70955 11.00000  0.01403   4.73
C018  2 -0.19637  0.21196  0.36881 11.00000  0.00010   4.50
O019  4  0.28004  0.24217  0.55392 11.00000  0.07692   4.49
C01A  2  0.00000  0.00000  0.58004 10.25000  0.03586   4.29
C01B  2  0.50000  0.03731  0.59295 10.50000  0.00010   4.29
C01C  2  0.32771  0.58893  0.65747 11.00000  0.01308   4.17
N01D  3  0.50000  0.09569  0.56924 10.50000  0.10751   4.04
C01E  2  0.50000  0.33628  0.50392 10.50000  0.00010   4.01
C01F  2  0.00000  0.23601  0.62407 10.50000  0.00010   4.00
C01G  2  0.00000  0.50000  0.60025 10.25000  0.00010   3.84
N01H  3  0.26754  0.60874  0.71566 11.00000  0.02860   3.81
C01I  2  0.00000  0.50000  0.45829 10.25000  0.03065   3.70
C01J  2  0.00000  0.40153  0.45811 10.50000  0.06756   3.61
C01K  2  0.19855  0.22816  0.58152 11.00000  0.00010   3.52
C01L  2  0.00000  0.17453  0.62328 10.50000  0.01817   3.48
C01M  2  0.50000  0.16471  0.50854 10.50000  0.07648   3.47
C01N  2  0.69264  0.50000  0.53429 10.50000  0.00010   3.38
C01O  2  0.00000  0.26427  0.64934 10.50000  0.00010   3.29
C01P  2  0.28860  0.50000  0.43917 10.50000  0.00010   3.24
C01Q  2  0.00000  0.23916  0.35522 10.50000  0.00010   3.17
C01R  2  0.59246  0.50000  0.52643 11.00000  0.02897   3.17
N01S  3  0.50000  0.62894  0.40959 10.50000  0.08682   3.03
C01T  2  0.15593  0.33749  0.51014 11.00000  0.03909   3.02
HKLF 4
END
