TITL temp02_expF_1_1_expS_1_3_temp02_a.res in Imm2
REM Old TITL I222 in Imm2 #44
REM SHELXT solution in Imm2: R1 0.620, Rweak 0.130, Alpha 0.186
REM <I/s>   0.000 for    0 systematic absences,  Orientation as input
REM Flack x = -2.522 ( 1.235 ) from   235 Parsons' quotients
REM Formula found by SHELXT:  C81 N37 O12 Cl22

CELL  0.71073   9.1390  15.1100  30.4810   90.000   90.000   90.000
ZERR   51.000   0.0018   0.0030   0.0061    0.000    0.000    0.000
LATT -2
SYMM -X, -Y, Z
SYMM X, -Y, Z
SYMM -X, Y, Z
SFAC H C N O ZR CL
UNIT 51 51 51 51 51 0
L.S. 10
BOND
LIST 6
FMAP 2
PLAN 20
CL01  6  0.00000  0.50000  0.57175 10.25000  0.05410  23.34
CL02  6  0.29609  0.50000  0.69448 10.50000  0.10732  22.21
CL03  6  0.50000  0.53786  0.70146 10.50000  0.04380  21.99
CL04  6  0.13403  0.50000  0.58302 10.50000  0.02007  21.57
CL05  6  0.00000  0.50000  0.63629 10.25000  0.00616  21.30
CL06  6  0.17534  0.50000  0.70732 10.50000  0.06970  19.18
CL07  6  0.38219  0.50000  0.71070 10.50000  0.13874  15.68
CL08  6  0.50000  0.96371  0.60637 10.50000  0.01029  15.66
CL09  6  0.50000  1.00000  0.47305 10.25000  0.07426  14.28
CL0A  6  0.00000  1.00000  0.49481 10.25000  0.02525  13.63
CL0B  6  0.00000  0.57597  0.63292 10.50000  0.12999  13.49
O00C  4  0.50000  0.50000  0.38526 10.25000  0.00010  13.18
CL0D  6  0.43984  0.65636  0.65425 11.00000  0.03904  12.67
N00E  3  0.60249  1.00000  0.59678 10.50000  0.00692  12.46
N00F  3  0.50000  0.60670  0.64312 10.50000  0.00010  11.80
N00G  3  0.11652  0.57463  0.58474 11.00000  0.01285  11.40
O00H  4  0.00000  0.50000  0.29954 10.25000  0.00010  10.55
O00I  4  0.00000  1.00000  0.34012 10.25000  0.00781  10.46
O00J  4  0.00000  0.72275  0.63094 10.50000  0.00010  10.37
N00K  3  0.17740  0.50000  0.61403 10.50000  0.01720   9.62
O00L  4  0.50000  0.81903  0.32559 10.50000  0.00010   9.22
N00M  3  0.50000  0.95395  0.64235 10.50000  0.02807   9.21
N00N  3  0.50000  0.50000  0.54799 10.25000  0.00010   9.15
N00O  3  0.50000  0.59435  0.68004 10.50000  0.00010   8.79
O00P  4  0.00000  0.70738  0.30629 10.50000  0.02291   8.64
N00Q  3  0.00000  0.54940  0.69155 10.50000  0.00010   8.42
N00R  3  0.34875  0.50000  0.55365 10.50000  0.01942   8.22
N00S  3  0.28349  1.00000  0.49121 10.50000  0.00339   7.99
O00T  4  0.50000  1.00000  0.28930 10.25000  0.06195   7.90
N00U  3  0.50000  0.93179  0.57904 10.50000  0.01099   7.75
N00V  3  0.60231  0.92601  0.60818 11.00000  0.01087   7.59
C00W  2  0.32767  0.53280  0.59265 11.00000  0.02965   7.07
C00X  2  0.00000  0.68318  0.65881 10.50000  0.00010   6.99
C00Y  2  0.13490  0.61856  0.61628 11.00000  0.06429   6.33
C00Z  2  0.42757  1.00000  0.45476 10.50000  0.00010   6.32
C010  2  0.18224  0.50000  0.36941 10.50000  0.10808   5.91
C011  2  0.50000  0.93259  0.33580 10.50000  0.00010   5.88
C012  2  0.19528  1.00000  0.46289 10.50000  0.00010   5.87
C013  2  0.00000  0.64919  0.31992 10.50000  0.00448   5.82
N014  3  0.41388  0.59468  0.66054 11.00000  0.00010   5.80
C015  2  0.50000  0.50000  0.35468 10.25000  0.04009   5.70
C016  2  0.50000  1.00000  0.66208 10.25000  0.00542   5.65
N017  3  0.50000  0.56374  0.36925 10.50000  0.01548   5.58
C018  2  0.00000  0.74329  0.43375 10.50000  0.02727   5.58
C019  2  0.23976  0.59718  0.56083 11.00000  0.00010   5.39
C01A  2  0.50000  0.79166  0.49636 10.50000  0.00010   5.38
C01B  2  0.42195  0.50000  0.52198 10.50000  0.00010   5.29
C01C  2  0.25372  0.87318  0.34989 11.00000  0.03623   5.24
C01D  2  0.26033  0.53301  0.37735 11.00000  0.00010   5.15
C01E  2  0.00000  0.82721  0.47539 10.50000  0.01364   4.84
C01F  2  0.50000  0.85167  0.48009 10.50000  0.00010   4.83
C01G  2  0.31797  0.50000  0.65307 10.50000  0.00010   4.80
C01H  2  0.20187  0.93194  0.49309 11.00000  0.00199   4.55
C01I  2  0.00000  0.76017  0.47671 10.50000  0.04504   4.39
C01J  2  0.50000  0.84996  0.61413 10.50000  0.00010   4.38
C01K  2  0.27646  0.80342  0.33237 11.00000  0.00153   4.36
C01L  2  0.40799  0.82281  0.32322 11.00000  0.00358   4.25
N01M  3  0.00000  0.58151  0.30663 10.50000  0.01915   4.14
N01N  3  0.00000  0.74171  0.39146 10.50000  0.05829   4.01
C01O  2  0.31966  0.96986  0.38509 11.00000  0.00833   3.96
C01P  2  0.16227  0.94285  0.51935 11.00000  0.06820   3.95
C01Q  2  0.00000  0.80225  0.50789 10.50000  0.01770   3.76
O01R  4  0.50000  0.68141  0.50568 10.50000  0.02935   3.61
C01S  2  0.46645  1.00000  0.40434 10.50000  0.00010   3.54
C01T  2  0.19019  0.59790  0.64474 11.00000  0.01272   3.45
C01U  2  0.00000  0.50000  0.49717 10.25000  0.00010   3.32
C01V  2  0.13843  1.00000  0.41708 10.50000  0.08109   3.26
HKLF 4
END
