TITL temp02_expF_1_1_expS_1_1_temp02_a.res in Imm2
REM Old TITL I222 in Imm2 #44
REM SHELXT solution in Imm2: R1 0.669, Rweak 0.120, Alpha 0.272
REM <I/s>   0.000 for    0 systematic absences,  Orientation a'=c, b'=a, c'=b
REM Flack x = -2.230 ( 1.106 ) from   227 Parsons' quotients
REM Formula found by SHELXT:  C74 N27 O10 Cl12

CELL  0.71073  30.4810   9.1390  15.1100   90.000   90.000   90.000
ZERR   51.000   0.0061   0.0018   0.0030    0.000    0.000    0.000
LATT -2
SYMM -X, -Y, Z
SYMM X, -Y, Z
SYMM -X, Y, Z
SFAC H C N O ZR CL
UNIT 51 51 51 51 51 0
L.S. 10
BOND
LIST 6
FMAP 2
PLAN 20
CL01  6  0.50000  0.50000  0.74397 10.25000  0.00975  17.29
CL02  6  0.44505  0.79505  0.62442 11.00000  0.08756  14.83
CL03  6  0.65638  0.50000 -0.01394 10.50000  0.08560  13.67
CL04  6  0.44277  0.67170  0.60885 11.00000  0.09084  13.56
CL05  6  0.50000  0.50000  0.43622 10.25000  0.03366  12.51
O006  4  0.62951  0.50000 -0.02718 10.50000  0.03949  12.10
O007  4  0.54717  1.00000  0.62950 10.50000  0.00010  11.40
N008  3  0.65271  0.50000  0.06498 10.50000  0.00010  10.85
C009  2  0.44400  0.50000  0.67889 10.50000  0.01771   9.99
O00A  4  0.50000  0.85947  0.44055 10.50000  0.00010   8.59
O00B  4  0.50000  0.88136  0.80940 10.50000  0.04459   8.34
N00C  3  0.50000  1.00000  0.38780 10.25000  0.00010   8.20
N00D  3  0.42964  0.66882  0.67279 11.00000  0.01699   7.85
N00E  3  0.68398  1.00000  0.39571 10.50000  0.01511   7.70
N00F  3  0.62696  0.50000  0.12803 10.50000  0.02921   7.64
N00G  3  0.42566  0.50000  0.66267 10.50000  0.09330   7.53
O00H  4  0.50000  0.50000  0.95346 10.25000  0.09131   7.44
C00I  2  0.70117  0.88721  0.41109 11.00000  0.00970   7.42
N00J  3  0.50000  0.62501  0.78635 10.50000  0.04904   7.33
N00K  3  0.50000  0.50000  0.51207 10.25000  0.06099   6.97
C00L  2  0.71727  0.50000  0.69926 10.50000  0.03851   6.90
C00M  2  0.50000  0.95513  0.67474 10.50000  0.00010   6.64
C00N  2  0.70864  0.50000  0.65551 10.50000  0.00010   6.34
C00O  2  0.69366  0.50000 -0.08067 10.50000  0.00010   6.32
C00P  2  0.76247  0.66699  0.61233 11.00000  0.00010   6.27
C00Q  2  0.50000  0.50000  1.01237 10.25000  0.08697   6.13
C00R  2  0.65142  0.50000  0.16038 10.50000  0.03968   5.93
C00S  2  0.82587  0.50000  0.65605 10.50000  0.00010   5.61
C00T  2  0.50000  0.77326  0.64666 10.50000  0.00010   5.40
C00U  2  0.53902  0.96633  0.69204 11.00000  0.00010   5.39
C00V  2  0.50000  0.59258  0.47963 10.50000  0.00010   5.31
N00W  3  0.68595  0.42025  0.71712 11.00000  0.04645   5.06
C00X  2  0.74515  0.50000  0.54963 10.50000  0.01721   4.83
O00Y  4  0.50000  1.00000  0.09644 10.25000  0.01799   4.55
C00Z  2  0.66706  0.87439  0.39679 11.00000  0.03762   4.47
C010  2  0.50000  1.00000  0.18630 10.25000  0.00858   4.28
C011  2  0.46825  0.50000  0.73625 10.50000  0.02233   4.07
C012  2  0.75621  0.66495  0.54559 11.00000  0.02348   3.95
C013  2  0.50000  0.69448  0.64127 10.50000  0.00010   3.94
C014  2  0.50000  0.79311  0.53553 10.50000  0.00808   3.84
N015  3  0.50000  0.50000  0.67425 10.50000  0.07704   3.78
C016  2  0.67875  0.50000  0.23546 10.50000  0.01608   3.70
C017  2  0.64797  0.57621  0.10770 11.00000  0.00555   3.68
N018  3  0.50000  0.50000  1.08067 10.25000  0.04924   3.45
C019  2  0.75771  0.65786  0.46346 11.00000  0.02139   3.45
C01A  2  0.60136  0.50000  0.22039 10.50000  0.01063   3.29
C01B  2  0.76986  0.74360  0.56183 11.00000  0.02173   3.22
C01C  2  0.57255  0.50000  0.43224 10.50000  0.02813   3.17
C01D  2  0.58174  0.62000  0.46177 11.00000  0.00010   3.13
C01E  2  0.50000  0.75927  0.58614 10.50000  0.06915   3.11
C01F  2  0.70081  0.50000  0.37864 10.50000  0.04916   3.04
N01G  3  0.82305  0.64858  0.66713 11.00000  0.00010   3.01
HKLF 4
END
