TITL temp02_expF_1_3_expS_0_6_temp02_a.res in Imm2
REM Old TITL I222 in Imm2 #44
REM SHELXT solution in Imm2: R1 0.757, Rweak 0.173, Alpha 0.150
REM <I/s>   0.000 for    0 systematic absences,  Orientation as input
REM Flack x = -9.990 ( 9.990 ) from   412 Parsons' quotients
REM Formula found by SHELXT:  C59 N31 O6

CELL  0.71073   9.1390  15.1100  30.4810   90.000   90.000   90.000
ZERR   51.000   0.0018   0.0030   0.0061    0.000    0.000    0.000
LATT -2
SYMM -X, -Y, Z
SYMM X, -Y, Z
SYMM -X, Y, Z
SFAC H C N O ZR
UNIT 51 51 51 51 51
L.S. 10
BOND
LIST 6
FMAP 2
PLAN 20
N001  3  0.66632  0.52573  0.65395 11.00000  0.02890  10.81
N002  3  0.74960  0.50000  0.63772 10.50000  0.02312  10.55
N003  3  1.00000  0.53155  0.54699 10.50000  0.00010   8.27
N004  3  0.28663  0.50000  0.32085 10.50000  0.02866   7.90
N005  3  0.72466  0.50000  0.61028 10.50000  0.02311   7.83
N006  3  0.50000  0.51885  0.66137 10.50000  0.03103   7.63
C007  2  1.00000  0.33894  0.59231 10.50000  0.06280   7.31
N008  3  0.50000  0.34547  0.58724 10.50000  0.02141   6.86
N009  3  1.00000  0.55706  0.58070 10.50000  0.05434   6.82
N00A  3  0.41988  0.50000  0.31262 10.50000  0.06829   6.71
C00B  2  1.00000  0.50000  0.56806 10.25000  0.04400   6.32
C00C  2  0.87016  0.50000  0.54858 10.50000  0.02873   5.81
C00D  2  0.27856  0.43379  0.30608 11.00000  0.03416   5.57
C00E  2  0.50000  0.00000  0.52056 10.25000  0.02457   5.39
C00F  2  1.00000  0.59460  0.71091 10.50000  0.00010   5.29
C00G  2  0.80499  0.38369  0.58576 11.00000  0.03354   5.23
C00H  2  0.67362  0.50000  0.45231 10.50000  0.03990   5.21
N00I  3  0.50000  0.28781  0.39443 10.50000  0.06524   5.12
C00J  2  0.10115  0.50000  0.29720 10.50000  0.01402   5.08
C00K  2  0.53775  0.50000  0.45026 10.50000  0.02258   4.57
N00L  3  0.50000  0.06895  0.52515 10.50000  0.03525   4.54
N00M  3  0.50000  0.00000  0.39687 10.25000  0.00746   4.41
C00N  2  0.54901  0.40446  0.59961 11.00000  0.03538   4.39
C00O  2  0.50000  0.46313  0.59794 10.50000  0.03378   4.33
C00P  2  0.77460  0.50000  0.72604 10.50000  0.01583   4.30
C00Q  2  0.90403  0.50000  0.64259 10.50000  0.03400   4.23
C00R  2  0.69113  0.42338  0.59006 11.00000  0.02625   4.12
O00S  4  0.50000  0.14129  0.53171 10.50000  0.03675   4.00
C00T  2  0.50000  0.55466  0.72589 10.50000  0.05495   3.95
C00U  2  0.50000  0.46951  0.14397 10.50000  0.00378   3.85
N00V  3  0.85508  0.33300  0.58151 11.00000  0.07256   3.81
C00W  2  1.00000  0.65090  0.69666 10.50000  0.02431   3.80
C00X  2  0.91475  0.50000  0.71307 10.50000  0.00352   3.69
C00Y  2  0.84518  0.43512  0.56648 11.00000  0.07963   3.65
C00Z  2  1.00000  0.64027  0.74186 10.50000  0.02704   3.60
C010  2  0.50000  0.50000  0.18166 10.25000  0.00010   3.50
O011  4  0.00000  0.41024  0.23533 10.50000  0.06384   3.49
C012  2  0.00000  0.33097  0.23467 10.50000  0.02459   3.31
C013  2  0.36698  0.46172  0.13057 11.00000  0.04731   3.29
O014  4  0.81612  0.50000  0.52060 10.50000  0.03517   3.24
N015  3  0.50000  0.65624  0.86943 10.50000  0.07238   3.11
C016  2  0.50000  0.44382  0.43526 10.50000  0.04907   3.02
HKLF 4
END
