TITL temp02_expF_1_2_expS_1_1_temp02_a.res in Imm2
REM Old TITL I222 in Imm2 #44
REM SHELXT solution in Imm2: R1 0.681, Rweak 0.180, Alpha 0.215
REM <I/s>   0.000 for    0 systematic absences,  Orientation as input
REM Flack x = -7.990 ( 1.087 ) from   253 Parsons' quotients
REM Formula found by SHELXT:  C60 N31 O25 Cl36

CELL  0.71073   9.1390  15.1100  30.4810   90.000   90.000   90.000
ZERR   51.000   0.0018   0.0030   0.0061    0.000    0.000    0.000
LATT -2
SYMM -X, -Y, Z
SYMM X, -Y, Z
SYMM -X, Y, Z
SFAC H C N O ZR CL
UNIT 51 51 51 51 51 0
L.S. 10
BOND
LIST 6
FMAP 2
PLAN 20
CL01  6  0.24493  0.50000  0.35857 10.50000  0.02948  21.23
CL02  6  0.05502  0.50000  0.42856 10.50000  0.02303  20.04
CL03  6  0.50000  0.33464  0.30547 10.50000  0.07776  18.80
CL04  6  0.00000  0.40747  0.27481 10.50000  0.02878  18.02
CL05  6  0.27405  0.50000  0.25914 10.50000  0.05063  17.53
CL06  6  0.50000  0.50000  0.56320 10.25000  0.07942  17.41
CL07  6  0.00000  0.50000  0.28222 10.25000  0.06081  17.06
CL08  6  0.17458  0.50000  0.26124 10.50000  0.06555  16.97
CL09  6  0.40154  0.50000  0.36164 10.50000  0.10226  16.49
CL0A  6  0.50000  0.40664  0.29735 10.50000  0.03889  16.01
CL0B  6  0.67776  0.53146  0.55405 11.00000  0.03223  15.72
CL0C  6  0.00000  0.35742  0.30032 10.50000  0.04136  15.64
CL0D  6  0.00000  0.44497  0.41518 10.50000  0.05964  15.18
CL0E  6  0.54671  1.00000  0.45197 10.50000  0.12380  14.65
CL0F  6  0.79546  0.50000  0.56640 10.50000  0.02479  13.57
CL0G  6  0.13396  0.50000  0.42492 10.50000  0.05458  13.48
O00H  4  1.00000  0.54458  0.76213 10.50000  0.00010  12.95
CL0I  6  0.35330  0.39062  0.29302 11.00000  0.03865  12.64
N00J  3  0.50000  0.88033  0.45440 10.50000  0.00010  12.07
O00K  4  0.50000  0.50000  0.32500 10.25000  0.02720  11.96
N00L  3  0.37332  0.50000  0.25061 10.50000  0.00270  11.74
N00M  3  0.16212  0.50000  0.39674 10.50000  0.06077  11.56
O00N  4  1.00000  0.64589  0.62490 10.50000  0.00010  11.47
N00O  3  0.69065  0.50000  0.67486 10.50000  0.02053  11.04
O00P  4  0.09645  0.50000  0.33583 10.50000  0.00010  11.02
O00Q  4  1.00000  1.08667  0.33361 10.50000  0.04005  10.31
O00R  4  0.33662  0.50000  0.42743 10.50000  0.00010   9.43
O00S  4  0.50000  1.00000  0.49622 10.25000  0.00010   9.17
N00T  3  1.11404  1.00000  0.50230 10.50000  0.00424   8.70
N00U  3  1.00000  0.57432  0.62400 10.50000  0.00010   8.64
O00V  4 -0.20092  0.28210  0.21430 11.00000  0.00044   7.93
C00W  2  1.00000  1.00000  0.51576 10.25000  0.08444   7.51
N00X  3  0.28554  0.42682  0.27982 11.00000  0.01123   7.28
N00Y  3  0.61745  0.65896  0.50278 11.00000  0.01772   6.69
N00Z  3  1.00000  0.73507  0.46515 10.50000  0.00184   6.61
N010  3  0.00000  0.29608  0.28284 10.50000  0.01006   6.51
C011  2  1.00000  0.50000  0.79789 10.25000  0.00010   6.43
C012  2  0.89781  1.00000  0.36312 10.50000  0.00010   6.13
C013  2  0.84955  0.53979  0.68071 11.00000  0.00010   6.02
N014  3  0.73522  0.57866  0.68600 11.00000  0.00010   6.02
C015  2  1.00000  0.50000  0.55497 10.25000  0.00010   5.98
C016  2  0.50000  0.50000  0.68683 10.25000  0.00010   5.85
C017  2  1.00000  0.79553  0.62361 10.50000  0.01799   5.70
C018  2  0.50000  0.79108  0.45686 10.50000  0.00010   5.69
C019  2  1.06164  0.95115  0.50559 11.00000  0.00010   5.60
C01A  2  0.66717  1.00000  0.41018 10.50000  0.00010   5.19
C01B  2  1.09380  1.14795  0.34209 11.00000  0.00351   5.13
C01C  2  0.50000  0.73993  0.62769 10.50000  0.00010   5.09
N01D  3  1.00000  0.57354  0.55802 10.50000  0.00010   5.01
O01E  4  0.94916  0.67312  0.48070 11.00000  0.00654   4.99
C01F  2  0.79926  0.50000  0.62752 10.50000  0.00010   4.92
C01G  2  0.50000  0.52545  0.61398 10.50000  0.00010   4.90
N01H  3  0.50000  1.00000  0.65152 10.25000  0.00010   4.87
C01I  2  0.50000  0.25481  0.35670 10.50000  0.00010   4.64
O01J  4  1.00000  0.80912  0.45431 10.50000  0.00181   4.56
C01K  2  1.19195  1.00000  0.52275 10.50000  0.00010   4.54
C01L  2  1.04427  1.00000  0.45372 10.50000  0.11666   4.48
O01M  4  0.50000  0.69365  0.60879 10.50000  0.01361   4.17
C01N  2  0.50000  0.82370  0.56861 10.50000  0.00128   3.95
C01O  2  1.00000  0.69182  0.53119 10.50000  0.00010   3.73
C01P  2  0.50000  0.50000  0.44504 10.50000  0.00942   3.43
C01Q  2  0.50000  0.46206  0.16858 10.50000  0.00010   3.34
C01R  2  0.50000  0.63817  0.49752 10.50000  0.00602   3.34
C01S  2  0.69907  0.81672  0.60302 11.00000  0.04195   3.29
C01T  2  0.78895  0.59756  0.54759 11.00000  0.03679   3.22
C01U  2  0.50000  0.25773  0.24688 10.50000  0.00010   3.15
C01V  2  0.57132  0.70241  0.49354 11.00000  0.00079   3.14
O01W  4  1.00000  0.50000  0.83142 10.25000  0.03709   3.03
HKLF 4
END
