TITL temp02_expF_1_3_expS_1_3_temp02_a.res in Imm2
REM Old TITL I222 in Imm2 #44
REM SHELXT solution in Imm2: R1 0.775, Rweak 0.352, Alpha 0.046
REM <I/s>   0.000 for    0 systematic absences,  Orientation as input
REM Flack x = -9.990 ( 9.990 ) from   204 Parsons' quotients
REM Formula found by SHELXT:  C28 N23 O10

CELL  0.71073   9.1390  15.1100  30.4810   90.000   90.000   90.000
ZERR   51.000   0.0018   0.0030   0.0061    0.000    0.000    0.000
LATT -2
SYMM -X, -Y, Z
SYMM X, -Y, Z
SYMM -X, Y, Z
SFAC H C N O ZR
UNIT 51 51 51 51 51
L.S. 10
BOND
LIST 6
FMAP 2
PLAN 20
N001  3  0.50000  0.50000  0.65915 10.25000  0.03973  12.73
N002  3  0.00000  0.50000  0.51646 10.25000  0.00604  11.75
N003  3  0.50000  0.50000  0.51448 10.25000  0.01403  11.21
O004  4  0.34051  0.50000  0.64658 10.50000  0.05406  10.02
N005  3  0.09778  0.50000  0.52150 10.50000  0.00010   8.98
O006  4  0.00000  0.50000  0.66095 10.25000  0.03788   8.56
O007  4  0.12368  0.50000  0.63646 10.50000  0.01662   7.66
N008  3  0.50000  0.50000  0.59763 10.25000  0.00010   7.49
N009  3  0.13139  1.00000  0.42078 10.50000  0.00010   6.93
O00A  4  0.28885  0.64561  0.58068 11.00000  0.02152   6.68
C00B  2  0.39349  1.00000  0.32895 10.50000  0.00010   6.44
C00C  2  0.00000  1.00000  0.40934 10.25000  0.04507   6.12
C00D  2  0.50000  0.38389  0.38174 10.50000  0.00010   5.92
C00E  2  0.50000  0.44803  0.57048 10.50000  0.00010   5.92
C00F  2 -0.06503  0.50000  0.48225 10.50000  0.01197   5.59
N00G  3  0.33721  0.54126  0.51876 11.00000  0.07433   5.57
N00H  3  0.12434  0.93331  0.42762 11.00000  0.06792   5.40
N00I  3  0.50000  1.00000  0.31146 10.25000  0.01140   5.31
N00J  3  0.50000  0.30560  0.36536 10.50000  0.00010   5.23
O00K  4  0.50000  1.00000  0.45147 10.25000  0.00010   5.11
C00L  2  0.50000  1.00000  0.48578 10.25000  0.00010   5.00
N00M  3  0.00000  0.50000  0.33838 10.25000  0.00010   4.57
C00N  2  0.31641  0.59819  0.59889 11.00000  0.02425   4.49
C00O  2  0.22028  0.50000  0.54521 10.50000  0.01128   4.23
C00P  2  0.92648  1.03234  0.59466 11.00000  0.00010   4.01
C00Q  2  0.25475  0.50000  0.59489 10.50000  0.02216   3.72
N00R  3  0.00000  0.74852  0.36702 10.50000  0.14036   3.72
N00S  3  0.00000  1.00000  0.34351 10.25000  0.00878   3.39
C00T  2  0.34314  1.00000  0.35126 10.50000  0.00010   3.33
C00U  2  0.81902  1.00000  0.59392 10.50000  0.01075   3.14
C00V  2  0.57671  1.00000  0.68854 10.50000  0.00010   3.09
HKLF 4
END
