TITL temp02_expF_1_0_expS_1_0_temp02_a.res in Imm2
REM Old TITL I222 in Imm2 #44
REM SHELXT solution in Imm2: R1 0.599, Rweak 0.209, Alpha 0.266
REM <I/s>   0.000 for    0 systematic absences,  Orientation as input
REM Flack x = -4.765 ( 0.993 ) from   250 Parsons' quotients
REM Formula found by SHELXT:  C16 N12 O2 Cl

CELL  0.71073   9.1390  15.1100  30.4810   90.000   90.000   90.000
ZERR   51.000   0.0018   0.0030   0.0061    0.000    0.000    0.000
LATT -2
SYMM -X, -Y, Z
SYMM X, -Y, Z
SYMM -X, Y, Z
SFAC H C N O ZR CL
UNIT 51 51 51 51 51 0
L.S. 10
BOND
LIST 6
FMAP 2
PLAN 20
CL01  6  0.50000  0.46636  0.52575 10.50000  0.01264  15.27
CL02  6  0.55880  0.50000  0.70642 10.50000  0.04862  14.51
N003  3  0.00000  0.50000  0.61152 10.25000  0.05332  12.21
N004  3  0.35300  0.46512  0.52404 11.00000  0.03022  11.96
N005  3  0.00000  0.50000  0.70629 10.25000  0.12364  11.95
N006  3  0.50000  0.50000  0.59694 10.25000  0.07885  11.80
N007  3  0.15266  0.50000  0.70877 10.50000  0.13016  10.92
N008  3  0.38448  0.45442  0.59600 11.00000  0.04195  10.91
N009  3  0.00000  0.34131  0.41519 10.50000  0.01766  10.50
O00A  4  0.32893  0.65722  0.65136 11.00000  0.01960  10.04
N00B  3  0.50000  0.45123  0.39624 10.50000  0.03956   9.64
N00C  3  0.17966  0.50000  0.59225 10.50000  0.01115   9.32
N00D  3  0.11557 -0.04252  0.49668 11.00000  0.00403   9.12
O00E  4  0.50000  0.50000  0.40979 10.25000  0.06961   8.78
O00F  4  0.00000  0.50000  0.24966 10.25000  0.00010   8.66
N00G  3  0.00000  0.42655  0.39820 10.50000  0.04437   8.50
N00H  3  0.00000  0.47505  0.57846 10.50000  0.04399   8.19
N00I  3  0.14049  0.00000  0.52071 10.50000  0.01172   7.63
N00J  3  0.50000  0.04561  0.44064 10.50000  0.01428   7.39
N00K  3  0.50000  0.00000  0.42305 10.25000  0.01127   6.97
N00L  3  0.00000  0.12045  0.56048 10.50000  0.00010   6.92
N00M  3  0.19117  0.61259  0.65217 11.00000  0.13419   6.82
C00N  2  0.23787  0.50000  0.39343 10.50000  0.00010   6.34
C00O  2  0.00000 -0.02319  0.51027 10.50000  0.00010   6.31
C00P  2  0.00000  0.30727  0.38639 10.50000  0.01473   6.27
C00Q  2  0.21579  0.00000  0.36413 10.50000  0.00010   6.24
C00R  2  0.21086  0.50000  0.69691 10.50000  0.07232   6.23
C00S  2  0.50000  0.23554  0.39817 10.50000  0.00010   6.14
C00T  2  0.50000  0.50000  0.67571 10.25000  0.03272   5.92
C00U  2  0.00000  0.25671  0.44129 10.50000  0.00010   5.88
C00V  2  0.28914  0.50000  0.33445 10.50000  0.02966   5.81
C00W  2  0.00000  0.00000  0.53473 10.25000  0.00010   5.67
C00X  2  0.00000  0.00000  0.42010 10.25000  0.05080   5.42
C00Y  2  0.14687  0.50000  0.65858 10.50000  0.00010   5.40
N00Z  3  0.00000  0.05670  0.54364 10.50000  0.00010   5.36
O010  4  0.50000  0.69105  0.73571 10.50000  0.04878   5.25
C011  2  0.06542  0.50000  0.59224 11.00000  0.05363   4.99
C012  2  0.00000  0.57841  0.67802 10.50000  0.09779   4.79
C013  2  0.50000  0.44333  0.24716 10.50000  0.00010   4.70
C014  2  0.34227  0.06800  0.42688 11.00000  0.03145   4.57
C015  2  0.18551 -0.11859  0.50064 11.00000  0.03612   4.37
C016  2  0.50000  0.35122  0.25402 10.50000  0.03906   4.32
C017  2  0.26067  0.50000  0.65290 10.50000  0.08872   4.27
C018  2  0.50000  0.56273  0.65483 10.50000  0.00010   4.21
C019  2  0.50000  0.82489  0.60216 10.50000  0.02225   4.19
C01A  2  0.50000  0.72164  0.63585 10.50000  0.02522   4.02
C01B  2  0.14812  0.46746  0.43299 11.00000  0.08380   3.96
C01C  2  0.00000  0.51727  0.64808 10.50000  0.04883   3.95
N01D  3  0.06331 -0.03305  0.36526 11.00000  0.06819   3.95
N01E  3  0.37813  0.00000  0.44324 10.50000  0.14916   3.92
C01F  2  0.50000  0.73925  0.75284 10.50000  0.00010   3.83
C01G  2  0.00000  0.00000  0.33538 10.25000  0.13111   3.75
C01H  2  0.45286  0.00000  0.48569 10.50000  0.00082   3.67
C01I  2  0.50000  0.34574  0.38440 10.50000  0.00484   3.62
N01J  3  0.50000  0.28904  0.27100 10.50000  0.05697   3.57
C01K  2  0.30739 -0.10688  0.49898 11.00000  0.00010   3.06
HKLF 4
END
