TITL temp02_expF_1_5_expS_1_2_temp02_a.res in Imm2
REM Old TITL I222 in Imm2 #44
REM SHELXT solution in Imm2: R1 0.836, Rweak 0.477, Alpha 0.046
REM <I/s>   0.000 for    0 systematic absences,  Orientation as input
REM Flack x = -3.195 ( 0.928 ) from   185 Parsons' quotients
REM Formula found by SHELXT:  C30 N39 O7 Cl9

CELL  0.71073   9.1390  15.1100  30.4810   90.000   90.000   90.000
ZERR   51.000   0.0018   0.0030   0.0061    0.000    0.000    0.000
LATT -2
SYMM -X, -Y, Z
SYMM X, -Y, Z
SYMM -X, Y, Z
SFAC H C N O ZR CL
UNIT 51 51 51 51 51 0
L.S. 10
BOND
LIST 6
FMAP 2
PLAN 20
CL01  6  0.78717  0.50000  0.25652 10.50000  0.07996  15.93
CL02  6  0.87774  0.50000  0.29238 10.50000  0.06842  15.03
CL03  6  1.00000  0.53031  0.30264 10.50000  0.04111  14.99
CL04  6  0.91001  0.50000  0.25114 10.50000  0.06983  14.43
CL05  6  1.00000  0.50000  0.27797 10.25000  0.12096  14.37
O006  4  0.66770  0.50000  0.23392 10.50000  0.06146  12.03
N007  3  0.84509  0.50000  0.56515 10.50000  0.04226  11.87
N008  3  0.73158  0.50000  0.29108 10.50000  0.01719  11.80
N009  3  0.72230  0.50000  0.57848 10.50000  0.08512  11.23
N00A  3  0.87583  0.56726  0.29646 11.00000  0.03107  11.21
C00B  2  0.50000  0.45648  0.16943 10.50000  0.01740   9.87
N00C  3  0.84724  0.55985  0.58110 11.00000  0.03390   9.69
C00D  2  1.00000  0.68763  0.49238 10.50000  0.05759   9.13
N00E  3  0.74937  0.56911  0.30234 11.00000  0.02211   8.80
N00F  3  0.89252  0.50000  0.43170 10.50000  0.08114   8.75
C00G  2  0.75242  0.50000  0.43300 10.50000  0.02077   8.50
N00H  3  1.00000  0.50000  0.57501 10.25000  0.00010   8.50
O00I  4  0.57487  0.50000  0.41841 10.50000  0.03814   8.11
O00J  4  0.50000  0.50000  0.55595 10.25000  0.07103   7.82
O00K  4  1.00000  0.63815  0.52167 10.50000  0.10842   7.50
N00L  3  0.50000  0.50000  0.24078 10.25000  0.00082   7.39
N00M  3  1.00000  0.70145  0.30500 10.50000  0.03545   7.21
N00N  3  0.68452  0.50000  0.16782 10.50000  0.08250   6.97
C00O  2  1.00000  0.93450  0.37065 10.50000  0.00010   6.77
N00P  3  0.90372  0.62581  0.30483 11.00000  0.12077   6.73
C00Q  2  1.00000  0.50000  0.76324 10.25000  0.07130   6.63
C00R  2  0.50000  0.50000  0.36044 10.25000  0.00010   6.61
C00S  2  0.56353  0.50000  0.69370 10.50000  0.01792   6.20
C00T  2  1.00000  0.96182  0.49647 10.50000  0.03727   5.88
C00U  2  1.00000  1.00000  0.51111 10.25000  0.04760   5.76
C00V  2  1.00000  0.43438  0.17290 10.50000  0.11391   5.74
C00W  2  1.00000  0.50000  0.36183 10.25000  0.00010   5.30
N00X  3  0.83903  0.50000  0.78730 10.50000  0.16831   5.26
C00Y  2  1.00000  0.81763  0.34604 10.50000  0.02064   5.11
N00Z  3  0.50000  0.21016  0.52734 10.50000  0.02935   5.10
N010  3  0.65947  0.50000  0.35738 10.50000  0.08034   4.94
C011  2  1.00000  0.50000  0.83218 10.25000  0.00010   4.93
N012  3  1.00000  0.73689  0.36044 10.50000  0.00010   4.00
C013  2  0.50000  0.62955  0.30130 10.50000  0.01093   3.69
C014  2  1.00000  0.50000  0.61248 10.25000  0.00010   3.65
C015  2  0.50000  0.50000  0.52245 10.50000  0.10849   3.55
C016  2  1.00000  0.71785  0.56517 10.50000  0.00748   3.43
N017  3  0.50000  0.00000  0.48386 10.25000  0.00010   3.28
C018  2  0.50000  0.73692  0.34978 10.50000  0.02790   3.03
HKLF 4
END
