TITL temp02_expF_1_1_expS_0_7_temp02_a.res in Imm2
REM Old TITL I222 in Imm2 #44
REM SHELXT solution in Imm2: R1 0.932, Rweak 0.365, Alpha 0.117
REM <I/s>   0.000 for    0 systematic absences,  Orientation as input
REM Flack x = -9.990 ( 9.990 ) from   444 Parsons' quotients
REM Formula found by SHELXT:  C37 N15 O2

CELL  0.71073   9.1390  15.1100  30.4810   90.000   90.000   90.000
ZERR   51.000   0.0018   0.0030   0.0061    0.000    0.000    0.000
LATT -2
SYMM -X, -Y, Z
SYMM X, -Y, Z
SYMM -X, Y, Z
SFAC H C N O ZR
UNIT 51 51 51 51 51
L.S. 10
BOND
LIST 6
FMAP 2
PLAN 20
O001  4  0.16752  0.50000  0.35176 10.50000  0.00803   9.18
N002  3  0.66897  0.50000  0.62503 10.50000  0.15156   9.08
N003  3  1.00000  0.50000  0.76136 10.25000  0.00927   8.64
C004  2  0.50000  0.50000  0.65188 10.50000  0.25692   8.27
N005  3  0.32047  0.57364  0.36560 11.00000  0.03228   7.68
N006  3  0.80626  0.50000  0.46457 10.50000  0.00905   6.75
C007  2  0.50000  0.34558  0.58415 10.50000  0.00393   5.95
C008  2  0.50000  0.50000  0.24219 10.25000  0.21350   5.94
C009  2  0.00000  0.48086  0.21094 10.50000  0.18022   5.84
N00A  3  0.65798  0.50000  0.51123 10.50000  0.03682   5.73
C00B  2  0.66708  0.50000  0.45959 10.50000  0.01971   5.63
C00C  2  1.07054  0.55549  0.73883 11.00000  0.00010   5.47
C00D  2  0.32881  0.00000  0.53521 10.50000  0.11823   5.44
C00E  2  0.50000  0.53208  0.38261 10.50000  0.00360   5.08
C00F  2  1.00000  0.50000  0.66373 10.50000  0.00010   4.79
C00G  2  1.00000  0.50000  0.74659 10.50000  0.00160   4.51
C00H  2  1.00000  0.50000  0.53142 10.50000  0.09142   4.44
N00I  3  0.50000  0.21779  0.44474 10.50000  0.06884   4.24
C00J  2  0.50000  0.50000  0.65404 10.50000  0.05977   4.12
C00K  2  0.00000  0.50000  0.28778 10.50000  0.02456   3.99
C00L  2  0.50000  0.28261  0.54823 10.50000  0.01798   3.98
C00M  2  1.00000  0.56695  0.78906 10.50000  0.00010   3.78
C00N  2  1.35919  0.50000  0.78314 10.50000  0.00909   3.30
N00O  3  1.00000  0.72800  0.54885 10.50000  0.00010   3.17
C00P  2  0.87821  0.50000  0.47412 10.50000  0.06218   3.13
C00Q  2  0.00000  0.31276  0.24672 10.50000  0.17105   3.08
HKLF 4
END
