TITL temp02_expF_1_1_expS_1_0_temp02_a.res in Imm2
REM Old TITL I222 in Imm2 #44
REM SHELXT solution in Imm2: R1 0.650, Rweak 0.345, Alpha 0.270
REM <I/s>   0.000 for    0 systematic absences,  Orientation a'=c, b'=a, c'=b
REM Flack x = -9.990 ( 9.990 ) from   251 Parsons' quotients
REM Formula found by SHELXT:  C92 N27 O6

CELL  0.71073  30.4810   9.1390  15.1100   90.000   90.000   90.000
ZERR   51.000   0.0061   0.0018   0.0030    0.000    0.000    0.000
LATT -2
SYMM -X, -Y, Z
SYMM X, -Y, Z
SYMM -X, Y, Z
SFAC H C N O ZR
UNIT 51 51 51 51 51
L.S. 10
BOND
LIST 6
FMAP 2
PLAN 20
N001  3  0.50000  0.76787  0.64338 10.50000  0.04547  14.88
N002  3  0.45335  0.50000  0.48941 10.50000  0.03940  14.10
N003  3  0.50000  1.00000  0.58693 10.25000  0.00010  13.90
N004  3  0.48566  1.00000  0.46494 10.50000  0.06643  12.38
N005  3  0.50000  0.83137  0.60434 10.50000  0.03885  11.48
N006  3  0.50000  0.76603  0.55324 10.50000  0.01018  11.15
N007  3  0.48814  1.00000  0.53205 10.50000  0.00010  10.75
N008  3  0.50000  1.00000  0.65519 10.25000  0.00898  10.20
N009  3  0.44234  1.00000  0.02979 10.50000  0.01079  10.09
N00A  3  0.43804  0.91720  0.48969 11.00000  0.06046   9.22
O00B  4  0.36615  0.50000  0.66255 10.50000  0.08426   8.93
O00C  4  0.50000  0.27127  0.33055 10.50000  0.00592   8.62
N00D  3  0.50000  0.55132  0.61602 10.50000  0.00215   8.01
O00E  4  0.24273  1.00000  1.01575 10.50000  0.16237   7.89
N00F  3  0.31129  1.00000  0.30076 10.50000  0.03016   7.17
C00G  2  0.40100  1.00000  0.07567 10.50000  0.02430   7.16
C00H  2  0.42430  1.04189  0.05175 11.00000  0.03991   6.87
C00I  2  0.43641  0.36410  0.48372 11.00000  0.07433   6.26
C00J  2  0.28740  1.00000  0.20538 10.50000  0.03302   6.21
C00K  2  0.39231  0.44811  0.50682 11.00000  0.04852   6.05
C00L  2  0.25716  1.00000  0.25428 10.50000  0.01680   5.97
C00M  2  0.21448  0.95172  0.54776 11.00000  0.01825   5.77
C00N  2  0.37958  0.29571  0.63778 11.00000  0.01396   5.73
C00O  2  0.50000  0.59334  0.55610 10.50000  0.04644   5.55
C00P  2  0.42017  0.50000  0.27250 10.50000  0.00010   5.27
C00Q  2  0.22494  1.00000  0.60508 10.50000  0.00010   4.88
C00R  2  0.50000  0.32332  0.27137 10.50000  0.04636   4.26
C00S  2  0.39534  1.00000  0.27803 10.50000  0.01885   4.18
C00T  2  0.23173  1.00000  0.78524 10.50000  0.06658   4.16
N00U  3  0.15665  1.00000  0.52680 10.50000  0.06350   4.09
C00V  2  0.26385  1.05820  0.47715 11.00000  0.06280   4.01
C00W  2  0.17382  0.88705  0.50512 11.00000  0.05948   3.94
C00X  2  0.50000  0.50000  0.49794 10.50000  0.02511   3.90
C00Y  2  0.22752  0.90674  0.45682 11.00000  0.05975   3.85
C00Z  2  0.15795  0.81569  0.45349 11.00000  0.05263   3.76
C010  2  0.44735  0.26063  0.44645 11.00000  0.00518   3.73
C011  2  0.21644  1.00000  0.33491 10.50000  0.01481   3.71
C012  2  0.24297  1.00000  0.43872 10.50000  0.00517   3.68
C013  2  0.41553  1.00000  0.22145 10.50000  0.00010   3.68
C014  2  0.21762  1.00000  0.66571 10.50000  0.04625   3.65
N015  3  0.50000  0.50000 -0.01575 10.25000  0.05926   3.64
C016  2  0.24281  0.79628  0.50902 11.00000  0.03493   3.53
C017  2  0.24812  1.00000  0.56852 10.50000  0.00710   3.47
C018  2  0.42178  0.50000  0.41403 10.50000  0.12506   3.42
C019  2  0.40723  1.00000  0.15162 10.50000  0.00024   3.37
C01A  2  0.27756  0.83676  0.29913 11.00000  0.00835   3.33
C01B  2  0.25484  1.00000  0.86228 10.50000  0.13597   3.30
C01C  2  0.30868  0.88850  0.27789 11.00000  0.00010   3.22
C01D  2  0.21205  1.16276  0.72588 11.00000  0.09626   3.08
HKLF 4
END
