TITL temp02_expF_1_5_expS_0_8_temp02_a.res in Imm2
REM Old TITL I222 in Imm2 #44
REM SHELXT solution in Imm2: R1 0.852, Rweak 0.156, Alpha 0.040
REM <I/s>   0.000 for    0 systematic absences,  Orientation as input
REM Flack x = -9.990 ( 9.990 ) from   300 Parsons' quotients
REM Formula found by SHELXT:  C54 N25 O5

CELL  0.71073   9.1390  15.1100  30.4810   90.000   90.000   90.000
ZERR   51.000   0.0018   0.0030   0.0061    0.000    0.000    0.000
LATT -2
SYMM -X, -Y, Z
SYMM X, -Y, Z
SYMM -X, Y, Z
SFAC H C N O ZR
UNIT 51 51 51 51 51
L.S. 10
BOND
LIST 6
FMAP 2
PLAN 20
N001  3  0.50000  0.50000  0.52470 10.25000  0.09905  11.13
N002  3  0.50000  0.50000  0.36128 10.25000  0.12310  11.03
N003  3  0.11172  0.50000  0.43426 10.50000  0.01794  10.21
O004  4  0.24118  0.50000  0.44833 10.50000  0.05772   9.78
N005  3  0.15936  0.50000  0.66800 10.50000  0.07342   9.72
O006  4  0.73837  0.50000  0.78165 10.50000  0.01376   9.58
C007  2  0.84224  0.50000  0.77802 10.50000  0.10844   8.74
N008  3  0.38877  0.50000  0.37417 10.50000  0.09035   8.49
N009  3  0.50000  0.55441  0.36671 10.50000  0.07049   8.41
O00A  4  0.00000  0.50000  0.64268 10.25000  0.03933   8.38
C00B  2  0.29208  0.50000  0.65027 10.50000  0.08058   8.30
C00C  2  0.37213  0.50000  0.49953 10.50000  0.03343   7.93
N00D  3  0.20966  0.50000  0.49641 10.50000  0.02888   7.42
C00E  2  0.00000  0.55263  0.38512 10.50000  0.02012   6.72
N00F  3  0.50000  0.67548  0.73003 10.50000  0.02264   6.67
C00G  2  0.00000  0.50000  0.44009 10.50000  0.13143   6.61
N00H  3  1.00000  0.64763  0.72330 10.50000  0.08374   6.51
C00I  2  0.00000  0.50000  0.37219 10.25000  0.05973   6.06
C00J  2  0.50000  0.54950  0.83658 10.50000  0.04411   6.04
C00K  2  0.32979  0.50000  0.37067 10.50000  0.08961   5.90
N00L  3  0.06674  0.50000  0.39913 10.50000  0.11049   5.69
C00M  2  0.00000  0.68995  0.39988 10.50000  0.03936   5.68
C00N  2  0.50000  0.50000  0.07442 10.25000  0.12627   5.54
C00O  2  0.50000  0.50000  0.65713 10.25000  0.02825   4.90
C00P  2  0.50000  0.37939  0.03883 10.50000  0.03657   4.84
C00Q  2  0.50000  0.60330  0.70735 10.50000  0.06230   4.64
C00R  2  0.50000  0.53074  0.58393 10.50000  0.00337   4.53
C00S  2  0.54501  0.50000  0.85385 10.50000  0.01523   4.49
C00T  2  1.00000  0.50000  0.80305 10.25000  0.18150   4.48
C00U  2  0.50000  0.50000  0.43446 10.25000  0.12969   4.40
C00V  2  0.57411  0.66949  0.71120 11.00000  0.10047   4.30
N00W  3  0.50000  0.39542  0.06013 10.50000  0.09562   4.30
C00X  2  0.50000  0.50000  0.88878 10.25000  0.00200   4.11
C00Y  2  0.50000  0.50000  0.11527 10.25000  0.13765   4.05
C00Z  2  0.44961  0.64075  0.55247 11.00000  0.08483   3.88
C010  2  0.87805  0.50000  0.15930 10.50000  0.08252   3.73
N011  3  0.50000  0.60982  0.57699 10.50000  0.05833   3.69
N012  3  0.84567  0.50000  0.96117 10.50000  0.00280   3.66
C013  2  0.50000  0.50000  0.82711 10.25000  0.01303   3.54
C014  2  0.32714  0.50000  0.32028 10.50000  0.04716   3.52
C015  2  0.00000  0.50000  0.50042 10.50000  0.07508   3.43
C016  2  0.67623  0.65750  0.71958 11.00000  0.02785   3.43
C017  2  0.50000  0.70665  0.56272 10.50000  0.12620   3.37
C018  2  0.96010  0.50000  0.96098 10.50000  0.03822   3.28
N019  3  0.50000  0.50000  0.23340 10.25000  0.02466   3.27
HKLF 4
END
