TITL temp02_expF_1_0_expS_0_6_temp02_a.res in Imm2
REM Old TITL I222 in Imm2 #44
REM SHELXT solution in Imm2: R1 0.794, Rweak 0.137, Alpha 0.272
REM <I/s>   0.000 for    0 systematic absences,  Orientation as input
REM Flack x = -7.820 ( 0.782 ) from   475 Parsons' quotients
REM Formula found by SHELXT:  C74 N31 O5 Cl9

CELL  0.71073   9.1390  15.1100  30.4810   90.000   90.000   90.000
ZERR   51.000   0.0018   0.0030   0.0061    0.000    0.000    0.000
LATT -2
SYMM -X, -Y, Z
SYMM X, -Y, Z
SYMM -X, Y, Z
SFAC H C N O ZR CL
UNIT 51 51 51 51 51 0
L.S. 10
BOND
LIST 6
FMAP 2
PLAN 20
CL01  6  0.12473  0.50000  0.46501 10.50000  0.18849  20.13
CL02  6  0.50000  0.53490  0.45408 10.50000  0.00010  19.68
CL03  6  0.50000  0.50000  0.17286 10.25000  0.02054  16.34
CL04  6  0.00000  0.50000  0.45195 10.25000  0.16512  15.37
CL05  6  0.00000  0.50000  0.56693 10.25000  0.07056  14.04
CL06  6  0.32114  0.50000  0.46342 10.50000  0.09379  13.09
N007  3  0.58072  0.50000  0.64186 10.50000  0.08847  12.27
O008  4  0.16611  0.50000  0.48079 10.50000  0.00419  11.79
N009  3  0.50000  0.50000  0.62593 10.25000  0.19538  11.13
N00A  3  0.00000  0.25023  0.60696 10.50000  0.00662   8.32
O00B  4  0.50000  0.50000  0.77395 10.25000  0.00010   7.89
O00C  4  0.50000  0.76388  0.93470 10.50000  0.03519   7.85
C00D  2  0.50000  1.00000  0.69645 10.25000  0.00010   7.53
N00E  3  0.39652  0.50000  0.15493 10.50000  0.02879   7.32
N00F  3  0.50000  0.50000  0.67734 10.50000  0.03819   7.15
N00G  3  0.50000  0.50000  0.34330 10.50000  0.13380   6.99
N00H  3  0.38904  0.64679  0.51276 11.00000  0.17615   6.98
N00I  3  1.00000  0.71714  0.74784 10.50000  0.04948   6.84
C00J  2  0.31091  0.65794  0.52321 11.00000  0.09484   6.41
N00K  3  0.32072  1.00000  0.36753 10.50000  0.24523   6.19
C00L  2  0.50000  0.50000  0.36213 10.25000  0.13245   5.98
C00M  2  0.00000  0.29568  0.60999 10.50000  0.05515   5.87
C00N  2  0.23421  1.00000  0.45217 10.50000  0.28928   5.79
N00O  3  1.00000  0.50000  0.72509 10.50000  0.18495   5.66
C00P  2  0.50000  0.50000  0.06530 10.50000  0.15595   5.65
C00Q  2  0.50000  0.50000  0.28230 10.50000  0.16298   5.64
C00R  2  0.50000  0.69500  0.54099 10.50000  0.01557   5.45
N00S  3  0.09818  0.50000  0.59912 11.00000  0.02618   5.44
C00T  2  0.90524  0.81727  0.72912 11.00000  0.00803   5.40
C00U  2  1.00000  0.67229  0.78450 10.50000  0.03469   5.40
C00V  2  1.00000  0.50000  0.74086 10.50000  0.25269   5.32
C00W  2  0.50000  0.83755  0.57471 10.50000  0.27697   5.20
N00X  3  0.50000  1.00000  0.77534 10.50000  0.11490   4.66
C00Y  2  0.74654  0.50000  0.68378 10.50000  0.00010   4.59
C00Z  2  0.00000  0.50000  0.46458 10.25000  0.13831   4.58
N010  3  0.50000  0.75910  0.45327 10.50000  0.19571   4.38
C011  2  0.50000  0.68717  0.92658 10.50000  0.15382   4.32
C012  2  0.00000  0.50000  0.46856 10.50000  0.19342   4.29
C013  2  0.50000  0.77447  0.67032 10.50000  0.20741   4.17
C014  2  0.50000  0.61400  0.85093 10.50000  0.00010   4.10
C015  2  0.00000  0.50000  0.45714 10.25000  0.14475   4.09
C016  2  0.25220  0.50000  0.51052 11.00000  0.03386   4.04
C017  2  0.26823  0.57923  0.53314 11.00000  0.03402   4.00
C018  2  1.00000  0.70240  0.79699 10.50000  0.02786   3.78
C019  2  0.50000  0.58642  0.46260 10.50000  0.09005   3.76
C01A  2  0.50000  1.12789  0.81899 10.50000  0.03172   3.69
C01B  2  0.50000  0.50000  0.36404 10.50000  0.13001   3.55
C01C  2  0.50000  0.50000  0.72445 10.25000  0.09312   3.44
C01D  2  0.70068  0.77290  0.70140 11.00000  0.00182   3.38
N01E  3  0.50000  0.62555  0.55940 10.50000  0.00034   3.27
C01F  2  0.36770  0.87590  0.51642 11.00000  0.01058   3.27
C01G  2  0.50000  0.50000  0.10590 10.25000  0.19447   3.18
C01H  2  0.50000  0.50000  0.35333 11.00000  0.21799   3.15
C01I  2  0.50000  0.83574  0.62423 10.50000  0.20327   3.02
C01J  2  0.15586  0.80974  0.51640 11.00000  0.12049   3.01
HKLF 4
END
