TITL temp02_expF_1_2_expS_1_0_temp02_a.res in Imm2
REM Old TITL I222 in Imm2 #44
REM SHELXT solution in Imm2: R1 0.731, Rweak 0.434, Alpha 0.192
REM <I/s>   0.000 for    0 systematic absences,  Orientation as input
REM Flack x = -6.953 ( 9.990 ) from   262 Parsons' quotients
REM Formula found by SHELXT:  C49 N20 O6

CELL  0.71073   9.1390  15.1100  30.4810   90.000   90.000   90.000
ZERR   51.000   0.0018   0.0030   0.0061    0.000    0.000    0.000
LATT -2
SYMM -X, -Y, Z
SYMM X, -Y, Z
SYMM -X, Y, Z
SFAC H C N O ZR
UNIT 51 51 51 51 51
L.S. 10
BOND
LIST 6
FMAP 2
PLAN 20
N001  3  0.36429  0.50000  0.44732 10.50000  0.00010  12.76
N002  3  0.50000  0.53808  0.43451 10.50000  0.00010  10.18
N003  3  0.25646  0.50000  0.44085 10.50000  0.02801  10.01
O004  4  0.20139  0.50000  0.33064 10.50000  0.03767   9.02
N005  3  1.00000  1.00000  0.61732 10.25000  0.00010   8.66
O006  4  0.50000  0.63265  0.39706 10.50000  0.02039   7.58
N007  3  0.37816  0.54980  0.45064 11.00000  0.01447   7.21
O008  4  0.50000  0.54464  0.73170 10.50000  0.01232   6.59
N009  3  0.00000  0.50000  0.31308 10.25000  0.01656   6.37
C00A  2  0.38189  0.50000  0.61190 10.50000  0.03141   6.20
C00B  2  0.00000  0.38268  0.36467 10.50000  0.04224   6.09
C00C  2  0.32478  0.50000  0.31973 10.50000  0.10392   6.08
C00D  2  0.00000  0.50000  0.37546 10.25000  0.02418   5.74
C00E  2  0.50000  0.90068  0.53673 10.50000  0.02567   5.38
C00F  2  0.50000  0.50000  0.62920 10.25000  0.20486   5.22
C00G  2  0.06278  0.50000  0.70927 10.50000  0.00010   5.16
C00H  2  0.27339  1.00000  0.49705 10.50000  0.00010   4.86
C00I  2  0.24395  0.50000  0.71622 10.50000  0.09950   4.54
C00J  2  0.90811  1.02344  0.61716 11.00000  0.02525   4.49
N00K  3  0.50000  1.00000  0.36776 10.25000  0.01194   4.39
C00L  2  0.00000  0.31682  0.70198 10.50000  0.03049   4.39
C00M  2  0.30284  0.50000  0.50844 10.50000  0.02518   4.31
C00N  2  0.00000  0.50000  0.57538 10.50000  0.03728   4.29
N00O  3  0.00000  0.50000  0.47278 10.25000  0.00010   4.22
C00P  2  0.50000  1.00000  0.54672 10.50000  0.07825   4.00
C00Q  2  0.14573  0.50000  0.38696 10.50000  0.00010   3.98
C00R  2  0.50000  0.70464  0.45818 10.50000  0.05676   3.73
C00S  2  1.00000  1.00000  0.64712 10.50000  0.05531   3.67
N00T  3  0.32914  0.50000  0.72807 10.50000  0.13897   3.66
C00U  2  0.50000  0.93879  0.55473 10.50000  0.00010   3.62
C00V  2  0.50000  0.55859  0.31262 10.50000  0.04272   3.59
C00W  2  0.00000  1.00000  0.41714 10.25000  0.00010   3.59
C00X  2  0.00000  0.29762  0.72269 10.50000  0.00010   3.44
C00Y  2  0.00000  0.50000  0.54701 10.25000  0.00010   3.41
C00Z  2  0.00000  0.50000  0.33379 10.25000  0.13087   3.41
N010  3  0.00000  0.34305  0.26830 10.50000  0.00289   3.37
N011  3  0.50000  0.39010  0.59088 10.50000  0.07655   3.37
C012  2  0.38832  0.50000  0.63728 10.50000  0.10439   3.33
C013  2  0.50000  1.00000  0.57274 10.50000  0.00010   3.16
C014  2  0.00000  1.16176  0.43742 10.50000  0.03447   3.14
HKLF 4
END
