TITL temp02_expF_1_1_expS_1_1_temp02_b.res in Imm2
REM Old TITL I222 in Imm2 #44
REM SHELXT solution in Imm2: R1 0.676, Rweak 0.397, Alpha 0.298
REM <I/s>   0.000 for    0 systematic absences,  Orientation as input
REM Flack x = -3.147 ( 1.647 ) from   250 Parsons' quotients
REM Formula found by SHELXT:  C64 N23 O15 Cl12

CELL  0.71073   9.1390  15.1100  30.4810   90.000   90.000   90.000
ZERR   51.000   0.0018   0.0030   0.0061    0.000    0.000    0.000
LATT -2
SYMM -X, -Y, Z
SYMM X, -Y, Z
SYMM -X, Y, Z
SFAC H C N O ZR CL
UNIT 51 51 51 51 51 0
L.S. 10
BOND
LIST 6
FMAP 2
PLAN 20
CL01  6  0.87297  0.50000  0.34286 10.50000  0.08181  21.20
CL02  6  1.00000  0.50000  0.34143 10.25000  0.01683  17.44
CL03  6  0.31218  0.50000  0.21757 10.50000  0.02747  17.20
CL04  6  0.71441  0.50000  0.33390 10.50000  0.06028  16.55
CL05  6  0.18410  0.50000  0.22381 10.50000  0.04164  16.17
CL06  6  0.50000  0.50000  0.32061 10.25000  0.00064  15.07
CL07  6  0.50000  0.96270  0.56448 10.50000  0.06799  14.11
O008  4  0.00000  0.37910  0.26978 10.50000  0.00703  12.68
N009  3  0.50000  0.46032  0.21027 10.50000  0.00010  12.30
O00A  4  0.83725  0.50000  0.53695 10.50000  0.00010  11.56
C00B  2  0.00000  0.87716  0.42951 10.50000  0.00010  10.14
C00C  2  0.00000  1.00000  0.43923 10.50000  0.04801  10.09
N00D  3  0.00000  0.30579  0.26669 10.50000  0.02383   9.44
C00E  2  0.50000  0.50000  0.62090 10.25000  0.09129   9.11
N00F  3  0.44780  0.35431  0.26417 11.00000  0.00010   8.62
O00G  4  0.50000  0.50000  0.64754 10.25000  0.13425   8.18
O00H  4  0.50000  0.66521  0.45797 10.50000  0.00010   8.03
N00I  3  0.00000  1.00000  0.46383 10.25000  0.04507   7.35
C00J  2  0.35993  0.45308  0.24614 11.00000  0.04026   7.25
N00K  3  1.00000  0.50000  0.58498 10.25000  0.00010   7.09
N00L  3  0.50000  0.50000  0.75494 10.25000  0.00512   7.08
C00M  2  0.50000  0.50000  0.78973 10.25000  0.00010   6.74
C00N  2  0.40834  0.44043  0.27517 11.00000  0.00010   6.67
C00O  2  0.50000  1.00000  0.50450 10.25000  0.11918   6.44
C00P  2  0.50000  0.58609  0.76244 10.50000  0.05490   6.28
C00Q  2  1.00000  0.64023  0.62689 10.50000  0.00631   6.28
C00R  2  0.62233  1.00000  0.57991 10.50000  0.02916   6.18
C00S  2  0.50000  0.72976  0.57540 10.50000  0.00010   5.81
O00T  4  0.13667  0.34843  0.28120 11.00000  0.00010   5.62
C00U  2  0.50000  0.66813  0.61814 10.50000  0.00010   5.49
C00V  2  0.50000  0.74959  0.44046 10.50000  0.00010   5.35
C00W  2  0.00000  0.41854  0.22276 10.50000  0.00010   5.26
C00X  2  0.67757  0.50000  0.38281 10.50000  0.00010   5.13
N00Y  3  0.69567  0.50000  0.40933 10.50000  0.00150   5.08
N00Z  3  0.00000  0.80918  0.43287 10.50000  0.05058   4.98
C010  2  0.70621  0.55957  0.66630 11.00000  0.00010   4.76
N011  3  0.73712  0.50000  0.67943 10.50000  0.02968   4.67
O012  4  0.50000  0.53009  0.58234 10.50000  0.03026   4.51
C013  2  0.75053  0.75771  0.51740 11.00000  0.02222   4.44
C014  2  0.26490  1.00000  0.43463 10.50000  0.00411   4.42
C015  2  0.76254  0.79070  0.56310 11.00000  0.02674   4.08
C016  2  0.50000  0.50000  0.41862 10.25000  0.02553   3.90
N017  3  0.93922  0.50000  0.39162 10.50000  0.13361   3.86
N018  3  0.92621  0.82022  0.57911 11.00000  0.00910   3.72
C019  2  0.12468  1.00000  0.44218 10.50000  0.12790   3.64
C01A  2  0.84090  0.76673  0.55600 11.00000  0.02599   3.49
O01B  4  0.50000  0.79535  0.58886 10.50000  0.05550   3.43
C01C  2  0.82289  0.50000  0.51060 10.50000  0.00713   3.34
C01D  2  0.19450  0.50000  0.27210 10.50000  0.03962   3.34
C01E  2  0.31584  0.39582  0.27001 11.00000  0.03156   3.28
C01F  2  0.82247  0.60918  0.68079 11.00000  0.00010   3.08
HKLF 4
END
