TITL temp02_expF_1_1_expS_1_2_temp02_b.res in Imm2
REM Old TITL I222 in Imm2 #44
REM SHELXT solution in Imm2: R1 0.710, Rweak 0.103, Alpha 0.243
REM <I/s>   0.000 for    0 systematic absences,  Orientation a'=c, b'=a, c'=b
REM Flack x = -0.381 ( 0.625 ) from   237 Parsons' quotients
REM Formula found by SHELXT:  C44 N61 O33 Zr12

CELL  0.71073  30.4810   9.1390  15.1100   90.000   90.000   90.000
ZERR   51.000   0.0061   0.0018   0.0030    0.000    0.000    0.000
LATT -2
SYMM -X, -Y, Z
SYMM X, -Y, Z
SYMM -X, Y, Z
SFAC H C N O ZR
UNIT 51 51 51 51 51
L.S. 10
BOND
LIST 6
FMAP 2
PLAN 20
ZR01  5  0.50000  1.00000  0.44168 10.25000  0.14963  28.15
ZR02  5  0.34682  0.50000  0.20580 10.50000  0.11071  25.83
ZR03  5  0.50000  1.00000  0.76249 10.25000  0.00010  25.22
ZR04  5  0.56091  0.62956  0.58405 11.00000  0.10178  25.15
ZR05  5  0.55553  0.79449  0.62027 11.00000  0.06457  24.48
O006  4  0.45205  0.50000  0.15871 10.50000  0.15529  20.74
N007  3  0.32196  0.50000  0.10854 11.00000  0.01417  18.91
N008  3  0.50000  0.50000  0.68061 10.25000  0.00010  18.80
N009  3  0.50000  0.50000  0.68061 10.25000  0.00010  17.83
N00A  3  0.58106  0.50000  0.57769 10.50000  0.01447  17.40
N00B  3  0.20221  0.50000  1.04120 10.50000  0.00010  17.28
N00C  3  0.50000  1.00000  0.70264 10.25000  0.00010  17.01
O00D  4  0.17712  0.50000  1.05942 10.50000  0.00548  16.11
O00E  4  0.54871  1.00000  0.58774 10.50000  0.01128  15.91
N00F  3  0.27404  0.50000  0.76911 10.50000  0.00010  15.11
O00G  4  0.50000  0.82840  0.41662 10.50000  0.03761  14.82
O00H  4  0.32104  0.50000  0.17009 10.50000  0.00010  14.18
O00I  4  0.57102  1.00000  0.64275 10.50000  0.03396  14.15
O00J  4  0.14973  0.50000  0.98138 10.50000  0.07307  13.55
N00K  3  0.38868  0.50000  0.00583 10.50000  0.00010  13.16
O00L  4  0.26004  0.66322  0.63096 11.00000  0.02747  12.44
N00M  3  0.50000  0.50000  0.41354 10.25000  0.00010  11.80
O00N  4  0.50000  0.61945  0.48189 10.50000  0.21527  11.75
O00O  4  0.64970  1.00000  0.92475 10.50000  0.02854  10.98
N00P  3  0.50000  0.50000  0.58327 10.50000  0.10440  10.54
N00Q  3  0.51944  0.50000  0.65522 10.50000  0.00010   9.45
N00R  3  0.27552  0.50000  0.15180 10.50000  0.04919   9.43
C00S  2  0.34642  0.50000  0.13928 10.50000  0.00148   9.12
N00T  3  0.50000  0.75158  0.53358 10.50000  0.04131   8.90
O00U  4  0.30404  0.50000  0.86304 10.50000  0.02552   8.88
N00V  3  0.29076  0.74688  0.68943 11.00000  0.00685   8.82
N00W  3  0.35043  0.50000  0.73161 10.50000  0.00010   8.82
N00X  3  0.63672  1.00000  0.80519 10.50000  0.03671   8.60
N00Y  3  0.51355  0.50000  0.92910 10.50000  0.00010   8.33
C00Z  2  0.24364  0.50000  0.90648 10.50000  0.00010   8.24
N010  3  0.28231  0.68487  0.62914 11.00000  0.00010   8.23
N011  3  0.50000  0.91207  0.74731 10.50000  0.00144   8.18
O012  4  0.50000  0.50000  0.85423 10.25000  0.13625   7.78
N013  3  0.26841  0.58384  0.79553 11.00000  0.00010   7.40
N014  3  0.47978  0.50000  0.36780 10.50000  0.00010   7.03
N015  3  0.50000  0.50000  0.20638 10.25000  0.00912   6.74
N016  3  0.37310  0.50000 -0.05942 10.50000  0.00010   6.71
C017  2  0.33944  0.61859  0.26759 11.00000  0.00010   6.50
N018  3  0.35492  0.35238  0.14119 11.00000  0.00010   5.94
C019  2  0.50000  0.31855  0.95318 10.50000  0.00010   5.31
C01A  2  0.63675  1.00000  0.74644 10.50000  0.00286   5.31
C01B  2  0.16971  0.41935  0.63195 11.00000  0.00010   5.22
C01C  2  0.67651  1.00000  0.97072 10.50000  0.11351   5.11
O01D  4  0.27044  0.71504  0.48865 11.00000  0.00010   5.04
C01E  2  0.63549  0.50000  0.43362 10.50000  0.00010   4.82
C01F  2  0.39894  0.22858  0.04797 11.00000  0.00010   4.49
C01G  2  0.50000  0.81459  0.36509 10.50000  0.00010   4.11
C01H  2  0.26964  0.57452  0.88976 11.00000  0.02784   4.11
C01I  2  0.30199  0.78164  0.36021 11.00000  0.00010   3.90
C01J  2  0.26506  0.50000  0.40432 11.00000  0.01514   3.77
C01K  2  0.15030  0.50000  0.77605 10.50000  0.00010   3.71
N01L  3  0.10342  0.50000  0.90897 10.50000  0.00010   3.68
O01M  4  0.46236  0.15799  0.14709 11.00000  0.00010   3.67
N01N  3  0.46966  0.00000  0.02290 10.50000  0.01716   3.62
C01O  2  0.50000  0.61252  0.38814 10.50000  0.00010   3.57
C01P  2  0.50000  0.28039  0.13642 10.50000  0.00010   3.45
N01Q  3  0.42469  0.30319  0.35044 11.00000  0.02159   3.12
HKLF 4
END
