TITL temp02_expF_1_4_expS_1_5_temp02_a.res in Imm2
REM Old TITL I222 in Imm2 #44
REM SHELXT solution in Imm2: R1 0.781, Rweak 0.389, Alpha 0.066
REM <I/s>   0.000 for    0 systematic absences,  Orientation as input
REM Flack x = -6.675 ( 0.581 ) from    89 Parsons' quotients
REM Formula found by SHELXT:  C51 N25 O7 Cl13

CELL  0.71073   9.1390  15.1100  30.4810   90.000   90.000   90.000
ZERR   51.000   0.0018   0.0030   0.0061    0.000    0.000    0.000
LATT -2
SYMM -X, -Y, Z
SYMM X, -Y, Z
SYMM -X, Y, Z
SFAC H C N O ZR CL
UNIT 51 51 51 51 51 0
L.S. 10
BOND
LIST 6
FMAP 2
PLAN 20
CL01  6  0.11558  1.00000  0.65139 10.50000  0.17339  22.23
CL02  6  0.23237  1.00000  0.66052 10.50000  0.16549  19.29
CL03  6  0.00000  0.96210  0.66537 10.50000  0.11701  15.82
CL04  6  0.32303  1.00000  0.65282 10.50000  0.18874  13.44
CL05  6  0.69691  1.00000  0.34271 10.50000  0.04338  12.97
O006  4  0.50000  1.00000  0.55255 10.50000  0.15428  12.00
N007  3  0.50000  1.00000  0.59525 10.25000  0.00010  11.15
CL08  6  0.84226  1.00000  0.52694 10.50000  0.12023  10.56
N009  3  0.06232  0.50000  0.57614 10.50000  0.18017   9.76
CL0A  6  0.50000  1.00000  0.27732 10.25000  0.13138   9.67
C00B  2  0.00000  0.87342  0.38801 10.50000  0.03588   9.44
O00C  4  0.00000  1.00000  0.20045 10.25000  0.10553   9.44
C00D  2  0.45470  0.84698  0.58277 11.00000  0.05112   9.41
N00E  3  0.50000  1.00000  0.76382 10.25000  0.02695   9.36
N00F  3  0.50000  1.00000  0.64824 10.25000  0.07017   8.94
N00G  3  0.00000  0.50000  0.43825 10.25000  0.15129   8.78
N00H  3  0.50000  0.85901  0.39718 10.50000  0.02356   8.25
N00I  3  0.50000  1.00000  0.73425 10.25000  0.05608   7.36
N00J  3  1.00000  1.00000  0.52119 10.25000  0.00945   7.32
N00K  3  0.00000  0.86052  0.70910 10.50000  0.04786   7.07
N00L  3  0.00000  0.50000  0.54149 10.50000  0.10519   6.99
N00M  3  0.50000  0.79484  0.59268 10.50000  0.01531   6.98
C00N  2  0.00000  0.40374  0.57496 10.50000  0.12378   6.66
C00O  2  0.59206  1.00000  0.78619 11.00000  0.06579   6.65
N00P  3  0.00000  1.00000  0.32895 10.25000  0.04600   6.26
C00Q  2  0.85249  1.00000  0.77766 10.50000  0.03034   6.10
C00R  2  0.18642  0.50000  0.44389 10.50000  0.06410   6.03
N00S  3  0.33260  0.88647  0.58735 11.00000  0.00442   5.89
C00T  2  0.50000  0.89332  0.72320 10.50000  0.00010   5.76
O00U  4  0.12697  0.84370  0.38426 11.00000  0.06197   5.68
C00V  2  0.74896  1.00000  0.79955 10.50000  0.00202   5.16
C00W  2  0.50000  0.89543  0.25477 10.50000  0.14070   4.94
C00X  2  0.00000  0.73795  0.44107 10.50000  0.00010   4.92
C00Y  2  0.69643  1.00000  0.46709 10.50000  0.00010   4.90
C00Z  2  0.50000  0.76826  0.41352 10.50000  0.02725   4.61
C010  2  0.26993  0.51903  0.50761 11.00000  0.09452   4.18
N011  3  0.50000  0.63010  0.41894 10.50000  0.07077   4.03
C012  2  0.50000  1.00000  0.45979 10.25000  0.00010   3.87
C013  2  0.34255  0.50000  0.42032 10.50000  0.00010   3.74
C014  2  0.69241  0.97488  0.37681 11.00000  0.05983   3.74
C015  2  0.36939  0.77639  0.37206 11.00000  0.00010   3.46
C016  2  0.00000  0.32065  0.57629 10.50000  0.04089   3.46
C017  2  0.50000  0.87560  0.36639 10.50000  0.01021   3.35
C018  2  0.50000  0.56504  0.43112 10.50000  0.00010   3.32
N019  3  0.50000  0.82215  0.73785 10.50000  0.01946   3.05
C01A  2  0.47102  0.50000  0.49491 10.50000  0.02093   3.02
HKLF 4
END
