TITL temp02_expF_1_0_expS_0_9_temp02_a.res in Imm2
REM Old TITL I222 in Imm2 #44
REM SHELXT solution in Imm2: R1 0.616, Rweak 0.138, Alpha 0.186
REM <I/s>   0.000 for    0 systematic absences,  Orientation as input
REM Flack x = -9.378 ( 1.265 ) from   256 Parsons' quotients
REM Formula found by SHELXT:  C87 N31 O14 Cl12

CELL  0.71073   9.1390  15.1100  30.4810   90.000   90.000   90.000
ZERR   51.000   0.0018   0.0030   0.0061    0.000    0.000    0.000
LATT -2
SYMM -X, -Y, Z
SYMM X, -Y, Z
SYMM -X, Y, Z
SFAC H C N O ZR CL
UNIT 51 51 51 51 51 0
L.S. 10
BOND
LIST 6
FMAP 2
PLAN 20
CL01  6 -0.06536  0.00000  0.54665 10.50000  0.02096  18.82
CL02  6  0.00000  0.13516  0.41929 10.50000  0.06049  16.99
CL03  6  0.50000  0.03198  0.73954 10.50000  0.02087  16.97
CL04  6  0.00000  0.00000  0.67600 10.25000  0.03740  16.21
CL05  6  0.50000  0.00000  0.23064 10.25000  0.07091  15.04
CL06  6  0.50000  0.15621  0.42772 10.50000  0.12781  14.43
CL07  6  0.17341  0.00000  0.35343 10.50000  0.05841  13.86
O008  4  0.20388  0.00000  0.48002 10.50000  0.03860  12.05
N009  3  0.40422  0.00000  0.37901 10.50000  0.00037  11.95
O00A  4  0.50000  0.05490  0.56471 10.50000  0.05091  11.59
N00B  3 -0.11522 -0.03963  0.67036 11.00000  0.05520  11.42
O00C  4  0.50000  0.05926  0.25308 10.50000  0.00010  11.20
N00D  3  0.50000  0.00000  0.70654 10.25000  0.06173  10.42
N00E  3  0.00000 -0.04214  0.34427 10.50000  0.00010   9.09
O00F  4  0.28644  0.00000  0.56505 10.50000  0.03952   9.08
N00G  3  0.26966  0.00000  0.36722 10.50000  0.11832   8.52
N00H  3  0.50000  0.06921  0.42258 10.50000  0.00268   8.36
N00I  3  0.35647  0.00000  0.73795 10.50000  0.06772   8.25
N00J  3  0.50000  0.56025  0.37257 10.50000  0.00765   8.22
N00K  3  0.00000  0.20142  0.41119 10.50000  0.01842   8.18
C00L  2  0.31333  0.10837  0.41911 11.00000  0.00010   8.14
C00M  2  0.37725  0.00000  0.68156 10.50000  0.02482   8.04
O00N  4 -0.08355  0.13734  0.40215 11.00000  0.06848   7.98
O00O  4  0.50000  0.10181  0.72648 10.50000  0.00096   7.79
N00P  3  0.50000  0.00000  0.40388 10.25000  0.10355   7.70
N00Q  3  0.04595  0.00000  0.63799 10.50000  0.04675   7.63
N00R  3  0.50000  0.61789  0.58247 10.50000  0.00010   7.41
N00S  3  0.50000  0.00000  0.76936 10.25000  0.04608   7.14
C00T  2  0.27703  0.00000  0.36717 10.50000  0.12433   6.92
C00U  2  0.50000  0.20718  0.36098 10.50000  0.01965   5.93
C00V  2  0.34770  0.35131  0.31717 11.00000  0.03829   5.83
C00W  2  0.13488  0.25448  0.33529 11.00000  0.04067   5.64
C00X  2  0.40411  0.50000  0.64966 10.50000  0.02570   5.58
C00Y  2  0.37132  0.02860  0.40415 11.00000  0.00010   5.36
C00Z  2  0.60658  0.59137  0.65536 11.00000  0.00700   5.33
C010  2  0.50000  0.03042  0.67961 10.50000  0.00010   5.19
C011  2  0.44397  0.00000  0.50352 10.50000  0.00010   5.18
C012  2  0.28825  0.50000  0.63989 10.50000  0.03099   5.12
N013  3  0.33195  0.00000  0.66501 10.50000  0.13989   5.05
C014  2  0.00000  0.23153  0.35180 10.50000  0.02290   4.90
C015  2  0.00000  0.41618  0.58111 10.50000  0.04814   4.80
C016  2  0.50000  0.28477  0.35166 10.50000  0.00010   4.57
C017  2  0.50000  0.53517  0.64391 10.50000  0.03453   4.52
C018  2  0.50000  0.50000  0.57397 10.25000  0.01494   4.33
C019  2  0.50000  0.50000  0.35114 10.25000  0.00010   4.30
N01A  3  0.32163  0.14563  0.44834 11.00000  0.05143   3.92
C01B  2  0.00000  0.02312  0.60584 10.50000  0.00127   3.92
C01C  2  0.50000  0.50000  0.44627 10.25000  0.01418   3.81
C01D  2  0.42707  0.08166  0.39222 11.00000  0.00010   3.79
C01E  2  0.23322  0.00000  0.61116 10.50000  0.00010   3.77
C01F  2  0.40379  0.43142  0.31957 11.00000  0.02211   3.73
C01G  2  0.00000  0.25720  0.55643 10.50000  0.01857   3.72
C01H  2  0.37328  0.28371  0.31666 11.00000  0.03791   3.64
C01I  2  0.17324  0.50000  0.57104 11.00000  0.04726   3.42
C01J  2  0.23524  0.36068  0.30117 11.00000  0.02792   3.35
C01K  2  0.50000  0.27615  0.27611 10.50000  0.00328   3.35
C01L  2  0.00000  0.25355  0.46947 10.50000  0.00010   3.33
C01M  2  0.06821  0.36703  0.58289 11.00000  0.00010   3.31
C01N  2  0.50000  0.67614  0.59428 10.50000  0.08274   3.26
C01O  2  0.80350  0.62582  0.65627 11.00000  0.00010   3.09
C01P  2  0.30485  0.50000  0.52377 10.50000  0.01898   3.09
HKLF 4
END
