TITL temp02_expF_1_2_expS_1_3_temp02_a.res in Imm2
REM Old TITL I222 in Imm2 #44
REM SHELXT solution in Imm2: R1 0.700, Rweak 0.478, Alpha 0.088
REM <I/s>   0.000 for    0 systematic absences,  Orientation as input
REM Flack x = -0.803 ( 9.990 ) from   225 Parsons' quotients
REM Formula found by SHELXT:  C51 N47 O9

CELL  0.71073   9.1390  15.1100  30.4810   90.000   90.000   90.000
ZERR   51.000   0.0018   0.0030   0.0061    0.000    0.000    0.000
LATT -2
SYMM -X, -Y, Z
SYMM X, -Y, Z
SYMM -X, Y, Z
SFAC H C N O ZR
UNIT 51 51 51 51 51
L.S. 10
BOND
LIST 6
FMAP 2
PLAN 20
N001  3  1.00000  0.50000  0.76432 10.25000  0.00010  14.07
N002  3  0.62984  0.50000  0.71681 10.50000  0.00010  14.04
O003  4  0.79202  0.50000  0.56504 10.50000  0.04349  13.30
O004  4  0.13912  0.50000  0.43269 10.50000  0.05044  12.51
O005  4  0.27306  0.50000  0.42282 10.50000  0.16442  11.77
N006  3  0.50000  0.50000  0.16943 10.25000  0.06961  11.63
N007  3  0.50000  0.34698  0.46389 10.50000  0.00089  11.43
N008  3  0.50000  0.50000  0.68775 10.25000  0.03313  10.73
N009  3  0.40836  0.44796  0.42159 11.00000  0.03425  10.65
O00A  4  0.00000  0.50000  0.43446 10.25000  0.10462  10.37
C00B  2  0.90578  0.50000  0.75839 10.50000  0.03288   9.76
C00C  2  0.00000  0.50000  0.17003 10.25000  0.00010   9.56
N00D  3  0.70157  0.50000  0.76128 10.50000  0.08016   9.47
N00E  3  0.58031  0.50000  0.74119 10.50000  0.04123   9.10
N00F  3  0.61598  0.45511  0.68127 11.00000  0.04494   8.96
C00G  2  0.00000  0.61358  0.30684 10.50000  0.08185   8.79
O00H  4  0.69284  0.50000  0.54190 10.50000  0.07686   8.73
C00I  2  1.00000  0.50000  0.63584 10.25000  0.11001   8.72
C00J  2  1.00000  0.50000  0.83246 10.25000  0.00010   8.26
N00K  3  0.64969  0.37734  0.47629 11.00000  0.00010   8.09
N00L  3  0.85725  0.42545  0.76511 11.00000  0.00010   7.96
N00M  3  0.00000  0.50000  0.29005 10.50000  0.11831   7.34
N00N  3  1.00000  0.53923  0.79150 10.50000  0.00010   7.09
N00O  3  1.00000  0.64293  0.61146 10.50000  0.02117   6.65
N00P  3  0.93489  0.33926  0.48637 11.00000  0.01183   6.62
C00Q  2  0.61880  0.31037  0.47525 11.00000  0.00010   6.59
C00R  2  0.50000  0.43329  0.45462 10.50000  0.02222   6.49
C00S  2  0.58581  0.50000  0.61602 10.50000  0.10371   6.15
C00T  2  0.00000  0.70023  0.29280 10.50000  0.03486   5.92
C00U  2  0.00000  0.43957  0.16236 10.50000  0.00010   5.73
N00V  3  1.00000  0.55096  0.82684 10.50000  0.01927   5.36
N00W  3  0.78966  0.55365  0.59619 11.00000  0.09232   5.30
C00X  2  1.00000  0.60396  0.81062 10.50000  0.02281   5.10
C00Y  2  0.50000  0.27363  0.46962 10.50000  0.00018   4.94
C00Z  2  0.50000  0.50000  0.76259 10.25000  0.00010   4.91
C010  2  1.00000  0.18483  0.45055 10.50000  0.09719   4.74
C011  2  0.14028  0.50000  0.29977 10.50000  0.00010   4.42
C012  2  0.66962  0.50000  0.85514 10.50000  0.02674   4.36
C013  2  0.75342  0.50000  0.81117 10.50000  0.00010   4.22
N014  3  0.75423  0.50000  0.60781 10.50000  0.00010   4.18
C015  2  0.35950  0.50000  0.35682 10.50000  0.00010   4.11
N016  3  0.00000  0.36618  0.14486 10.50000  0.04463   3.87
C017  2  0.56096  0.61375  0.75303 11.00000  0.03449   3.86
C018  2  0.50000  0.50000  0.27743 10.25000  0.00010   3.48
C019  2  0.34534  0.41594  0.19320 11.00000  0.03424   3.31
C01A  2  0.79884  0.50000  0.83531 10.50000  0.00010   3.24
C01B  2  0.90631  0.26742  0.46926 11.00000  0.05882   3.03
C01C  2  1.00000  0.76808  0.61262 10.50000  0.05026   3.02
HKLF 4
END
