TITL temp02_expF_1_3_expS_0_5_temp02_a.res in Imm2
REM Old TITL I222 in Imm2 #44
REM SHELXT solution in Imm2: R1 0.916, Rweak 0.321, Alpha 0.086
REM <I/s>   0.000 for    0 systematic absences,  Orientation as input
REM Flack x = -1.360 ( 0.313 ) from   415 Parsons' quotients
REM Formula found by SHELXT:  C41 N42 O4 Cl9

CELL  0.71073   9.1390  15.1100  30.4810   90.000   90.000   90.000
ZERR   51.000   0.0018   0.0030   0.0061    0.000    0.000    0.000
LATT -2
SYMM -X, -Y, Z
SYMM X, -Y, Z
SYMM -X, Y, Z
SFAC H C N O ZR CL
UNIT 51 51 51 51 51 0
L.S. 10
BOND
LIST 6
FMAP 2
PLAN 20
CL01  6  0.50000  0.00000  0.45628 10.25000  0.17076  18.65
CL02  6  0.50000  0.00000  0.35037 10.25000  0.00332  17.24
CL03  6  1.00000  0.03176  0.33891 10.50000  0.00641  16.17
CL04  6  0.56844  0.00000  0.48362 10.50000  0.02441  14.80
CL05  6  1.00000  0.00000  0.48005 10.25000  0.18381  14.34
CL06  6  0.85954  0.00000  0.35112 10.50000  0.06640  14.25
N007  3  0.50000  1.00000  0.74380 10.50000  0.00583  11.09
N008  3  0.50000  0.00000  0.42252 10.25000  0.08623  10.94
N009  3  0.91715  0.00000  0.48754 10.50000  0.14460  10.68
N00A  3  0.50000 -0.04016  0.39450 10.50000  0.07436   9.97
O00B  4  0.80239  0.16495  0.40427 11.00000  0.14332   9.85
N00C  3  0.00000  1.00000  0.67475 10.50000  0.01201   9.37
N00D  3  0.74236  0.11625  0.41187 11.00000  0.19500   9.16
N00E  3  0.00000  0.58344  0.70610 10.50000  0.01753   8.80
N00F  3  0.81716  0.04564  0.47744 11.00000  0.00228   8.22
N00G  3  0.00000  0.80930  0.66870 10.50000  0.06707   8.19
N00H  3  0.50000  1.00000  0.66325 10.25000  0.03803   7.41
N00I  3  0.66900  0.16461  0.42870 11.00000  0.09316   6.92
C00J  2  0.50000  0.50000  0.51932 10.50000  0.00798   6.79
C00K  2  0.00000  1.00000  0.61146 10.25000  0.09222   6.45
C00L  2  0.00000  0.60434  0.43935 11.00000  0.07823   6.34
N00M  3  0.39868  1.00000  0.76351 11.00000  0.11111   6.28
C00N  2  0.16835  1.00000  0.76632 10.50000  0.00316   6.09
C00O  2  0.00000  1.00000  0.63263 10.25000  0.01365   5.93
C00P  2  1.00000  0.00000  0.41423 10.50000  0.20667   5.89
C00Q  2  0.50000  0.63097  0.53772 10.50000  0.02075   5.68
N00R  3  0.50000  0.50000  0.63416 10.25000  0.07755   5.46
C00S  2  0.73371  0.03265  0.43781 11.00000  0.08776   5.34
N00T  3  1.00000  0.21075  0.23368 10.50000  0.00010   5.29
C00U  2  0.50000  1.00000  0.68127 10.50000  0.00230   5.20
N00V  3  0.50000  0.50000  0.63634 10.25000  0.13277   5.17
C00W  2  0.50000  0.00000  0.37838 10.50000  0.15979   5.02
C00X  2  0.00000  1.00000  0.75169 10.25000  0.09177   4.84
N00Y  3  0.50000  0.29521  0.37573 10.50000  0.07923   4.54
C00Z  2  0.62038  0.50000  0.43467 10.50000  0.17648   4.27
C010  2  0.19087  0.50000  0.60590 10.50000  0.14312   4.15
C011  2  0.50000  1.00000  0.66632 10.25000  0.06447   4.02
C012  2  0.10307  0.50000  0.61465 10.50000  0.02514   4.02
C013  2  0.05186  0.64217  0.68839 11.00000  0.04928   4.02
C014  2  0.00000  0.83078  0.62466 10.50000  0.10967   3.97
C015  2  0.50000  0.50000  0.38979 10.50000  0.03005   3.67
C016  2  0.50000  0.41820  0.41743 10.50000  0.10300   3.66
N017  3  0.42851  0.81754  0.60688 11.00000  0.01139   3.35
C018  2  0.00000  0.50000  0.73335 10.25000  0.11353   3.25
N019  3  0.00000  0.71892  0.52378 10.50000  0.03860   3.00
HKLF 4
END
