TITL temp02_expF_1_1_expS_1_4_temp02_b.res in Imm2
REM Old TITL I222 in Imm2 #44
REM SHELXT solution in Imm2: R1 0.671, Rweak 0.265, Alpha 0.237
REM <I/s>   0.000 for    0 systematic absences,  Orientation as input
REM Flack x = -6.362 ( 0.718 ) from   166 Parsons' quotients
REM Formula found by SHELXT:  C67 N33 O13 Cl5

CELL  0.71073   9.1390  15.1100  30.4810   90.000   90.000   90.000
ZERR   51.000   0.0018   0.0030   0.0061    0.000    0.000    0.000
LATT -2
SYMM -X, -Y, Z
SYMM X, -Y, Z
SYMM -X, Y, Z
SFAC H C N O ZR CL
UNIT 51 51 51 51 51 0
L.S. 10
BOND
LIST 6
FMAP 2
PLAN 20
CL01  6  0.00000  0.50000  0.37400 10.25000  0.06804  18.70
CL02  6 -0.50000  0.50000  0.36405 10.25000  0.09384  15.71
CL03  6 -0.15133  0.50000  0.36833 10.50000  0.01510  15.41
CL04  6  0.00000  0.00000  0.46279 10.25000  0.00856  14.49
N005  3 -0.40168  0.50000  0.43810 10.50000  0.00048  11.93
C006  2 -0.40384  0.50000  0.38331 10.50000  0.14595   9.93
C007  2  0.13252  0.00000  0.47130 10.50000  0.00010   9.06
N008  3 -0.19252  0.44893  0.36366 11.00000  0.01319   9.02
N009  3  0.00000  0.00000  0.43069 10.25000  0.00837   8.41
O00A  4 -0.50000  0.50000  0.25967 10.25000  0.00010   7.82
N00B  3  0.00000  0.07289  0.44853 10.50000  0.01978   7.79
O00C  4  0.50000  0.13425  0.57793 10.50000  0.00010   7.70
N00D  3  0.00000  0.40431  0.36736 10.50000  0.05354   7.55
O00E  4 -0.26323  0.34608  0.31915 11.00000  0.00152   7.39
N00F  3 -0.50000  0.50000  0.48893 10.25000  0.01638   7.27
N00G  3 -0.38783  0.50000  0.49346 10.50000  0.04941   7.18
C00H  2 -0.50000  0.46460  0.43341 10.50000  0.00694   6.97
C00I  2  0.38546  0.00000  0.53543 10.50000  0.01117   6.62
C00J  2 -0.27380  0.50000  0.37443 10.50000  0.00806   6.60
C00K  2  0.76997  0.46690  0.64249 11.00000  0.01725   6.33
C00L  2 -0.29642  0.50000  0.50799 10.50000  0.01402   6.19
C00M  2 -0.50000  0.50000  0.46471 10.25000  0.00010   6.14
C00N  2  0.00000  0.50000  0.21638 10.25000  0.00019   6.14
N00O  3  0.15354 -0.07848  0.45966 11.00000  0.02608   6.14
N00P  3 -0.38476  0.55805  0.44295 11.00000  0.00010   6.06
C00Q  2 -0.17432  0.42703  0.32522 11.00000  0.03450   6.02
O00R  4 -0.50000  0.17633  0.37135 10.50000  0.02010   5.93
N00S  3 -0.50000  0.27400  0.23417 10.50000  0.05294   5.69
C00T  2  0.50000  0.50000  0.61670 10.25000  0.00010   5.52
C00U  2  1.00000  0.51840  0.69913 10.50000  0.04333   5.47
N00V  3  0.62835  0.50000  0.79669 10.50000  0.04865   5.31
C00W  2 -0.06075  0.50000  0.24353 10.50000  0.02602   5.27
C00X  2  0.00000  0.22470  0.40372 10.50000  0.03271   5.02
C00Y  2  0.75136  0.35781  0.65142 11.00000  0.03007   4.95
C00Z  2 -0.50000  0.62770  0.52271 10.50000  0.11302   4.74
C010  2 -0.09289  0.50000  0.20331 10.50000  0.00716   4.69
C011  2  1.00000  0.50000  0.63077 10.25000  0.11372   4.64
C012  2  1.00000  0.50000  0.69386 10.25000  0.00010   4.62
O013  4  0.00000  0.78714  0.59560 10.50000  0.01563   4.42
C014  2  0.56137  0.45006  0.63242 11.00000  0.00687   4.33
N015  3  0.00000  0.00000  0.55849 10.25000  0.08034   4.31
O016  4  0.50000  0.28972  0.70169 10.50000  0.04323   4.20
C017  2  0.00000  0.50000  0.32163 10.25000  0.09705   4.10
C018  2 -0.50000  0.36598  0.24638 10.50000  0.01420   3.91
C019  2 -0.50000  0.28192  0.39788 10.50000  0.12471   3.90
C01A  2  0.82399  0.50000  0.62312 10.50000  0.01070   3.70
N01B  3  0.00000  0.50000  0.52092 10.25000  0.01773   3.65
C01C  2  0.50000  0.38561  0.70561 10.50000  0.03783   3.61
C01D  2 -0.50000  0.50000  0.32360 10.25000  0.00010   3.59
C01E  2 -0.28615  0.46735  0.29955 11.00000  0.00010   3.27
C01F  2  0.66181  0.25853  0.63526 11.00000  0.00724   3.25
N01G  3  0.61818  0.50000  0.63471 10.50000  0.00811   3.16
C01H  2  0.00000  0.34477  0.41544 10.50000  0.02154   3.12
N01I  3  0.00000  0.00000  0.65436 10.25000  0.06318   3.07
N01J  3 -0.50000  0.67355  0.50618 10.50000  0.00010   3.06
C01K  2  0.00000  0.69113  0.52756 10.50000  0.00010   3.02
C01L  2  0.00000  0.70843  0.58458 10.50000  0.00010   3.01
HKLF 4
END
