TITL temp02_expF_1_0_expS_1_3_temp02_a.res in Imm2
REM Old TITL I222 in Imm2 #44
REM SHELXT solution in Imm2: R1 0.619, Rweak 0.074, Alpha 0.263
REM <I/s>   0.000 for    0 systematic absences,  Orientation as input
REM Flack x = -0.846 ( 0.902 ) from   173 Parsons' quotients
REM Formula found by SHELXT:  C80 N25 O13 Cl21

CELL  0.71073   9.1390  15.1100  30.4810   90.000   90.000   90.000
ZERR   51.000   0.0018   0.0030   0.0061    0.000    0.000    0.000
LATT -2
SYMM -X, -Y, Z
SYMM X, -Y, Z
SYMM -X, Y, Z
SFAC H C N O ZR CL
UNIT 51 51 51 51 51 0
L.S. 10
BOND
LIST 6
FMAP 2
PLAN 20
CL01  6  0.50000  0.50000  0.40668 10.25000  0.08883  23.60
CL02  6  0.44823  0.50000  0.29840 10.50000  0.05743  18.66
CL03  6  0.00000  0.50000  0.41217 10.25000  0.02358  18.38
CL04  6  0.00000  0.50000  0.27660 10.25000  0.02136  17.09
CL05  6  0.13875  0.50000  0.41345 10.50000  0.04883  16.87
CL06  6  0.50000  0.50000  0.35231 10.25000  0.00010  16.18
CL07  6  0.33944  0.50000  0.38922 10.50000  0.16975  14.54
CL08  6  0.50000  0.43537  0.35013 10.50000  0.01371  12.76
CL09  6  0.00000  0.50000  0.75383 10.25000  0.00010  12.72
CL0A  6  0.63950  0.50000  0.67599 10.50000  0.02248  12.64
CL0B  6  0.30243  0.35957  0.34178 11.00000  0.06427  12.56
O00C  4  0.50000  0.00000  0.61626 10.25000  0.05808  11.31
N00D  3  0.50000  0.00000  0.60641 10.25000  0.07083  10.45
C00E  2  0.08548  0.50000  0.30009 10.50000  0.00261  10.35
O00F  4  0.16198  0.46688  0.28827 11.00000  0.00551  10.21
N00G  3  0.00000  0.50000  0.71502 10.25000  0.00010   9.89
CL0H  6  0.08704  0.50000  0.61434 10.50000  0.09628   9.75
C00I  2  0.70264  0.00000  0.50853 10.50000  0.04177   9.26
O00J  4  0.50000  0.23845  0.42841 10.50000  0.03638   8.78
O00K  4  0.30992  0.50000  0.42964 10.50000  0.04182   8.40
N00L  3  1.00000  0.00000  0.65233 10.25000  0.02243   7.46
N00M  3  0.00000  0.50000  0.25148 10.25000  0.00672   7.31
O00N  4  0.50000  0.67036  0.62087 10.50000  0.02970   6.93
N00O  3  1.00000  0.00000  0.59594 10.25000  0.03735   6.82
N00P  3  0.50000  0.19666  0.44707 10.50000  0.01030   6.81
N00Q  3  0.72287  0.10849  0.51092 11.00000  0.05113   6.72
N00R  3  0.65081  0.55576  0.68573 11.00000  0.01074   6.70
C00S  2  0.50000  0.35774  0.34999 11.00000  0.08373   6.65
C00T  2  0.93578  0.24828  0.59962 11.00000  0.00010   6.49
C00U  2  0.78744  0.00000  0.64352 10.50000  0.02885   6.49
C00V  2  0.00000  0.23422  0.22498 10.50000  0.00010   6.26
N00W  3  0.00000  0.12132  0.43661 10.50000  0.00121   6.10
C00X  2  0.00000  0.54800  0.73092 10.50000  0.00010   6.01
C00Y  2  0.00000  0.00000  0.32281 10.25000  0.06067   5.98
C00Z  2 -0.15520  0.00000  0.35323 10.50000  0.00457   5.80
C010  2  1.00000  0.00000  0.52709 10.25000  0.08025   5.76
C011  2  0.00000  0.57868  0.77058 10.50000  0.00010   5.71
C012  2  0.73163  0.00000  0.66814 10.50000  0.05378   5.25
C013  2  0.50000  0.50000  0.67181 10.25000  0.00010   5.11
O014  4  0.50000 -0.04787  0.57453 10.50000  0.03846   4.83
C015  2  0.00000  0.32149  0.23579 10.50000  0.00122   4.60
C016  2  1.00000  0.07857  0.65391 10.50000  0.02033   4.51
C017  2  0.00000  0.03773  0.36980 11.00000  0.00113   4.45
C018  2  0.00000  0.62007  0.73760 10.50000  0.00010   4.38
N019  3  0.83785  0.06091  0.65263 11.00000  0.01440   4.28
C01A  2  0.66866 -0.05815  0.62206 11.00000  0.00010   4.18
C01B  2  0.00000  0.37693  0.27103 10.50000  0.00010   4.10
C01C  2  1.00000  0.16599  0.62856 10.50000  0.01374   3.90
C01D  2  0.50000  0.04366  0.48732 10.50000  0.00010   3.90
C01E  2  0.00000  0.63497  0.77502 10.50000  0.00010   3.85
C01F  2  0.50000  0.62912  0.59395 10.50000  0.00010   3.84
C01G  2  0.50000  0.62550  0.51165 10.50000  0.00246   3.83
C01H  2  1.00000  0.32559  0.53491 10.50000  0.00010   3.80
C01I  2  0.42485  0.50000  0.62262 10.50000  0.00010   3.73
C01J  2  0.89610  0.13773  0.58661 11.00000  0.00010   3.65
C01K  2  0.00000  0.04228  0.33768 10.50000  0.00010   3.24
C01L  2  0.50000  0.03810  0.44762 10.50000  0.00010   3.23
C01M  2  1.00000  0.50000  0.51249 10.25000  0.00060   3.22
C01N  2  0.39790  0.50000  0.47753 10.50000  0.06898   3.20
C01O  2  0.80428  0.11935  0.52696 11.00000  0.01901   3.15
N01P  3  1.00000  0.24516  0.62576 10.50000  0.01563   3.13
C01Q  2  1.00000  0.27368  0.56670 10.50000  0.03477   3.13
N01R  3  0.00000  0.27230  0.37903 10.50000  0.09792   3.07
C01S  2  0.00000  0.40238  0.24156 11.00000  0.04594   3.05
C01T  2  1.00000 -0.05540  0.56091 10.50000  0.00262   3.03
HKLF 4
END
