TITL temp02_expF_1_1_expS_1_4_temp02_a.res in Imm2
REM Old TITL I222 in Imm2 #44
REM SHELXT solution in Imm2: R1 0.635, Rweak 0.339, Alpha 0.269
REM <I/s>   0.000 for    0 systematic absences,  Orientation a'=c, b'=a, c'=b
REM Flack x = -9.990 ( 1.615 ) from   157 Parsons' quotients
REM Formula found by SHELXT:  C91 N64 O23 Zr

CELL  0.71073  30.4810   9.1390  15.1100   90.000   90.000   90.000
ZERR   51.000   0.0061   0.0018   0.0030    0.000    0.000    0.000
LATT -2
SYMM -X, -Y, Z
SYMM X, -Y, Z
SYMM -X, Y, Z
SFAC H C N O ZR
UNIT 51 51 51 51 51
L.S. 10
BOND
LIST 6
FMAP 2
PLAN 20
ZR01  5  0.50000  1.00000  0.73035 10.25000  0.08287  34.68
O002  4  0.50000  0.85246  0.69407 10.50000  0.03427  20.29
O003  4  0.50000  0.50000  0.70280 10.25000  0.11995  19.54
O004  4  0.50000  0.62136  0.74304 10.50000  0.01165  15.92
N005  3  0.50000  0.50000  0.37672 10.25000  0.03871  13.29
N006  3  0.43116  0.62892  0.63374 11.00000  0.00718  12.31
O007  4  0.50000  0.81075  0.77454 10.50000  0.01941  12.30
N008  3  0.42704  0.63147  0.69483 11.00000  0.02682  11.58
N009  3  0.09140 -0.34507  0.69368 11.00000  0.04109  10.08
N00A  3  0.45082  0.76670  0.63763 11.00000  0.00010  10.00
N00B  3  0.19538  0.00000  0.73392 10.50000  0.00010   9.97
N00C  3  0.09772 -0.50000  0.68105 10.50000  0.05797   9.92
N00D  3  0.37142  0.50000  0.72012 10.50000  0.02091   9.76
O00E  4  0.35671  0.50000  0.51188 10.50000  0.00257   9.46
N00F  3  0.09239 -0.38549  0.64952 11.00000  0.02215   9.41
N00G  3  0.42069  0.72481  0.65955 11.00000  0.01515   9.31
N00H  3  0.43391  0.50000  0.67614 10.50000  0.01464   9.00
C00I  2  0.21587  0.00000  0.65135 10.50000  0.01569   8.87
N00J  3  0.36726  0.50000  0.66122 10.50000  0.00010   8.42
O00K  4  0.44431  0.78366  0.56618 11.00000  0.00933   8.37
O00L  4  0.35898  0.50000  0.85033 10.50000  0.03427   8.29
N00M  3  0.07827 -0.50000  0.64868 10.50000  0.00985   8.08
O00N  4  0.46405  1.00000  0.53332 10.50000  0.02372   7.78
N00O  3  0.35886  1.00000  0.67879 10.50000  0.00275   7.32
N00P  3  0.23672  0.25350  0.64116 11.00000  0.07144   7.24
N00Q  3  0.24342  0.36709  0.46280 11.00000  0.00010   7.21
N00R  3  0.21793  0.12572  0.65602 11.00000  0.02315   6.82
C00S  2  0.39510  0.64604  0.71716 11.00000  0.00010   6.66
C00T  2  0.15868  0.00000  0.73222 11.00000  0.03050   6.53
N00U  3  0.50000  0.50000  0.37664 10.25000  0.13471   6.45
C00V  2  0.50000  0.50000  0.48170 10.25000  0.01891   6.22
C00W  2  0.24812  0.13679  0.63388 11.00000  0.00010   6.15
C00X  2  0.41367  0.78974  0.63321 11.00000  0.01296   6.07
O00Y  4  0.26812  0.23925  0.37427 11.00000  0.00368   5.57
C00Z  2  0.25581  0.00000  0.19560 10.50000  0.02307   5.47
N010  3  0.56213  0.73143  0.88808 11.00000  0.00790   5.19
C011  2  0.39459  0.50000  0.62071 11.00000  0.11405   4.89
O012  4  0.14694 -0.50000  0.83554 10.50000  0.07099   4.86
C013  2  0.30675  1.00000  0.69460 10.50000  0.00010   4.83
C014  2  0.20332  0.00000  0.57091 10.50000  0.00010   4.81
C015  2  0.36105  0.73563  0.72130 11.00000  0.01734   4.80
C016  2  0.16751  0.00000  0.79924 10.50000  0.00010   4.64
C017  2  0.09158 -0.21452  0.72729 11.00000  0.01299   4.60
C018  2  0.26208  0.26361  0.43666 11.00000  0.00010   4.56
N019  3  0.45811  0.92647  0.64520 11.00000  0.00010   4.36
C01A  2  0.34190  0.84587  0.68657 11.00000  0.02147   4.26
C01B  2  0.17861  0.00000  0.62550 10.50000  0.01606   4.24
N01C  3  0.17750  0.00000  0.55645 10.50000  0.00010   4.15
C01D  2  0.25054  0.14122  0.71523 11.00000  0.06103   3.92
C01E  2  0.53458  1.00000  0.96194 10.50000  0.00010   3.90
C01F  2  0.22783  0.50000  0.52402 10.50000  0.00010   3.84
C01G  2  0.22681  0.50000  0.41048 10.50000  0.00010   3.74
C01H  2  0.50000  0.50000  0.20013 10.25000  0.00010   3.72
C01I  2  0.16243 -0.50000  0.92877 10.50000  0.01279   3.71
C01J  2  0.50000  1.00000  0.50791 10.25000  0.00010   3.65
N01K  3  0.50000  0.67827  0.47066 10.50000  0.01067   3.57
C01L  2  0.50000  0.45055  0.03806 10.50000  0.00010   3.50
C01M  2  0.29749  0.50000  0.43476 10.50000  0.00501   3.42
C01N  2  0.30056  0.00000  0.15302 10.50000  0.01252   3.41
C01O  2  0.22207  0.26054  0.51252 11.00000  0.06851   3.40
C01P  2  0.09766 -0.28033  0.61850 11.00000  0.02047   3.35
C01Q  2  0.35276  0.50000  0.76984 10.50000  0.00010   3.34
C01R  2  0.50000  0.79751  0.49920 10.50000  0.02999   3.33
C01S  2  0.22918  0.37558  0.55110 11.00000  0.00469   3.26
C01T  2  0.26306  0.08974  0.29219 11.00000  0.00414   3.22
C01U  2  0.45017  0.50000  0.33815 10.50000  0.00539   3.03
HKLF 4
END
