TITL temp02_expF_1_2_expS_1_4_temp02_a.res in Imm2
REM Old TITL I222 in Imm2 #44
REM SHELXT solution in Imm2: R1 0.719, Rweak 0.334, Alpha 0.101
REM <I/s>   0.000 for    0 systematic absences,  Orientation as input
REM Flack x = -9.990 ( 9.990 ) from   182 Parsons' quotients
REM Formula found by SHELXT:  C43 N28 O12

CELL  0.71073   9.1390  15.1100  30.4810   90.000   90.000   90.000
ZERR   51.000   0.0018   0.0030   0.0061    0.000    0.000    0.000
LATT -2
SYMM -X, -Y, Z
SYMM X, -Y, Z
SYMM -X, Y, Z
SFAC H C N O ZR
UNIT 51 51 51 51 51
L.S. 10
BOND
LIST 6
FMAP 2
PLAN 20
O001  4  0.04882  0.50000  0.64502 10.50000  0.21640  11.33
O002  4  0.18541  0.50000  0.63405 10.50000  0.17456  10.70
O003  4  0.35542  0.50000  0.63415 10.50000  0.04294  10.08
N004  3  0.00000  0.50000  0.45541 10.50000  0.05534   9.75
N005  3  0.30767  0.50000  0.53097 10.50000  0.00010   9.09
N006  3  0.50000  0.50000  0.53062 10.25000  0.00010   8.81
N007  3  0.50000  0.50000  0.56451 10.25000  0.04106   8.49
N008  3  1.00000  1.00000  0.40540 10.25000  0.03131   8.06
O009  4  0.50000  0.93840  0.42883 10.50000  0.01320   7.71
N00A  3  1.00000  0.94334  0.38590 10.50000  0.00010   7.63
C00B  2  0.32574  0.50000  0.57233 10.50000  0.04451   7.39
N00C  3  0.50000  0.59496  0.57593 10.50000  0.06542   7.25
N00D  3  0.50000  0.50000  0.62080 10.25000  0.00010   7.06
C00E  2  0.41576  0.50000  0.49408 10.50000  0.06675   6.22
C00F  2  1.00000  1.00000  0.52863 10.50000  0.05807   6.08
C00G  2  0.00000  0.50000  0.80024 10.50000  0.12215   5.80
C00H  2  0.50000  0.87194  0.42038 10.50000  0.00010   5.68
C00I  2  0.15173  0.52858  0.45734 11.00000  0.00010   5.47
O00J  4  0.00000  0.31428  0.57586 10.50000  0.00689   5.37
C00K  2  0.70055  1.00000  0.42792 10.50000  0.01695   5.10
C00L  2  0.00000  0.50000  0.74970 10.25000  0.03183   5.02
N00M  3  0.05351  0.50000  0.28350 10.50000  0.07728   4.94
N00N  3  0.33246  0.41912  0.56872 11.00000  0.06139   4.88
C00O  2  0.50000  0.70818  0.59093 10.50000  0.00010   4.77
C00P  2  0.00000  0.50000  0.49774 10.25000  0.00010   4.72
C00Q  2  0.00000  0.36121  0.58916 10.50000  0.05971   4.71
C00R  2  0.00000  0.50000  0.30047 10.25000  0.00010   4.64
C00S  2  1.00000  1.00000  0.36027 10.25000  0.00010   4.62
C00T  2  0.13920  0.50000  0.53387 10.50000  0.06260   4.58
C00U  2  1.00000  1.03404  0.55499 10.50000  0.00010   4.47
N00V  3  1.00000  0.87644  0.26949 10.50000  0.01457   4.32
C00W  2  0.00000  0.72268  0.40822 10.50000  0.00010   4.29
N00X  3  1.13093  1.08255  0.55104 11.00000  0.09146   3.95
C00Y  2  0.81339  1.00000  0.38393 10.50000  0.00718   3.86
C00Z  2  0.50000  0.50000  0.45189 10.25000  0.00010   3.85
O010  4  0.50000  0.72653  0.62441 10.50000  0.00100   3.81
C011  2  0.27869  0.50000  0.33327 10.50000  0.00425   3.65
N012  3  0.16213  0.50000  0.19976 10.50000  0.00010   3.61
N013  3  0.50000  0.81709  0.42681 10.50000  0.09898   3.36
C014  2  0.17788  0.67697  0.39451 11.00000  0.00742   3.12
C015  2  0.38376  0.72520  0.38177 11.00000  0.01087   3.00
HKLF 4
END
