TITL temp02_expF_1_5_expS_1_3_temp02_a.res in Imm2
REM Old TITL I222 in Imm2 #44
REM SHELXT solution in Imm2: R1 0.835, Rweak 0.278, Alpha 0.028
REM <I/s>   0.000 for    0 systematic absences,  Orientation as input
REM Flack x = -9.990 ( 9.990 ) from   159 Parsons' quotients
REM Formula found by SHELXT:  C52 N25 O10

CELL  0.71073   9.1390  15.1100  30.4810   90.000   90.000   90.000
ZERR   51.000   0.0018   0.0030   0.0061    0.000    0.000    0.000
LATT -2
SYMM -X, -Y, Z
SYMM X, -Y, Z
SYMM -X, Y, Z
SFAC H C N O ZR
UNIT 51 51 51 51 51
L.S. 10
BOND
LIST 6
FMAP 2
PLAN 20
N001  3  0.42514  0.50000  0.26200 10.50000  0.07376  11.99
C002  2  0.84481  0.50000  0.66405 10.50000  0.07739  10.50
C003  2  0.73387  0.50000  0.55156 10.50000  0.03955  10.32
N004  3  0.50000  0.50000  0.54660 10.25000  0.00854  10.27
N005  3  0.60369  0.50000  0.53022 10.50000  0.09146  10.13
N006  3  0.50000  0.62721  0.59578 10.50000  0.06715   8.91
N007  3  1.00000  0.55706  0.66785 10.50000  0.08654   8.49
N008  3  0.50000  0.54282  0.26883 10.50000  0.14429   8.23
O009  4  0.77506  0.50000  0.66842 10.50000  0.15673   8.02
C00A  2  0.50000  0.65468  0.27157 10.50000  0.02713   7.81
N00B  3  0.89497  0.50000  0.52909 10.50000  0.11543   7.72
C00C  2  0.50000  0.54506  0.56028 10.50000  0.01724   7.56
N00D  3  0.25284  0.50000  0.26799 10.50000  0.10781   7.33
N00E  3  0.00000  0.50000  0.14283 10.25000  0.10155   6.60
N00F  3  0.00000  0.47170  0.26291 10.50000  0.08291   6.51
C00G  2  0.00000  0.50000  0.23563 10.25000  0.04559   6.50
C00H  2  0.83718  0.50000  0.33984 10.50000  0.07760   6.27
C00I  2  0.50000  0.50000  0.91361 10.25000  0.00010   6.22
C00J  2  0.67851  0.50000  0.32583 10.50000  0.00010   5.99
O00K  4  0.78605  0.50000  0.39334 10.50000  0.07968   5.98
C00L  2  0.10949  0.50000  0.25506 10.50000  0.01121   5.45
C00M  2  0.63718  0.64533  0.60173 11.00000  0.02163   5.21
N00N  3  0.50000  0.50000  0.72850 10.25000  0.02291   4.95
C00O  2  0.56167  0.50000  0.58645 10.50000  0.13391   4.86
C00P  2  0.16643  0.50000  0.18551 10.50000  0.00010   4.58
N00Q  3  1.00000  0.64491  0.61191 10.50000  0.06907   4.31
C00R  2  0.00000  0.50000  0.17868 10.25000  0.00092   4.27
C00S  2  0.58712  0.50000  0.38798 10.50000  0.07754   4.25
C00T  2  0.00000  0.47048  0.20194 10.50000  0.00010   4.23
C00U  2  0.27261  0.50000  0.20570 10.50000  0.00010   4.16
C00V  2  0.08885  0.50000  0.19917 10.50000  0.04710   3.93
C00W  2  0.88331  0.50000  0.46863 10.50000  0.10753   3.75
C00X  2  0.57532  0.52704  0.31971 11.00000  0.02551   3.70
C00Y  2  0.42752  0.50000  0.12371 10.50000  0.00010   3.69
C00Z  2  0.50000  0.50000  0.07637 10.25000  0.05316   3.58
O010  4  0.50000  0.53568  0.79137 10.50000  0.01249   3.40
O011  4  1.00000  0.65445  0.44446 10.50000  0.12441   3.30
O012  4  0.50000  0.56324  0.92363 10.50000  0.09548   3.26
C013  2  0.13812  0.55604  0.20031 11.00000  0.00266   3.26
N014  3  0.69753  0.73894  0.51640 11.00000  0.03885   3.22
C015  2  0.13987  0.50000  0.14306 10.50000  0.09739   3.18
C016  2  0.50000  0.50000  0.45218 10.25000  0.15800   3.09
C017  2  1.00000  0.63938  0.39439 10.50000  0.03535   3.05
C018  2  0.50000  0.50000  0.76187 10.25000  0.00238   3.02
HKLF 4
END
