TITL temp02_expF_1_1_expS_0_6_temp02_a.res in Imm2
REM Old TITL I222 in Imm2 #44
REM SHELXT solution in Imm2: R1 0.679, Rweak 0.000, Alpha 0.172
REM <I/s>   0.000 for    0 systematic absences,  Orientation as input
REM Flack x = -3.463 ( 1.938 ) from   458 Parsons' quotients
REM Formula found by SHELXT:  C49 N27 O10 Cl10

CELL  0.71073   9.1390  15.1100  30.4810   90.000   90.000   90.000
ZERR   51.000   0.0018   0.0030   0.0061    0.000    0.000    0.000
LATT -2
SYMM -X, -Y, Z
SYMM X, -Y, Z
SYMM -X, Y, Z
SFAC H C N O ZR CL
UNIT 51 51 51 51 51 0
L.S. 10
BOND
LIST 6
FMAP 2
PLAN 20
CL01  6  1.50000  0.50000  0.78204 10.50000  0.52301  19.66
CL02  6  0.50000  0.00000  0.40430 10.25000  0.26988  18.18
CL03  6  1.34897  0.50000  0.79208 10.50000  0.16979  15.51
CL04  6  1.50000  0.50000  0.79987 10.50000  0.00010  13.40
CL05  6  0.50000  0.14283  0.56794 10.50000  0.22611  13.15
CL06  6  0.50000  0.50000  0.50667 10.25000  0.13380  12.80
N007  3  1.00000  0.50000  0.66000 10.25000  0.08189  11.34
O008  4  0.32540  0.00000  0.60754 10.50000  0.11645  10.53
N009  3  0.40787  0.00000  0.41174 10.50000  0.06808   9.91
C00A  2  1.00000  0.50000  0.55312 10.50000  0.29224   9.84
N00B  3  0.50000  0.25178  0.52675 10.50000  0.18177   8.52
O00C  4  1.50000  0.27647  0.73325 10.50000  0.10070   8.38
N00D  3  0.22076  0.00000  0.49403 10.50000  0.19627   8.33
N00E  3  0.45025  0.23801  0.52729 11.00000  0.18153   7.97
N00F  3  1.00000  0.50000  0.79015 10.25000  0.19634   7.85
N00G  3  0.38089  0.50000  0.46056 10.50000  0.05170   7.41
N00H  3  0.00000  0.19816  0.43339 10.50000  0.13208   7.39
O00I  4  0.17409  0.00000  0.56141 10.50000  0.10200   7.37
C00J  2  1.37565  0.50000  0.79365 10.50000  0.11958   7.17
N00K  3  0.50000  0.24570  0.60603 10.50000  0.16700   6.94
C00L  2  0.74773  0.50000  0.62598 10.50000  0.20096   6.71
C00M  2  0.00000  0.50000  0.44164 10.25000  0.06942   6.68
C00N  2  1.00000  0.50000  0.70490 10.50000  0.16157   6.57
C00O  2  0.00000  0.00000  0.42441 10.25000  0.14840   6.33
N00P  3 -0.04746  0.46443  0.37891 11.00000  0.07084   6.27
O00Q  4  0.86133  0.50000  0.61593 10.50000  0.49631   6.04
C00R  2  1.14963  0.50000  0.76184 10.50000  0.10993   5.98
N00S  3  0.00000  0.50000  0.23667 10.25000  0.04081   5.93
C00T  2  0.50000  0.18806  0.53587 10.50000  0.16903   5.46
C00U  2  0.00000  0.00000  0.42315 10.50000  0.26366   5.23
C00V  2  1.35902  0.35259  0.74244 11.00000  0.08055   5.22
C00W  2  0.00000  0.50000  0.31882 10.50000  0.13354   4.94
C00X  2  0.00000  0.50000  0.20013 10.50000  0.11032   4.93
C00Y  2  1.00000  0.69073  0.55104 10.50000  0.07932   4.52
O00Z  4  1.00000  0.67085  0.72310 10.50000  0.07841   4.49
C010  2  0.50000  0.46497  0.59474 10.50000  0.07361   4.30
C011  2  0.00000  0.24699  0.40149 10.50000  0.14744   4.29
C012  2  1.00000  0.58450  0.79965 11.00000  0.25095   4.10
C013  2  0.23962  0.18690  0.60903 11.00000  0.09616   3.78
C014  2  1.00000  0.64494  0.66927 10.50000  0.14585   3.73
C015  2  0.24650  0.37150  0.45728 11.00000  0.19779   3.52
C016  2  0.30665  0.39048  0.50838 11.00000  0.15473   3.51
C017  2  0.50000  0.50000  0.38885 10.25000  0.13733   3.17
N018  3  0.15830  0.18248  0.61977 11.00000  0.08340   3.15
HKLF 4
END
