TITL temp02_expF_1_1_expS_0_5_temp02_a.res in Imm2
REM Old TITL I222 in Imm2 #44
REM SHELXT solution in Imm2: R1 0.978, Rweak 0.259, Alpha 0.113
REM <I/s>   0.000 for    0 systematic absences,  Orientation as input
REM Flack x = -1.738 ( 0.286 ) from   450 Parsons' quotients
REM Formula found by SHELXT:  C50 N29 O17 Cl12

CELL  0.71073   9.1390  15.1100  30.4810   90.000   90.000   90.000
ZERR   51.000   0.0018   0.0030   0.0061    0.000    0.000    0.000
LATT -2
SYMM -X, -Y, Z
SYMM X, -Y, Z
SYMM -X, Y, Z
SFAC H C N O ZR CL
UNIT 51 51 51 51 51 0
L.S. 10
BOND
LIST 6
FMAP 2
PLAN 20
CL01  6  0.50000  0.53644  0.74824 10.50000  0.00107  17.87
CL02  6  0.00000  0.50000  0.84801 10.25000  0.00010  17.79
CL03  6  0.33797  0.50000  0.74566 10.50000  0.25276  16.83
CL04  6  0.37437  0.50000  0.84566 10.50000  0.07111  16.61
CL05  6  0.50000  0.50000  0.86927 10.25000  0.00653  16.19
CL06  6  0.50000  0.50000  0.94696 10.25000  0.09761  15.77
CL07  6  0.08877  0.50000  0.88753 10.50000  0.06157  13.93
CL08  6  0.00000  0.50000  0.15154 10.25000  0.03187  13.80
N009  3  0.00000  0.50000  0.61106 10.50000  0.22899  12.43
N00A  3  0.50000  0.72436  0.62379 10.50000  0.00085  11.23
O00B  4  0.15758  0.50000  0.05304 10.50000  0.21478  10.86
O00C  4  0.50000  0.50000  0.26445 10.50000  0.00998  10.15
N00D  3  0.06930  0.63679  0.87957 11.00000  0.01684   8.90
N00E  3  0.35892  0.50000  0.59493 10.50000  0.11260   8.63
C00F  2  0.00000  0.50000  0.59309 10.25000  0.18209   8.01
O00G  4  0.50000  0.50000  0.15776 10.25000  0.00010   7.97
O00H  4  0.18265  0.66051  0.79827 11.00000  0.09567   7.94
O00I  4  0.50000  0.50000  0.40784 10.50000  0.00010   7.83
C00J  2  0.00000  0.31954  0.58706 10.50000  0.03679   7.80
N00K  3  0.50000  0.50000  0.45065 10.50000  0.10301   7.76
N00L  3  0.50000  0.50000  0.43875 10.25000  0.00010   7.75
C00M  2  0.27034  0.50000  0.56419 10.50000  0.22543   7.69
N00N  3  0.21891  0.38985  0.72403 11.00000  0.09948   7.43
N00O  3  0.00000  0.70253  0.82264 10.50000  0.00010   6.58
C00P  2  0.23060  0.50000  0.90001 10.50000  0.17354   6.41
C00Q  2  0.34450  0.60713  0.77502 11.00000  0.09340   5.39
C00R  2  0.50000  0.65708  0.81479 11.00000  0.00010   5.31
N00S  3  0.25065  0.50000  0.73940 11.00000  0.04318   5.14
N00T  3  0.50000  0.64336  0.57534 10.50000  0.02261   4.85
O00U  4  0.03133  0.22671  0.69268 11.00000  0.18172   4.68
C00V  2  0.69411  0.63651  0.59998 11.00000  0.00536   4.55
C00W  2  0.00000  0.22374  0.64711 10.50000  0.04917   4.53
C00X  2  0.50000  0.50000  0.05634 10.50000  0.18135   4.41
C00Y  2  0.50000  0.66188  0.83039 10.50000  0.08245   4.36
C00Z  2  0.50000  0.41021  0.34093 10.50000  0.20868   4.36
C010  2  0.00000  0.50000  0.43555 10.25000  0.14851   4.19
C011  2  0.50000  0.56684  0.60644 11.00000  0.00222   4.06
C012  2  0.50000  0.70289  0.70656 10.50000  0.00010   3.98
C013  2  0.21816  0.65431  0.80218 11.00000  0.09586   3.71
N014  3  0.31690  0.50000  0.53416 11.00000  0.30245   3.63
O015  4  0.00000  0.58037  0.83600 10.50000  0.04783   3.32
C016  2  0.26704  0.45550  0.55056 11.00000  0.29208   3.32
C017  2  0.30366  0.50000  0.61238 11.00000  0.21969   3.29
C018  2  0.22551  0.15317  0.72297 11.00000  0.03139   3.04
HKLF 4
END
