TITL shelx03-merge_expF_1_4_expS_0_5_shelx03-merge_a.res in P1
REM Old TITL 1 in I 1 #-1
REM SHELXT solution in P1: R1 0.905, Rweak 0.218, Alpha 0.000
REM <I/s>   0.000 for    0 systematic absences,  Orientation as input
REM Flack x = -4.463 ( 0.783 ) from  1237 Parsons' quotients
REM Formula found by SHELXT:  C41 N13 O20

CELL  0.71073   9.3100  15.1100  30.5000   90.000   90.000   90.000
ZERR   52.000   0.0019   0.0030   0.0061    0.000    0.000    0.000
LATT -2
SFAC H C N O ZR CL
UNIT 20 20 20 20 20 0
L.S. 10
BOND
LIST 6
FMAP 2
PLAN 20
CL01  6 -0.26117  0.53190  0.60083 11.00000  0.06159  20.72
CL02  6 -0.24740  0.47061  0.59992 11.00000  0.08900  19.35
CL03  6 -0.10138  0.47548  0.59638 11.00000  0.10922  15.95
CL04  6  0.23668  0.59513  0.69331 11.00000  0.07862  13.26
O005  4  0.09730  0.53555  0.61708 11.00000  0.03720  12.91
CL06  6  0.26319  0.38258  0.69514 11.00000  0.14527  12.63
CL07  6  0.94533  0.54005  0.34960 11.00000  0.06861  12.08
CL08  6  0.29374  0.53567  0.35079 11.00000  0.08935  11.87
O009  4  0.34439  0.53677  0.69512 11.00000  0.07264  11.12
O00A  4  0.46133  0.56694  0.64128 11.00000  0.11078  10.93
O00B  4  0.42113  0.48541  0.63711 11.00000  0.06938  10.67
C00C  2  0.46631  0.67821  0.29372 11.00000  0.06871  10.18
O00D  4  0.28851  0.52657  0.48458 11.00000  0.06732   9.99
N00E  3  0.39141  0.48469  0.21832 11.00000  0.11650   9.96
C00F  2  0.72070  0.52076  0.35260 11.00000  0.01818   9.95
C00G  2  0.17938  0.54295  0.48652 11.00000  0.09456   9.65
O00H  4  0.19844  0.49129  0.61621 11.00000  0.06451   9.47
O00I  4  0.55325  0.74165  0.64865 11.00000  0.07702   9.32
C00J  2  0.98498  0.67323  0.29911 11.00000  0.01262   9.30
O00K  4  0.45727  0.71301  0.65061 11.00000  0.06032   9.23
O00L  4 -0.14305  0.76987  0.56233 11.00000  0.10960   8.95
C00M  2 -0.24362  0.74406  0.57563 11.00000  0.07324   8.50
O00N  4 -0.11663  0.71849  0.65636 11.00000  0.02791   8.24
O00O  4  0.61266  0.65706  0.63604 11.00000  0.11204   8.16
C00P  2  1.70156  0.05099  0.41279 11.00000  0.04795   8.12
O00Q  4  1.06581  0.70120  0.29725 11.00000  0.04432   7.98
O00R  4  0.71278  0.45749  0.78569 11.00000  0.03042   7.97
O00S  4  0.34961  0.53654  0.57029 11.00000  0.04281   7.93
C00T  2  0.22008  0.53834  0.56630 11.00000  0.00919   7.85
O00U  4 -0.31974  0.84855  0.53879 11.00000  0.06854   7.80
C00V  2  0.48265  0.52331  0.23729 11.00000  0.03172   7.68
O00W  4  1.30014  0.09389  0.41822 11.00000  0.04088   7.63
N00X  3  0.56067  0.49935  0.23201 11.00000  0.06096   7.29
O00Y  4  0.13527  0.66215  0.46461 11.00000  0.07287   7.12
N00Z  3  1.81777  0.01588  0.39269 11.00000  0.04144   7.09
N010  3  1.58078  0.07553  0.42012 11.00000  0.08338   6.88
N011  3  0.39548  0.67037  0.29637 11.00000  0.07706   6.88
C012  2  0.57628  0.48772  0.78469 11.00000  0.04038   6.80
C013  2  1.43097  0.11356  0.41945 11.00000  0.07950   6.60
O014  4  0.45129  0.73578  0.43196 11.00000  0.13919   6.55
N015  3  0.05851  0.67664  0.64092 11.00000  0.05536   6.54
C016  2  0.67350  0.52787  0.25388 11.00000  0.08190   6.43
C017  2 -0.42845  0.80437  0.56401 11.00000  0.02414   6.39
C018  2  0.06499  0.74529  0.65197 11.00000  0.03573   6.38
N019  3 -0.75008  0.76528  0.56415 11.00000  0.00528   6.33
N01A  3  0.94406  0.48901  0.78578 11.00000  0.03527   6.25
O01B  4  0.71820  0.28364  0.37400 11.00000  0.06283   6.02
N01C  3 -0.23848  1.03297  0.54350 11.00000  0.07418   5.96
C01D  2  0.14956  0.72774  0.70396 11.00000  0.03495   5.85
C01E  2  0.81786  0.48275  0.78357 11.00000  0.07276   5.83
O01F  4  0.57985  0.54303  0.35090 11.00000  0.01594   5.81
C01G  2  0.80832  0.68611  0.29597 11.00000  0.04484   5.80
N01H  3  0.54174  0.65992  0.29236 11.00000  0.09796   5.80
C01I  2 -0.33883  0.38102  0.63899 11.00000  0.00647   5.49
C01J  2  0.81987  0.59882  0.76735 11.00000  0.00547   5.43
C01K  2  0.24942  0.37753  0.58175 11.00000  0.06059   4.83
C01L  2 -0.64506  0.74657  0.55571 11.00000  0.06332   4.82
C01M  2 -0.04687  0.68771  0.49132 11.00000  0.14683   4.81
C01N  2  0.80490  0.27058  0.34556 11.00000  0.03483   4.80
C01O  2  0.32248  0.72609  0.41559 11.00000  0.02355   4.78
C01P  2  0.52534  0.58873  0.77455 11.00000  0.04874   4.76
C01Q  2  0.43282  0.48273  0.70205 11.00000  0.00430   4.71
C01R  2  0.15142  0.39790  0.56310 11.00000  0.03774   4.66
C01S  2  1.47667 -0.03297  0.47779 11.00000  0.07389   4.42
C01T  2 -0.81777  0.88575  0.55001 11.00000  0.02499   4.39
C01U  2  0.25531  0.60253  0.63099 11.00000  0.02628   4.08
N01V  3  1.11463  0.29770  0.32296 11.00000  0.07466   4.03
C01W  2  0.51461  0.29819  0.70356 11.00000  0.06259   4.03
C01X  2  0.94157  0.36038  0.40329 11.00000  0.08600   3.91
C01Y  2  0.60621  0.72438  0.36806 11.00000  0.09275   3.85
C01Z  2  0.09356  0.37654  0.61658 11.00000  0.05620   3.76
C020  2  0.49551  0.39711  0.47338 11.00000  0.04445   3.57
C021  2  0.63071  0.30656  0.46261 11.00000  0.03304   3.51
N022  3  0.76448  0.34769  0.72143 11.00000  0.03019   3.32
C023  2  0.28328  0.41588  0.21422 11.00000  0.05814   3.29
C024  2  0.64267  0.37877  0.46862 11.00000  0.04603   3.23
C025  2  1.27577  0.24267  0.48638 11.00000  0.07282   3.16
C026  2  0.63430  0.56157  0.50381 11.00000  0.08070   3.13
N027  3  1.30688  0.27617  0.38197 11.00000  0.05352   3.08
C028  2 -0.04701  0.75394  0.44190 11.00000  0.03214   3.04
C029  2 -0.10677  0.64610  0.60504 11.00000  0.01773   3.02
HKLF 4
END
