TITL shelx03-merge_expF_0_6_expS_1_3_shelx03-merge_a.res in P1
REM Old TITL 1 in I 1 #-1
REM SHELXT solution in P1: R1 0.683, Rweak 0.036, Alpha 0.000
REM <I/s>   0.000 for    0 systematic absences,  Orientation as input
REM Flack x = -5.892 ( 0.615 ) from   497 Parsons' quotients
REM Formula found by SHELXT:  C91 N34 O19

CELL  0.71073   9.3100  15.1100  30.5000   90.000   90.000   90.000
ZERR   52.000   0.0019   0.0030   0.0061    0.000    0.000    0.000
LATT -2
SFAC H C N O ZR CL
UNIT 20 20 20 20 20 0
L.S. 10
BOND
LIST 6
FMAP 2
PLAN 20
CL01  6  0.64939  0.33260  0.53473 11.00000  0.04728  17.15
CL02  6  0.08327  0.34359  0.65296 11.00000  0.06483  15.41
CL03  6  0.13579  0.33192  0.53547 11.00000  0.03226  15.29
CL04  6  0.50220  0.35298  0.53656 11.00000  0.05031  15.00
CL05  6  0.32286  0.51581  0.60603 11.00000  0.04632  14.57
CL06  6  0.22546  0.34232  0.65182 11.00000  0.02641  14.34
CL07  6  0.28133  0.33061  0.53633 11.00000  0.05949  14.23
CL08  6  0.24373  0.00188  0.48986 11.00000  0.05374  13.49
CL09  6  0.76641  0.34849  0.53291 11.00000  0.04161  12.99
C00A  2  0.82753  0.04903  0.56961 11.00000  0.00225  12.72
O00B  4  0.49848  0.37125  0.65686 11.00000  0.01750  12.29
N00C  3  0.65028  0.33089  0.64069 11.00000  0.00010  12.10
C00D  2  0.87732 -0.23146  0.67990 11.00000  0.00010  11.89
N00E  3  0.47291  0.13002  0.53742 11.00000  0.00010  11.75
N00F  3  0.95526  0.38109  0.50517 11.00000  0.00703  11.12
N00G  3  0.02818  0.30142  0.62448 11.00000  0.00010  10.45
O00H  4  0.86912  0.55837  0.37776 11.00000  0.00010  10.32
O00I  4  0.70865  0.24969  0.68624 11.00000  0.00507   9.69
N00J  3  0.67526 -0.01799  0.60070 11.00000  0.01127   9.37
O00K  4  0.40421  0.32878  0.60630 11.00000  0.00280   9.13
O00L  4  0.87601  0.23447  0.55097 11.00000  0.00010   8.96
N00M  3  0.00412  1.04453  0.29851 11.00000  0.00218   8.85
N00N  3  0.76594  0.51442  0.37912 11.00000  0.00010   8.81
O00O  4  0.77801 -0.20411  0.69296 11.00000  0.00010   8.76
O00P  4  0.46193  1.03812  0.20137 11.00000  0.00010   8.70
N00Q  3  0.57136  0.25395  0.59790 11.00000  0.00010   8.67
N00R  3  0.15510  1.05708  0.28704 11.00000  0.00078   8.67
N00S  3  0.47216  0.20982  0.58752 11.00000  0.00218   8.57
N00T  3  0.23088  1.04245  0.24017 11.00000  0.00586   8.44
O00U  4  0.59076  0.31823  0.36281 11.00000  0.00836   8.38
N00V  3  0.81019  0.32662  0.61334 11.00000  0.02081   8.28
O00W  4 -0.07673  1.20495  0.27958 11.00000  0.04652   8.27
O00X  4  0.30872  1.05844  0.29215 11.00000  0.00010   8.11
O00Y  4  0.60031  0.13162  0.53428 11.00000  0.00010   8.09
N00Z  3  0.81850  0.69465  0.53150 11.00000  0.00010   8.05
O010  4  1.31704 -0.23377  0.61595 11.00000  0.03971   8.00
N011  3 -0.03537  1.05698  0.33397 11.00000  0.02492   8.00
O012  4  0.90699 -0.06505  0.54866 11.00000  0.01533   7.88
N013  3  0.47912  0.21041  0.54181 11.00000  0.00010   7.75
N014  3  0.35295  0.17619  0.60015 11.00000  0.02684   7.61
O015  4  0.68496  0.24310  0.60374 11.00000  0.04825   7.57
N016  3  0.33429  0.41587  0.39988 11.00000  0.00918   7.56
N017  3  0.79757  0.39429  0.53003 11.00000  0.07164   7.53
N018  3  0.89959  0.32106  0.54132 11.00000  0.00776   7.51
C019  2  0.07185  0.96797  0.29377 11.00000  0.00010   7.47
N01A  3  0.44262  0.42550  0.66671 11.00000  0.01831   7.45
O01B  4  1.14161  0.65992  0.49673 11.00000  0.00010   7.43
O01C  4  1.09496 -0.02872  0.64751 11.00000  0.06671   7.26
N01D  3  1.04387 -0.26788  0.65930 11.00000  0.00795   7.21
N01E  3  0.50403 -0.04478  0.60847 11.00000  0.00852   7.19
N01F  3  0.64105  0.58639  0.62758 11.00000  0.00456   7.15
C01G  2 -0.11934  0.86788  0.36750 11.00000  0.01790   7.12
N01H  3 -0.23453  1.09087  0.32912 11.00000  0.04175   7.11
N01I  3  0.32714 -0.02514  0.58630 11.00000  0.00010   7.06
N01J  3  0.24817  0.56474  0.42150 11.00000  0.00010   7.02
N01K  3  1.16417 -0.17131  0.48321 11.00000  0.00049   6.79
C01L  2  0.39774  0.24165  0.60079 11.00000  0.00787   6.77
N01M  3  0.01850  0.82964  0.37296 11.00000  0.00607   6.76
N01N  3  0.74820  0.66458  0.50408 11.00000  0.00452   6.70
C01O  2  0.64372 -0.00068  0.56103 11.00000  0.00800   6.62
N01P  3  0.98559 -0.00626  0.54613 11.00000  0.02228   6.58
C01Q  2  1.25985 -0.20733  0.46656 11.00000  0.00364   6.57
C01R  2  0.94736  0.45640  0.49002 11.00000  0.00010   6.56
C01S  2  1.15854 -0.29966  0.66145 11.00000  0.01494   6.46
C01T  2  0.17904  0.44772  0.40065 11.00000  0.00010   6.35
C01U  2  0.18969  0.37661  0.50903 11.00000  0.00939   6.32
C01V  2  0.21338  0.05291  0.56749 11.00000  0.00010   6.22
C01W  2  0.90995 -0.00288  0.64410 11.00000  0.00010   6.17
C01X  2  0.65100 -0.07500  0.54575 11.00000  0.00265   6.16
C01Y  2  0.65596  0.50092  0.65200 11.00000  0.00010   6.09
C01Z  2  1.07550  0.49113  0.55998 11.00000  0.00172   6.05
C020  2  0.82030  0.57409  0.53405 11.00000  0.07470   6.03
C021  2  0.42479  0.51022  0.39820 11.00000  0.01754   6.03
C022  2  0.15023  1.17747  0.28089 11.00000  0.02666   5.99
N023  3  0.22480  0.31784  0.36261 11.00000  0.05923   5.97
C024  2  1.22937  0.03318  0.69947 11.00000  0.00010   5.94
C025  2  0.67295  0.71398  0.51486 11.00000  0.00355   5.92
C026  2  0.77836  0.12582  0.57013 11.00000  0.02631   5.91
C027  2  0.21438  0.39027  0.71375 11.00000  0.00010   5.86
C028  2  0.39255  0.58642  0.38678 11.00000  0.01774   5.83
C029  2  0.41510  0.43236  0.52990 11.00000  0.00505   5.81
C02A  2  1.02313 -0.21521  0.69141 11.00000  0.02206   5.79
C02B  2  0.71655  0.52895  0.46626 11.00000  0.00010   5.69
C02C  2  0.66278  0.44111  0.48981 11.00000  0.00010   5.66
O02D  4  0.61764  0.47282  0.68319 11.00000  0.01606   5.64
C02E  2  0.55272  0.79694  0.47419 11.00000  0.00155   5.63
C02F  2  0.06415  0.07610  0.49528 11.00000  0.02787   5.62
C02G  2  1.34925 -0.16385  0.63705 11.00000  0.00010   5.52
C02H  2  0.49958  0.68140  0.29028 11.00000  0.01725   5.47
C02I  2  0.22250  0.73743  0.29850 11.00000  0.00010   5.42
C02J  2  0.65479  0.40739  0.60117 11.00000  0.00720   5.41
C02K  2  0.53711  1.07912  0.20332 11.00000  0.06258   5.40
C02L  2 -0.07617  1.29966  0.24166 11.00000  0.03123   5.38
C02M  2  0.24016  0.42886  0.55411 11.00000  0.01928   5.32
C02N  2  0.95928 -0.21265  0.59536 11.00000  0.01023   5.32
O02O  4  0.00338  0.66045  0.36000 11.00000  0.04240   5.32
C02P  2  0.54070  0.81296  0.26981 11.00000  0.00344   5.28
C02Q  2  1.20237 -0.15020  0.57030 11.00000  0.06522   5.18
C02R  2  0.45684  0.88156  0.24874 11.00000  0.03878   5.17
C02S  2  0.09041  0.82601  0.32851 11.00000  0.01459   5.05
C02T  2  0.73675 -0.07388  0.61264 11.00000  0.03623   5.03
C02U  2  0.34360  1.10771  0.21446 11.00000  0.00010   4.87
C02V  2  0.19163  0.37661  0.47954 11.00000  0.00010   4.86
C02W  2  0.21389  0.32334  0.71315 11.00000  0.00888   4.86
O02X  4 -0.24006  0.89012  0.37372 11.00000  0.05788   4.83
C02Y  2  0.21181  0.23547  0.61113 11.00000  0.03548   4.79
C02Z  2  0.27777  0.67537  0.35388 11.00000  0.00010   4.79
C030  2  1.02967  0.50940  0.46795 11.00000  0.00010   4.75
C031  2  0.00718  0.24159  0.61435 11.00000  0.02962   4.74
C032  2 -0.32397  1.11641  0.25612 11.00000  0.00010   4.71
C033  2  0.74543  0.29408  0.36526 11.00000  0.00010   4.68
C034  2  1.26299 -0.25382  0.57146 11.00000  0.04449   4.64
C035  2  0.39798  1.02894  0.36200 11.00000  0.00236   4.63
C036  2  1.03489  0.44230  0.52403 11.00000  0.00010   4.63
C037  2  0.58271  0.17591  0.65740 11.00000  0.00010   4.58
C038  2  0.63020  0.53080  0.38963 11.00000  0.00733   4.55
C039  2  0.57857  0.75581  0.31853 11.00000  0.01058   4.52
C03A  2  0.55593  0.04627  0.57174 11.00000  0.01833   4.34
C03B  2  0.32240  0.19671  0.56165 11.00000  0.00010   4.32
N03C  3 -0.22477  1.16840  0.29635 11.00000  0.02467   4.26
C03D  2  0.02806  1.14170  0.29856 11.00000  0.01073   4.12
C03E  2  0.87736 -0.03535  0.61752 11.00000  0.00010   4.10
C03F  2  0.29828  0.83332  0.29260 11.00000  0.04188   4.00
C03G  2  1.32592 -0.26399  0.47213 11.00000  0.08075   3.91
C03H  2  0.02150  0.93106  0.38633 11.00000  0.00086   3.89
C03I  2  0.04001  0.68504  0.31369 11.00000  0.01918   3.88
C03J  2  0.43442  0.35243  0.34977 11.00000  0.03215   3.88
C03K  2  1.21196 -0.13219  0.64920 11.00000  0.00010   3.88
C03L  2  0.05594  0.46532  0.40662 11.00000  0.00010   3.85
C03M  2  0.83683  0.39389  0.60083 11.00000  0.00010   3.84
C03N  2 -0.12658  0.22068  0.46991 11.00000  0.00259   3.84
C03O  2  1.09844 -0.00008  0.74282 11.00000  0.01631   3.77
C03P  2  0.22732  0.91132  0.34044 11.00000  0.00852   3.70
C03Q  2  0.78230  0.49178  0.41900 11.00000  0.00010   3.55
C03R  2  1.03865  0.64192  0.47261 11.00000  0.02004   3.54
C03S  2  0.09636  0.18526  0.42981 11.00000  0.00325   3.53
C03T  2  0.34901  0.07956  0.52372 11.00000  0.03266   3.51
C03U  2  0.67175 -0.12946  0.57304 11.00000  0.01725   3.50
N03V  3  0.29655  0.36304  0.37198 11.00000  0.00307   3.46
C03W  2  0.18286  0.84922  0.23653 11.00000  0.00010   3.46
C03X  2  0.91379 -0.03093  0.79863 11.00000  0.02518   3.38
C03Y  2  0.84186  0.59198  0.44748 11.00000  0.02397   3.36
C03Z  2  0.19201  0.39452  0.32567 11.00000  0.00010   3.34
N040  3  0.08780  0.88897  0.29760 11.00000  0.01487   3.25
C041  2  1.32164 -0.11258  0.52224 11.00000  0.00010   3.24
C042  2  1.40813 -0.17368  0.56092 11.00000  0.00010   3.22
C043  2  0.16671  0.26069  0.33830 11.00000  0.04841   3.11
C044  2  0.14653  0.26971  0.48018 11.00000  0.00347   3.11
C045  2  0.53181  0.65480  0.45587 11.00000  0.06942   3.08
C046  2 -0.40813  0.82730  0.38565 11.00000  0.00010   3.06
C047  2  0.90879 -0.08475  0.48728 11.00000  0.01482   3.03
C048  2  0.56450  0.20075  0.32346 11.00000  0.04400   3.02
C049  2  0.93436  0.03060  0.77234 11.00000  0.00010   3.02
HKLF 4
END
