TITL shelx03-merge_expF_1_5_expS_0_8_shelx03-merge_a.res in P1
REM Old TITL 1 in I 1 #-1
REM SHELXT solution in P1: R1 0.919, Rweak 0.190, Alpha 0.000
REM <I/s>   0.000 for    0 systematic absences,  Orientation as input
REM Flack x =  0.261 ( 0.902 ) from   943 Parsons' quotients
REM Formula found by SHELXT:  C28 N11 O25

CELL  0.71073   9.3100  15.1100  30.5000   90.000   90.000   90.000
ZERR   52.000   0.0019   0.0030   0.0061    0.000    0.000    0.000
LATT -2
SFAC H C N O ZR CL
UNIT 20 20 20 20 20 0
L.S. 10
BOND
LIST 6
FMAP 2
PLAN 20
CL01  6  0.62479  0.50766  0.41621 11.00000  0.04985  15.42
CL02  6  0.52018  0.52765  0.42295 11.00000  0.01719  15.32
CL03  6  0.40586  0.70199  0.63892 11.00000  0.05933  15.04
CL04  6  0.72562  0.13066  0.58993 11.00000  0.04639  14.42
CL05  6  0.35307  0.65381  0.63352 11.00000  0.06651  13.97
CL06  6  0.72043  0.44657  0.43618 11.00000  0.08759  13.70
C007  2  0.29019  0.64374  0.30211 11.00000  0.01421  13.23
CL08  6  0.84423  0.14981  0.59349 11.00000  0.03595  13.05
C009  2  0.92279  0.43111  0.37954 11.00000  0.01640  12.67
O00A  4  0.57804  0.12726  0.58636 11.00000  0.00010  12.03
O00B  4  0.83090  0.48700  0.39244 11.00000  0.02876  11.91
O00C  4  0.38291  0.44715  0.41280 11.00000  0.08299  11.80
N00D  3  0.02741  0.64178  0.51988 11.00000  0.04907  11.43
O00E  4  0.41617  0.13169  0.58810 11.00000  0.01740  11.38
N00F  3  0.01954  0.58504  0.51926 11.00000  0.06261  10.99
O00G  4  1.11785  0.40236  0.38465 11.00000  0.04809  10.77
O00H  4 -0.05569  0.53591  0.71449 11.00000  0.04864  10.62
N00I  3  0.87164  0.56408  0.38275 11.00000  0.08197  10.50
O00J  4  0.36641  0.38443  0.62276 11.00000  0.10185  10.42
N00K  3 -0.07769  0.52966  0.53788 11.00000  0.01421  10.35
O00L  4  0.47158  0.58442  0.41898 11.00000  0.02093  10.25
O00M  4  0.54876  0.67686  0.63830 11.00000  0.03354  10.06
C00N  2  0.09200  0.58599  0.68824 11.00000  0.07653   9.83
O00O  4  0.51374  0.53276  0.71955 11.00000  0.04590   9.82
O00P  4  0.65837  0.42851  0.62376 11.00000  0.02816   9.37
O00Q  4 -0.13858  0.65095  0.51412 11.00000  0.01002   9.19
O00R  4  0.37921  0.47396  0.29696 11.00000  0.04949   9.17
O00S  4  0.60713  0.67472  0.23106 11.00000  0.04608   9.01
O00T  4  0.23742  0.51667  0.67935 11.00000  0.04833   8.99
O00U  4  0.22996  0.72509  0.29797 11.00000  0.04102   8.98
O00V  4  0.86137  0.63424  0.42875 11.00000  0.01961   8.70
C00W  2  0.32034  0.54805  0.28291 11.00000  0.01260   8.29
O00X  4  0.56719  0.57000  0.69872 11.00000  0.06146   8.12
O00Y  4  1.21087  0.13549  0.59404 11.00000  0.00937   8.03
C00Z  2  1.00133  0.12719  0.58906 11.00000  0.00773   7.89
O010  4  0.84095  0.11206  0.46002 11.00000  0.02850   7.59
O011  4  0.65207  0.41860  0.38153 11.00000  0.00958   7.53
O012  4  1.09650  0.14722  0.59123 11.00000  0.00010   7.51
N013  3 -0.21087  0.62316  0.73161 11.00000  0.08433   7.42
O014  4  0.12690  0.41475  0.56219 11.00000  0.00010   7.34
N015  3  0.42714  0.58912  0.37420 11.00000  0.08933   6.92
C016  2  0.42040  0.39499  0.46488 11.00000  0.00010   6.47
C017  2  0.74774  0.37276  0.66013 11.00000  0.11293   6.45
C018  2  0.15798  0.54079  0.51813 11.00000  0.03763   6.43
C019  2  0.37101  0.48263  0.68058 11.00000  0.01148   6.33
O01A  4  0.39123  0.14035  0.46795 11.00000  0.06756   5.83
C01B  2  0.50485  0.47954  0.35089 11.00000  0.03515   5.80
C01C  2  0.47985  0.80961  0.34836 11.00000  0.00010   5.72
C01D  2  0.10500  0.69862  0.34550 11.00000  0.07561   5.62
C01E  2  0.24908  0.44484  0.65099 11.00000  0.00759   5.60
C01F  2  0.22648  0.65503  0.45866 11.00000  0.00517   5.38
C01G  2  0.75201  0.67342  0.34753 11.00000  0.04162   5.22
C01H  2  0.76748  0.68512  0.37155 11.00000  0.01652   5.16
C01I  2  0.79836  0.31753  0.44791 11.00000  0.00010   4.96
C01J  2 -0.00312  0.80550  0.56042 11.00000  0.07227   4.93
N01K  3  0.47009  0.79040  0.31627 11.00000  0.03927   4.86
C01L  2  0.25055  0.11527  0.48067 11.00000  0.04045   4.81
C01M  2  0.37510  0.69619  0.47499 11.00000  0.02586   4.52
N01N  3  0.77401  0.87922  0.28042 11.00000  0.01628   4.28
C01O  2  0.00180  0.65757  0.26325 11.00000  0.00010   4.18
C01P  2  0.72711  0.21891  0.44511 11.00000  0.00010   3.83
C01Q  2  0.00577  0.71672  0.75175 11.00000  0.03952   3.82
N01R  3  0.59031  0.04590  0.54078 11.00000  0.00010   3.75
C01S  2  1.04062  0.32963  0.34371 11.00000  0.00799   3.52
C01T  2  0.34761  0.63139  0.75426 11.00000  0.00630   3.43
C01U  2  0.60715  0.52445  0.58685 11.00000  0.00010   3.32
C01V  2 -0.00965  0.70031  0.36470 11.00000  0.00010   3.31
N01W  3  1.01299  0.95410  0.33722 11.00000  0.01415   3.28
O01X  4 -0.03067  0.67204  0.76894 11.00000  0.02679   3.21
N01Y  3  0.37403  0.63462  0.47742 11.00000  0.02407   3.13
C01Z  2  0.78889  0.61595  0.31487 11.00000  0.01856   3.09
HKLF 4
END
