TITL shelx03-merge_expF_1_5_expS_1_1_shelx03-merge_a.res in P1
REM Old TITL 1 in I 1 #-1
REM SHELXT solution in P1: R1 0.927, Rweak 0.223, Alpha 0.000
REM <I/s>   0.000 for    0 systematic absences,  Orientation as input
REM Flack x = -3.624 ( 0.740 ) from   543 Parsons' quotients
REM Formula found by SHELXT:  C37 N6 O30

CELL  0.71073   9.3100  15.1100  30.5000   90.000   90.000   90.000
ZERR   52.000   0.0019   0.0030   0.0061    0.000    0.000    0.000
LATT -2
SFAC H C N O ZR
UNIT 20 20 20 20 20
L.S. 10
BOND
LIST 6
FMAP 2
PLAN 20
ZR01  5  0.34449  0.10294  0.63071 11.00000  0.05932  24.34
O002  4  0.98834  0.09120  0.62924 11.00000  0.01370  23.92
O003  4  0.23602  0.15319  0.61542 11.00000  0.01248  23.33
O004  4  1.04339  0.03936  0.61073 11.00000  0.00539  22.85
O005  4  0.98734  0.58838  0.45150 11.00000  0.00010  17.45
O006  4  0.83152  0.58236  0.45731 11.00000  0.03992  17.23
O007  4  0.53020  0.59134  0.45304 11.00000  0.00010  13.69
O008  4  1.10738 -0.08117  0.68734 11.00000  0.00010  13.59
O009  4  0.42194  0.59547  0.45635 11.00000  0.00981  13.49
O00A  4  0.69592  0.17531  0.49722 11.00000  0.00527  13.47
O00B  4  0.70195  0.07435  0.65912 11.00000  0.05260  13.45
O00C  4  0.67588  0.58007  0.46207 11.00000  0.02171  12.64
O00D  4  0.54046  1.04704  0.36779 11.00000  0.03928  12.31
O00E  4  0.95927  0.26818  0.61689 11.00000  0.01009  12.27
C00F  2  0.72158 -0.07669  0.65777 11.00000  0.00010  12.25
O00G  4  0.91981  0.08567  0.72936 11.00000  0.03235  11.47
O00H  4  0.81816  0.00921  0.55204 11.00000  0.10279  10.73
O00I  4  0.38259  1.03770  0.37544 11.00000  0.00125  10.51
O00J  4  0.24615  0.58693  0.44393 11.00000  0.01863  10.12
O00K  4  0.60103  0.61136  0.32806 11.00000  0.03098  10.11
O00L  4  0.16369  0.25420  0.68824 11.00000  0.00010   9.88
O00M  4  0.47127 -0.07796  0.59565 11.00000  0.00010   9.47
O00N  4  0.36072  0.09808  0.76008 11.00000  0.00344   9.44
C00O  2  0.96688 -0.00515  0.69270 11.00000  0.00010   9.11
O00P  4  1.02434 -0.11609  0.68942 11.00000  0.00010   9.04
C00Q  2  0.91319  0.14110  0.52637 11.00000  0.00010   8.87
O00R  4  0.64275 -0.09556  0.69878 11.00000  0.02551   8.40
O00S  4  0.52624  0.26355  0.71505 11.00000  0.04932   8.29
O00T  4  0.79042 -0.08073  0.71485 11.00000  0.05210   8.23
C00U  2  0.55614  0.21100  0.50428 11.00000  0.01882   8.07
O00V  4  0.59833  0.33672  0.54013 11.00000  0.07617   7.23
C00W  2  0.44913  0.82243  0.32206 11.00000  0.00010   7.21
N00X  3  0.55376  0.58535  0.56369 11.00000  0.01133   6.93
N00Y  3  0.57192  0.05468  0.72158 11.00000  0.00401   6.88
O00Z  4  0.38474  0.14084  0.49232 11.00000  0.13480   6.51
C010  2  0.58265  0.23575  0.47641 11.00000  0.01005   6.47
C011  2  0.71583  0.25394  0.45793 11.00000  0.00010   6.23
C012  2  0.17284  1.09540  0.35476 11.00000  0.03280   6.10
C013  2  0.28281  0.86506  0.41304 11.00000  0.06293   6.09
C014  2  0.24261  0.81903  0.32461 11.00000  0.01027   5.95
C015  2  0.38552  0.93962  0.40416 11.00000  0.00439   5.79
C016  2 -0.01873  1.03164  0.23750 11.00000  0.01368   5.39
O017  4  0.98414  0.35584  0.45387 11.00000  0.01344   5.27
N018  3  0.66538  0.83656  0.31397 11.00000  0.00429   5.10
N019  3  0.26893 -0.12662  0.54412 11.00000  0.07374   4.98
C01A  2  0.45049  0.14393  0.64998 11.00000  0.03562   4.94
C01B  2  0.92133  0.38723  0.41043 11.00000  0.00010   4.77
O01C  4  0.22723  0.08059  0.55151 11.00000  0.00557   4.75
C01D  2  0.51566  0.84502  0.32412 11.00000  0.00010   4.72
C01E  2  0.88335  0.38416  0.59467 11.00000  0.01443   4.71
C01F  2  0.02475  1.18899  0.25956 11.00000  0.00337   4.68
C01G  2  0.39642 -0.18435  0.65749 11.00000  0.00010   4.58
C01H  2  0.10964  0.95130  0.41102 11.00000  0.01221   4.52
O01I  4  0.03086  0.90028  0.29921 11.00000  0.04713   4.38
C01J  2  1.02229  0.01973  0.49993 11.00000  0.00010   4.26
C01K  2  0.42925  0.21385  0.58333 11.00000  0.00010   4.24
C01L  2  0.70200  0.46933  0.33614 11.00000  0.00010   4.21
C01M  2  1.03256  0.23044  0.46736 11.00000  0.02263   3.92
C01N  2  0.45291  0.72579  0.34903 11.00000  0.02147   3.86
N01O  3  0.45889  0.42076  0.36962 11.00000  0.01670   3.83
C01P  2  0.05931  0.34756  0.70002 11.00000  0.02887   3.83
N01Q  3  0.83771 -0.14039  0.52401 11.00000  0.01428   3.81
C01R  2  0.57617 -0.07103  0.59894 11.00000  0.00010   3.80
C01S  2  0.84248  0.30292  0.36553 11.00000  0.01273   3.75
C01T  2 -0.14872  1.31538  0.26756 11.00000  0.00010   3.74
C01U  2  0.16968  0.97035  0.35379 11.00000  0.00010   3.59
C01V  2  1.14872 -0.31538  0.70974 11.00000  0.00010   3.51
C01W  2  0.67670  1.13320  0.33352 11.00000  0.02392   3.38
C01X  2  0.77358 -0.12904  0.74234 11.00000  0.09213   3.31
C01Y  2  0.59744  0.35752  0.42100 11.00000  0.03679   3.27
C01Z  2  0.76881  0.86020  0.27523 11.00000  0.01572   3.12
C020  2  0.98551 -0.20890  0.76250 11.00000  0.00010   3.05
C021  2  0.42667  0.03082  0.56467 11.00000  0.02506   3.05
C022  2  0.35363  0.31884  0.57901 11.00000  0.04001   3.04
HKLF 4
END
