TITL shelx03-merge_expF_1_4_expS_1_0_shelx03-merge_a.res in P1
REM Old TITL 1 in I 1 #-1
REM SHELXT solution in P1: R1 0.889, Rweak 0.090, Alpha 0.000
REM <I/s>   0.000 for    0 systematic absences,  Orientation as input
REM Flack x = -9.990 ( 9.990 ) from   637 Parsons' quotients
REM Formula found by SHELXT:  C39 N9 O17

CELL  0.71073   9.3100  15.1100  30.5000   90.000   90.000   90.000
ZERR   52.000   0.0019   0.0030   0.0061    0.000    0.000    0.000
LATT -2
SFAC H C N O ZR
UNIT 20 20 20 20 20
L.S. 10
BOND
LIST 6
FMAP 2
PLAN 20
O001  4  1.21551  0.59329  0.39232 11.00000  0.03951  12.28
C002  2 -0.49386  0.60447  0.63786 11.00000  0.01149  11.98
O003  4 -0.12348  0.62433  0.64989 11.00000  0.03449  11.25
O004  4  1.64362  0.53331  0.36985 11.00000  0.01328  10.89
O005  4  1.11349  0.60256  0.39490 11.00000  0.05736  10.73
C006  2  0.02954  0.62328  0.64697 11.00000  0.00908  10.27
O007  4  0.17949  0.77540  0.59766 11.00000  0.00560   9.36
O008  4 -0.31224  0.56552  0.65203 11.00000  0.05135   9.30
C009  2  0.67521  0.51120  0.53430 11.00000  0.05120   9.26
N00A  3 -0.38186  0.81868  0.72369 11.00000  0.09889   9.22
C00B  2  0.28300  0.79480  0.60816 11.00000  0.00073   8.90
C00C  2  0.67572  0.11742  0.58540 11.00000  0.00433   8.88
C00D  2  1.52439  0.59268  0.35455 11.00000  0.06558   8.67
O00E  4  1.24163  0.77388  0.39789 11.00000  0.00010   8.29
O00F  4  0.85512  0.50151  0.52277 11.00000  0.02787   8.12
C00G  2  1.06669  0.54029  0.53587 11.00000  0.09687   7.94
O00H  4 -0.59279  0.67087  0.60405 11.00000  0.03338   7.79
O00I  4  1.37470  0.63146  0.36449 11.00000  0.02787   7.66
O00J  4  0.68034  0.08622  0.57767 11.00000  0.08763   7.62
O00K  4  1.23072  0.73910  0.40157 11.00000  0.00010   7.51
O00L  4  0.62796  0.81012  0.56793 11.00000  0.09907   7.20
N00M  3  0.51056  0.63870  0.52499 11.00000  0.12235   7.13
N00N  3  0.45675  0.12997  0.55708 11.00000  0.04433   7.03
N00O  3 -0.45330  0.79135  0.73298 11.00000  0.03291   6.99
N00P  3  0.49925  0.87844  0.34584 11.00000  0.05599   6.94
N00Q  3  0.12270  0.64498  0.60281 11.00000  0.09963   6.88
C00R  2  0.82038  0.77803  0.59911 11.00000  0.00011   6.63
N00S  3  0.38681  0.86547  0.33109 11.00000  0.00269   6.56
C00T  2  0.26956  0.14030  0.55467 11.00000  0.00010   6.56
C00U  2 -0.29480  0.58097  0.70437 11.00000  0.02100   6.41
C00V  2  0.26484  0.55890  0.59964 11.00000  0.01282   6.40
O00W  4  0.87896  0.71535  0.29955 11.00000  0.02011   6.31
O00X  4  0.24471  0.55211  0.74078 11.00000  0.00010   6.12
C00Y  2  0.99917  0.63996  0.32409 11.00000  0.01691   5.93
C00Z  2  0.21265  0.60425  0.74486 11.00000  0.00791   5.91
C010  2 -0.17216  0.76242  0.69688 11.00000  0.02800   5.91
C011  2  0.24073  0.09016  0.54318 11.00000  0.02108   5.81
C012  2 -0.64362  0.63083  0.64857 11.00000  0.00435   5.62
C013  2  0.95160  0.91378  0.29610 11.00000  0.05220   5.23
C014  2 -0.00185  0.71341  0.68275 11.00000  0.03230   5.19
C015  2  1.21813  0.55661  0.25514 11.00000  0.00292   5.17
C016  2  0.13372  0.61716  0.64926 11.00000  0.01019   5.13
C017  2  0.96968  0.59233  0.39518 11.00000  0.01644   4.79
C018  2  0.66562  0.73847  0.49512 11.00000  0.05233   4.73
O019  4  0.27227  0.76565  0.69651 11.00000  0.03688   4.68
C01A  2  0.79148  0.70049  0.47766 11.00000  0.00010   4.64
N01B  3  1.32260  0.35482  0.44581 11.00000  0.00919   4.60
C01C  2  0.26250  0.51263  0.64160 11.00000  0.03803   4.37
C01D  2  0.53972  0.85527  0.30061 11.00000  0.00038   4.35
C01E  2 -0.17776  0.55438  0.73164 11.00000  0.01418   4.33
C01F  2  0.15359  0.19036  0.57417 11.00000  0.00122   4.24
C01G  2  0.67427  0.88969  0.32862 11.00000  0.02720   3.80
C01H  2  0.75369  0.81745  0.26619 11.00000  0.01926   3.79
C01I  2  0.32043  0.39358  0.60139 11.00000  0.01887   3.76
C01J  2  0.70656  0.41082  0.59991 11.00000  0.01919   3.65
C01K  2  0.50736  0.42145  0.64165 11.00000  0.01115   3.64
C01L  2  1.08746  0.73022  0.44749 11.00000  0.05754   3.59
C01M  2  0.25522  0.49270  0.60569 11.00000  0.05129   3.55
O01N  4  0.94473  0.57859  0.26625 11.00000  0.06365   3.48
C01O  2  0.93416  0.85684  0.29379 11.00000  0.02146   3.46
C01P  2  0.09024  0.09842  0.54947 11.00000  0.00010   3.30
N01Q  3 -0.14288  0.53005  0.70121 11.00000  0.00867   3.28
C01R  2  0.13144  0.80730  0.72168 11.00000  0.00017   3.25
C01S  2  1.06476  0.51830  0.26266 11.00000  0.00010   3.19
C01T  2  0.42041  0.50577  0.58314 11.00000  0.00010   3.01
HKLF 4
END
