TITL shelx03-merge_expF_1_3_expS_1_3_shelx03-merge_a.res in P1
REM Old TITL 1 in I 1 #-1
REM SHELXT solution in P1: R1 0.855, Rweak 0.173, Alpha 0.000
REM <I/s>   0.000 for    0 systematic absences,  Orientation as input
REM Flack x = -3.319 ( 0.603 ) from   370 Parsons' quotients
REM Formula found by SHELXT:  C45 N27 O27

CELL  0.71073   9.3100  15.1100  30.5000   90.000   90.000   90.000
ZERR   52.000   0.0019   0.0030   0.0061    0.000    0.000    0.000
LATT -2
SFAC H C N O ZR
UNIT 20 20 20 20 20
L.S. 10
BOND
LIST 6
FMAP 2
PLAN 20
ZR01  5  0.60773  0.55738  0.40413 11.00000  0.04315  25.37
O002  4  0.73192  0.54601  0.40972 11.00000  0.02079  21.00
O003  4  0.97773  0.55655  0.40911 11.00000  0.02841  20.94
N004  3  1.14981  0.54212  0.41182 11.00000  0.03571  20.82
N005  3  0.45823  0.54269  0.41063 11.00000  0.00010  20.55
C006  2  1.02449  0.58765  0.53274 11.00000  0.02982  18.66
N007  3  0.67625  0.14518  0.58493 11.00000  0.04731  16.15
N008  3  0.68230  0.07673  0.58349 11.00000  0.00010  15.73
O009  4  0.87905  0.51004  0.39287 11.00000  0.00010  15.28
O00A  4  0.33218  0.56087  0.40471 11.00000  0.00010  14.94
O00B  4  0.61107  0.56848  0.52974 11.00000  0.02712  14.82
N00C  3  0.25176  0.04661  0.68941 11.00000  0.00010  13.77
O00D  4  1.13178  0.55081  0.51722 11.00000  0.03119  13.75
N00E  3  0.20649 -0.02206  0.67150 11.00000  0.00222  13.70
C00F  2  0.89238  0.39825  0.47475 11.00000  0.01046  10.91
O00G  4  0.26789  0.31750  0.66900 11.00000  0.07766  10.86
O00H  4  0.54494  0.17050  0.57530 11.00000  0.06525  10.85
C00I  2  0.78065  0.50666  0.51229 11.00000  0.00010  10.83
O00J  4  0.34379  0.12373  0.61655 11.00000  0.01456  10.64
N00K  3  0.12101  0.08048  0.69848 11.00000  0.00652  10.27
O00L  4  0.43289  0.78631  0.45619 11.00000  0.02822  10.02
N00M  3  0.49733  0.13535  0.57045 11.00000  0.01194  10.01
O00N  4  0.93480  0.68013  0.47181 11.00000  0.00010   9.98
N00O  3  0.75650  0.02697  0.59208 11.00000  0.06047   9.76
O00P  4 -0.26430  0.16162  0.75103 11.00000  0.04221   9.57
O00Q  4  0.41433  0.01187  0.67921 11.00000  0.00619   9.50
N00R  3  0.83014  0.73034  0.46982 11.00000  0.00010   8.94
C00S  2  0.24808  0.18037  0.62358 11.00000  0.00604   8.87
O00T  4  0.33583  0.64844  0.43776 11.00000  0.00604   8.87
O00U  4  1.25154 -0.00872  0.49459 11.00000  0.00010   8.83
O00V  4  0.05860 -0.01628  0.67575 11.00000  0.05291   8.63
C00W  2  0.26563  0.81701  0.46006 11.00000  0.00010   8.42
C00X  2  0.10234  0.27983  0.67424 11.00000  0.00010   8.41
N00Y  3  0.89343  0.00425  0.60009 11.00000  0.00433   8.20
O00Z  4  0.61748  0.40250  0.38640 11.00000  0.06711   8.03
O010  4  0.49428 -0.18530  0.65783 11.00000  0.05327   8.00
O011  4  0.45052  0.50889  0.45535 11.00000  0.00010   7.95
O012  4  1.32041  0.20015  0.48102 11.00000  0.02433   7.64
O013  4  0.77474  0.43858  0.47458 11.00000  0.02658   7.51
N014  3  0.70350 -0.02697  0.62973 11.00000  0.01070   7.50
O015  4  0.56491  0.01644  0.63542 11.00000  0.00010   7.44
O016  4  0.02982  0.18726  0.67546 11.00000  0.03153   7.37
N017  3 -0.14371  0.13527  0.74627 11.00000  0.03536   7.04
N018  3 -0.32041 -0.04040  0.78824 11.00000  0.00113   6.87
N019  3  0.88551  0.06720  0.61916 11.00000  0.08857   6.81
C01A  2  0.60706  0.78488  0.40110 11.00000  0.00010   6.48
C01B  2 -0.28377  0.04128  0.72728 11.00000  0.00010   6.28
C01C  2  0.79420  0.57803  0.33481 11.00000  0.00209   6.14
C01D  2  0.41376  0.45909  0.44876 11.00000  0.00010   6.10
O01E  4  1.07931  0.02027  0.49799 11.00000  0.02908   6.10
C01F  2 -0.17194  0.24815  0.77742 11.00000  0.00010   5.85
C01G  2  0.60832  0.34065  0.39791 11.00000  0.01498   5.84
C01H  2 -0.23007 -0.16516  0.82640 11.00000  0.00543   5.78
C01I  2  0.74435  1.13310  0.24115 11.00000  0.03411   5.77
C01J  2  0.75581  0.01426  0.62671 11.00000  0.00010   5.74
C01K  2  0.89686  0.61847  0.46878 11.00000  0.02824   5.68
C01L  2  1.11917  0.14404  0.55076 11.00000  0.01398   5.48
C01M  2  0.00145  0.02977  0.74764 11.00000  0.00010   5.41
C01N  2  0.30629  0.38135  0.47654 11.00000  0.04887   5.31
C01O  2  0.93676  0.90350  0.37793 11.00000  0.00763   5.30
C01P  2  0.62448  1.11432  0.23311 11.00000  0.00010   5.13
C01Q  2  1.09610  0.10702  0.46614 11.00000  0.01201   5.08
C01R  2  0.76979  0.73727  0.33583 11.00000  0.00010   5.06
C01S  2  0.90602  0.72056  0.28151 11.00000  0.03022   5.02
C01T  2  0.61824  0.69645  0.46630 11.00000  0.00010   5.01
C01U  2  0.22875 -0.27992  0.63481 11.00000  0.02418   4.95
C01V  2  0.91716  0.10959  0.61077 11.00000  0.01640   4.93
C01W  2  1.01665  0.02356  0.58231 11.00000  0.00010   4.85
N01X  3  0.51509  1.27992  0.24195 11.00000  0.00010   4.83
N01Y  3  0.57212  1.07342  0.21858 11.00000  0.00010   4.82
C01Z  2  0.89203  0.16964  0.44287 11.00000  0.03509   4.67
O020  4  0.98952  0.33274  0.47960 11.00000  0.05113   4.65
C021  2  0.48226  0.05030  0.70781 11.00000  0.00010   4.61
O022  4  1.17723  0.32817  0.55395 11.00000  0.05565   4.59
C023  2  0.42797 -0.08479  0.63776 11.00000  0.00010   4.52
C024  2  0.39453 -0.13048  0.63821 11.00000  0.00290   4.49
N025  3  0.83137  1.05490  0.31640 11.00000  0.06214   4.44
N026  3  1.05709  0.87519  0.37423 11.00000  0.00010   4.40
C027  2  0.18229  0.03888  0.73628 11.00000  0.00384   4.36
N028  3  0.71421  0.30332  0.43962 11.00000  0.01444   4.26
N029  3  0.81977 -0.18738  0.58986 11.00000  0.02298   4.15
C02A  2  1.16104  0.82159  0.36110 11.00000  0.00816   4.08
C02B  2  1.12210 -0.01455  0.56229 11.00000  0.00630   4.04
C02C  2  0.87965  0.85370  0.35083 11.00000  0.00010   3.86
C02D  2  1.11042  0.46501  0.40279 11.00000  0.00268   3.85
N02E  3  0.62141  0.32109  0.53914 11.00000  0.00881   3.80
C02F  2  1.08615  0.33834  0.54071 11.00000  0.01765   3.76
C02G  2  0.94100  0.30445  0.49188 11.00000  0.00010   3.76
N02H  3  0.82245  0.83158  0.32609 11.00000  0.01853   3.72
C02I  2  0.72600  0.25238  0.43128 11.00000  0.05800   3.58
O02J  4  0.09851  0.20708  0.62208 11.00000  0.00010   3.57
N02K  3  0.30880  1.05504  0.17360 11.00000  0.01004   3.54
C02L  2  1.05913  0.78402  0.38983 11.00000  0.00699   3.44
N02M  3  0.47113  0.53725  0.59881 11.00000  0.00177   3.41
C02N  2 -0.12801 -0.02070  0.78984 11.00000  0.00143   3.31
N02O  3  0.85846  0.80857  0.25557 11.00000  0.02923   3.29
C02P  2  1.06627  0.49496  0.37692 11.00000  0.00477   3.23
N02Q  3  0.75505  0.31772  0.62866 11.00000  0.00890   3.19
C02R  2  0.63443  0.21498  0.38061 11.00000  0.00010   3.02
C02S  2  0.04678  0.06874  0.74533 11.00000  0.00628   3.01
HKLF 4
END
