TITL shelx03-merge_expF_1_5_expS_0_9_shelx03-merge_a.res in P1
REM Old TITL 1 in I 1 #-1
REM SHELXT solution in P1: R1 0.902, Rweak 0.315, Alpha 0.000
REM <I/s>   0.000 for    0 systematic absences,  Orientation as input
REM Flack x = -8.985 ( 1.554 ) from   780 Parsons' quotients
REM Formula found by SHELXT:  C27 N9 O23

CELL  0.71073   9.3100  15.1100  30.5000   90.000   90.000   90.000
ZERR   52.000   0.0019   0.0030   0.0061    0.000    0.000    0.000
LATT -2
SFAC H C N O ZR CL
UNIT 20 20 20 20 20 0
L.S. 10
BOND
LIST 6
FMAP 2
PLAN 20
CL01  6  0.09260  0.74479  0.35919 11.00000  0.05270  22.54
CL02  6  0.59487  0.78315  0.35934 11.00000  0.06029  22.50
CL03  6  0.70960  0.75816  0.35459 11.00000  0.04681  21.68
CL04  6  0.48313  0.76686  0.35778 11.00000  0.04254  19.39
O005  4  1.12327  0.77256  0.47125 11.00000  0.01263  18.49
CL06  6  0.23895  0.75377  0.35439 11.00000  0.02830  17.48
CL07  6 -0.12327  0.27082  0.57510 11.00000  0.06765  17.31
CL08  6  0.37801  0.75226  0.35583 11.00000  0.05462  15.56
C009  2  1.01009  0.77317  0.48311 11.00000  0.01242  15.42
CL0A  6  0.05074  0.41843  0.51775 11.00000  0.07841  14.48
CL0B  6  0.00813  0.31784  0.53134 11.00000  0.03736  13.97
CL0C  6  0.00920  0.23388  0.56750 11.00000  0.06072  13.46
CL0D  6  0.15775  0.39931  0.52555 11.00000  0.05459  13.11
CL0E  6  0.88462  0.93901  0.41322 11.00000  0.10172  12.50
CL0F  6  0.59135  0.28063  0.62406 11.00000  0.05648  11.90
O00G  4  0.68066  0.47432  0.62250 11.00000  0.01885  10.98
C00H  2  0.57300  0.52022  0.62900 11.00000  0.00010  10.84
O00I  4  0.16808  0.27002  0.51722 11.00000  0.04489  10.36
O00J  4  0.12579  0.45657  0.65694 11.00000  0.00672  10.11
O00K  4  0.45819  0.43350  0.57471 11.00000  0.02750  10.06
O00L  4  0.06004  0.94668  0.26969 11.00000  0.02278   9.43
O00M  4  0.14056  0.52623  0.66365 11.00000  0.02416   8.96
O00N  4  0.63158  0.38692  0.56947 11.00000  0.00560   8.77
N00O  3  0.32426  0.22338  0.70022 11.00000  0.01289   8.03
O00P  4  0.51823  0.24506  0.42039 11.00000  0.01113   7.94
O00Q  4  0.67122  0.75226  0.46927 11.00000  0.00376   7.92
N00R  3  0.22926  0.32050  0.69432 11.00000  0.01321   7.86
O00S  4  0.10521  1.01305  0.27126 11.00000  0.05197   7.71
O00T  4  0.07262  0.57894  0.48377 11.00000  0.02062   7.69
O00U  4  0.22495  0.94076  0.29381 11.00000  0.00126   7.67
N00V  3  0.09808  0.40631  0.70898 11.00000  0.00010   7.55
C00W  2  0.47116  0.91476  0.39291 11.00000  0.00010   7.51
O00X  4  0.51032  0.34563  0.56263 11.00000  0.00034   7.50
O00Y  4  0.03007  1.19160  0.30064 11.00000  0.00891   7.36
O00Z  4  0.47337  0.75167  0.47370 11.00000  0.00876   7.25
N010  3 -0.01669  0.63076  0.39941 11.00000  0.01992   6.96
O011  4  0.26641  0.91928  0.41792 11.00000  0.04591   6.95
C012  2  0.17033  0.52252  0.49221 11.00000  0.01847   6.89
N013  3 -0.01711  0.41922  0.70879 11.00000  0.02899   6.88
N014  3  0.21450  0.29937  0.65466 11.00000  0.00010   6.75
N015  3  0.53451  0.21837  0.69026 11.00000  0.02013   6.54
N016  3 -0.11388  0.10946  0.57224 11.00000  0.05963   6.51
C017  2 -0.03158  0.47337  0.65609 11.00000  0.00010   6.36
C018  2  0.10322  1.07797  0.31506 11.00000  0.05694   6.34
N019  3  0.58720  0.05513  0.64613 11.00000  0.00088   6.29
C01A  2  0.34692  0.35324  0.66702 11.00000  0.00010   6.22
O01B  4  0.13771 -0.03277  0.59186 11.00000  0.00304   6.20
C01C  2  0.04071  0.01995  0.58111 11.00000  0.06470   6.02
C01D  2  0.43211  0.57718  0.60926 11.00000  0.01046   5.97
C01E  2  0.05354  0.10453  0.53349 11.00000  0.00010   5.74
C01F  2  0.19252  0.23531  0.65508 11.00000  0.00010   5.61
C01G  2  0.65453  0.98390  0.37884 11.00000  0.00010   5.49
C01H  2  0.57868  0.85216  0.41587 11.00000  0.00010   4.71
O01I  4 -0.02883  0.25257  0.65568 11.00000  0.00010   4.69
C01J  2  0.72066  0.44921  0.47932 11.00000  0.04355   4.68
C01K  2  0.15458  0.95896  0.33700 11.00000  0.00696   4.59
C01L  2  0.14870  0.08177  0.51086 11.00000  0.03957   4.49
O01M  4  0.87395 -0.11414  0.73031 11.00000  0.01338   4.23
O01N  4  0.49873  0.45611  0.42892 11.00000  0.00549   4.23
C01O  2  0.43778  0.42160  0.41253 11.00000  0.00010   4.02
C01P  2  0.07542  0.52597  0.69532 11.00000  0.05297   3.89
C01Q  2  0.72523  0.98528  0.31223 11.00000  0.00173   3.88
C01R  2  0.47653  0.98204  0.36768 11.00000  0.05704   3.76
C01S  2  0.90754  0.73977  0.51938 11.00000  0.00901   3.72
C01T  2  0.42190  0.59877  0.28533 11.00000  0.00806   3.68
C01U  2  0.55640  0.63852  0.30793 11.00000  0.01126   3.65
C01V  2  0.49271  0.74662  0.28185 11.00000  0.00256   3.58
C01W  2  0.81382  1.01842  0.35710 11.00000  0.01449   3.41
O01X  4  0.59374 -0.16806  0.67847 11.00000  0.03284   3.40
C01Y  2  0.55307 -0.17094  0.70418 11.00000  0.02085   3.23
C01Z  2  0.92654 -0.19160  0.71500 11.00000  0.01639   3.19
O020  4  0.57132  0.56148  0.27867 11.00000  0.01811   3.03
HKLF 4
END
