TITL shelx03-merge_expF_0_6_expS_1_4_shelx03-merge_a.res in P1
REM Old TITL 1 in I 1 #-1
REM SHELXT solution in P1: R1 0.787, Rweak 0.293, Alpha 0.000
REM <I/s>   0.000 for    0 systematic absences,  Orientation as input
REM Flack x =  0.285 ( 0.368 ) from   411 Parsons' quotients
REM Formula found by SHELXT:  C54 N35 O50

CELL  0.71073   9.3100  15.1100  30.5000   90.000   90.000   90.000
ZERR   52.000   0.0019   0.0030   0.0061    0.000    0.000    0.000
LATT -2
SFAC H C N O ZR CL
UNIT 20 20 20 20 20 0
L.S. 10
BOND
LIST 6
FMAP 2
PLAN 20
CL01  6  0.24109  0.79923  0.36102 11.00000  0.02092  22.52
CL02  6  0.82950  0.84793  0.37044 11.00000  0.06031  20.95
CL03  6  0.72669  0.77966  0.36480 11.00000  0.00010  20.20
CL04  6  0.59391  0.79442  0.36138 11.00000  0.01888  19.68
CL05  6 -0.11670  1.20882  0.29625 11.00000  0.08141  17.80
CL06  6  0.44578  0.87143  0.54252 11.00000  0.11324  17.42
CL07  6  0.05709  0.80980  0.37637 11.00000  0.09131  17.27
CL08  6  0.58077  0.29874  0.58117 11.00000  0.02792  17.13
CL09  6  0.79602  0.30097  0.51700 11.00000  0.00010  16.35
CL0A  6  0.39325  0.22003  0.61319 11.00000  0.01089  16.21
CL0B  6  0.34909  0.75746  0.36174 11.00000  0.00993  15.37
CL0C  6  0.48964  0.36697  0.56131 11.00000  0.05994  15.36
CL0D  6  0.69604 -0.24992  0.72622 11.00000  0.00943  15.25
C00E  2  0.72883  0.20416  0.51653 11.00000  0.00010  14.52
CL0F  6  0.50076 -0.19168  0.73645 11.00000  0.02225  14.24
CL0G  6  0.05144  0.79052  0.28236 11.00000  0.08523  14.13
CL0H  6  0.23692  0.77957  0.24878 11.00000  0.07167  14.11
CL0I  6  0.95695  0.28730  0.50371 11.00000  0.00010  14.06
CL0J  6  0.13891  1.03286  0.22744 11.00000  0.01337  13.95
CL0K  6  0.44875  0.71109  0.37461 11.00000  0.03304  13.88
CL0L  6  0.41439  0.13267  0.62459 11.00000  0.00709  13.79
CL0M  6  0.46736  0.96436  0.39298 11.00000  0.02953  12.97
CL0N  6  0.93104  0.17260  0.58399 11.00000  0.05755  12.95
CL0O  6  0.32505  0.90042  0.52483 11.00000  0.19682  12.60
CL0P  6  0.30703  0.82749  0.54140 11.00000  0.05318  12.52
O00Q  4  0.53235  0.07202  0.83049 11.00000  0.18736  12.33
O00R  4  0.09478  0.92794  0.22599 11.00000  0.03549  12.31
N00S  3  0.22902  0.79953  0.47157 11.00000  0.00163  12.29
O00T  4 -0.31791  0.78471  0.47683 11.00000  0.00010  12.28
O00U  4  0.61833  0.62088  0.36938 11.00000  0.04444  12.21
O00V  4  0.20324  1.05324  0.25684 11.00000  0.15461  12.17
O00W  4  0.36564  0.65776  0.40007 11.00000  0.09104  11.91
N00X  3  0.42907  0.48750  0.55542 11.00000  0.07566  11.76
O00Y  4  0.36300  1.02203  0.19394 11.00000  0.05398  11.74
N00Z  3  0.38253  0.41343  0.57751 11.00000  0.00010  11.49
N010  3  0.16642  0.59434  0.39194 11.00000  0.01760  11.14
N011  3  0.22451  0.70098  0.33081 11.00000  0.00010  11.12
N012  3  0.09681  0.92457  0.40065 11.00000  0.00010  10.94
O013  4  0.75650  0.12982  0.54824 11.00000  0.03202  10.80
O014  4 -0.07857  0.82282  0.27858 11.00000  0.07996  10.78
N015  3  0.75431 -0.01429  0.79111 11.00000  0.00230  10.73
N016  3  0.29050  0.71246  0.35083 11.00000  0.06024  10.68
O017  4  0.32222  0.51045  0.60853 11.00000  0.00010  10.67
N018  3  0.73352  0.71646  0.37152 11.00000  0.00010  10.65
O019  4  0.42308  0.73800  0.23104 11.00000  0.00093  10.60
O01A  4  0.63726  0.11686  0.65392 11.00000  0.11160  10.58
N01B  3  0.74005 -0.17411  0.73439 11.00000  0.00010  10.47
N01C  3  0.24331  0.85129  0.44543 11.00000  0.00010  10.47
N01D  3  0.07932  0.75254  0.56066 11.00000  0.05177  10.44
O01E  4  0.68023  0.85289  0.42083 11.00000  0.00732  10.39
N01F  3  0.30042  1.02218  0.22776 11.00000  0.01515  10.35
O01G  4 -0.03325  0.75347  0.27881 11.00000  0.00010  10.33
O01H  4  0.94603 -0.17985  0.66842 11.00000  0.00010  10.31
O01I  4  0.18518  0.79026  0.53157 11.00000  0.06548  10.27
N01J  3  0.51169  0.65712  0.25256 11.00000  0.00010  10.07
N01K  3 -0.00409  1.12611  0.29969 11.00000  0.01548  10.07
O01L  4  0.02894  0.49131  0.60421 11.00000  0.00431  10.04
O01M  4 -0.31924  0.65352  0.44902 11.00000  0.12706   9.96
O01N  4  0.27890  0.97577  0.40506 11.00000  0.01502   9.87
O01O  4  1.00303 -0.14604  0.74060 11.00000  0.00010   9.85
N01P  3  0.05830  0.79274  0.33220 11.00000  0.00010   9.71
O01Q  4  0.46834  0.94193  0.19361 11.00000  0.01563   9.51
O01R  4  0.57695  1.02089  0.24288 11.00000  0.00010   9.45
O01S  4  0.57878 -0.16236  0.69489 11.00000  0.06365   9.39
O01T  4 -0.14311  0.79251  0.50390 11.00000  0.00010   9.16
C01U  2 -0.03285  0.68301  0.52860 11.00000  0.14312   9.12
O01V  4  0.82252  1.33596  0.35772 11.00000  0.14956   9.08
O01W  4  1.31924 -0.07285  0.70282 11.00000  0.00010   9.01
C01X  2  0.01225  0.73485  0.58679 11.00000  0.00010   8.92
O01Y  4  0.84099 -0.31071  0.70594 11.00000  0.00010   8.88
N01Z  3  0.78748  0.82188  0.38969 11.00000  0.00010   8.85
O020  4  0.60028  0.30806  0.49879 11.00000  0.01966   8.79
C021  2  0.84015  1.02289  0.20391 11.00000  0.00010   8.78
O022  4 -0.06574  0.92630  0.26323 11.00000  0.13889   8.70
N023  3  0.59800  0.15712  0.62381 11.00000  0.01156   8.64
O024  4  0.49021  0.76463  0.26805 11.00000  0.01712   8.55
O025  4  0.73120  0.68682  0.24993 11.00000  0.09603   8.51
N026  3  0.60825  0.35248  0.56867 11.00000  0.01829   8.30
O027  4  0.01692  0.63710  0.54716 11.00000  0.04292   8.28
O028  4  1.04076 -0.25657  0.73731 11.00000  0.02379   8.28
O029  4 -0.00624  0.74147  0.28014 11.00000  0.02022   8.13
O02A  4  0.84962  0.41301  0.57088 11.00000  0.01277   8.08
O02B  4  0.98984 -0.19450  0.79147 11.00000  0.00010   8.06
O02C  4  0.69081  0.92901  0.28305 11.00000  0.00164   8.06
N02D  3  0.11238  0.77977  0.35386 11.00000  0.01488   8.02
O02E  4  0.21955  0.54135  0.44441 11.00000  0.03384   7.90
N02F  3  0.20539  0.94390  0.54972 11.00000  0.00073   7.83
N02G  3  0.08699  0.66278  0.42710 11.00000  0.00010   7.68
O02H  4  0.67001  1.20963  0.40302 11.00000  0.04285   7.67
O02I  4  0.32255  1.01910  0.51589 11.00000  0.25052   7.55
O02J  4  0.38951  0.59752  0.59843 11.00000  0.14431   7.54
O02K  4  0.17109  0.96985  0.26935 11.00000  0.01475   7.38
O02L  4  0.52076  0.57302  0.25596 11.00000  0.00387   7.27
O02M  4 -0.08532  0.79779  0.59607 11.00000  0.01700   7.21
N02N  3  0.61814  0.05689  0.49413 11.00000  0.07152   7.21
N02O  3  0.83344 -0.10697  0.75376 11.00000  0.01321   7.20
N02P  3  0.28847  0.96782  0.20299 11.00000  0.07046   7.20
N02Q  3  0.28266  0.51608  0.54572 11.00000  0.00010   7.18
N02R  3  0.38356  0.24955  0.56791 11.00000  0.05594   7.15
N02S  3  0.29093  0.50031  0.49967 11.00000  0.08759   7.05
N02T  3  0.20401  1.04915  0.54937 11.00000  0.00804   7.02
N02U  3  0.72380 -0.01145  0.45916 11.00000  0.02186   7.01
N02V  3  0.00076  0.53691  0.61449 11.00000  0.00010   6.97
C02W  2  0.11220  0.68456  0.51844 11.00000  0.07996   6.88
N02X  3  0.18682  0.92357  0.51555 11.00000  0.03331   6.79
O02Y  4  0.66657  0.75119  0.26683 11.00000  0.00971   6.77
N02Z  3 -0.15200  0.50951  0.46572 11.00000  0.00473   6.64
N030  3  0.01012  0.72898  0.34880 11.00000  0.00651   6.63
C031  2  0.55366  0.24504  0.60581 11.00000  0.08170   6.48
C032  2  0.81029 -0.10771  0.70398 11.00000  0.09703   6.47
C033  2  0.30449  0.98378  0.35411 11.00000  0.00010   6.37
C034  2  0.63762 -0.00853  0.66798 11.00000  0.03682   6.29
O035  4  0.59731  0.54821  0.23967 11.00000  0.15176   6.28
C036  2  0.42517  0.95047  0.35566 11.00000  0.00010   6.27
C037  2 -0.14226  0.68171  0.49106 11.00000  0.02421   6.16
C038  2  0.17168  1.09726  0.31363 11.00000  0.01888   6.10
C039  2  0.75179  1.01043  0.34069 11.00000  0.07563   6.03
C03A  2  0.55846  0.75074  0.38257 11.00000  0.05325   6.01
C03B  2  0.61954 -0.01341  0.73194 11.00000  0.01030   5.98
C03C  2 -0.00963  1.06324  0.37162 11.00000  0.00010   5.87
C03D  2  0.20794  0.87810  0.39674 11.00000  0.07492   5.69
C03E  2  0.57245  0.64277  0.18201 11.00000  0.10113   5.61
C03F  2  0.83013  0.38919  0.61650 11.00000  0.00010   5.55
C03G  2  0.46062  0.08630  0.73880 11.00000  0.00010   5.50
C03H  2  0.46493  0.98183  0.57161 11.00000  0.00010   5.49
C03I  2  0.40242  0.65465  0.26169 11.00000  0.00010   5.37
C03J  2  0.59354  0.51215  0.16951 11.00000  0.00010   5.35
C03K  2  0.94498  0.85006  0.38942 11.00000  0.11531   5.31
C03L  2  0.59717  0.07847  0.62592 11.00000  0.02881   5.27
C03M  2 -0.21921  0.71630  0.43592 11.00000  0.00010   5.17
C03N  2  0.67333  1.13095  0.26137 11.00000  0.05384   5.08
C03O  2  0.26957  0.35762  0.40245 11.00000  0.01146   5.05
O03P  4  0.77616  1.02879  0.20473 11.00000  0.00062   5.02
C03Q  2  0.18753  0.95923  0.51683 11.00000  0.00010   4.87
C03R  2  0.02587  0.99720  0.51414 11.00000  0.00010   4.86
C03S  2 -0.02959  0.98381  0.58023 11.00000  0.11880   4.86
C03T  2  0.96984 -0.10476  0.78205 11.00000  0.01482   4.79
C03U  2  0.41932  0.65387  0.20702 11.00000  0.01914   4.72
C03V  2 -0.00606  0.53073  0.57916 11.00000  0.09303   4.68
C03W  2  0.61092  1.26896  0.37265 11.00000  0.07696   4.67
C03X  2  0.52821  0.45940  0.53042 11.00000  0.03395   4.61
N03Y  3  0.17294  0.28705  0.55260 11.00000  0.04096   4.59
C03Z  2  0.76387  0.65727  0.24491 11.00000  0.00010   4.57
C040  2  0.28157  0.68410  0.37831 11.00000  0.03904   4.55
C041  2  0.40862  1.10148  0.41675 11.00000  0.13233   4.30
C042  2  0.73299  1.13998  0.35062 11.00000  0.00010   4.26
C043  2  0.65350  0.59878  0.60837 11.00000  0.05105   4.22
C044  2  0.63481 -0.16858  0.80780 11.00000  0.00010   3.93
C045  2  0.58285 -0.22961  0.65596 11.00000  0.02826   3.89
C046  2  0.46466  0.30923  0.52778 11.00000  0.05622   3.89
C047  2  1.21928 -0.19208  0.70128 11.00000  0.34154   3.75
C048  2  0.69912  1.00740  0.31569 11.00000  0.14461   3.68
C049  2  0.82914  0.35495  0.55842 11.00000  0.00143   3.67
C04A  2 -0.05620  0.53643  0.52420 11.00000  0.17873   3.65
C04B  2  0.62998  0.07637  0.79397 11.00000  0.11302   3.55
C04C  2  0.08007  0.67776  0.57633 11.00000  0.05832   3.55
C04D  2  1.22559 -0.19269  0.70323 11.00000  0.24734   3.49
C04E  2 -0.00577  0.76719  0.31991 11.00000  0.02818   3.40
O04F  4  0.75071  0.34452  0.64453 11.00000  0.39632   3.35
C04G  2  0.98658 -0.33596  0.66446 11.00000  0.00871   3.14
C04H  2  0.23468  0.53740  0.47109 11.00000  0.09403   3.13
O04I  4  0.14782  0.85978  0.29684 11.00000  0.36110   3.08
O04J  4 -0.21412  0.82657  0.57577 11.00000  0.01855   3.07
HKLF 4
END
