TITL shelx03-merge_expF_1_3_expS_1_2_shelx03-merge_a.res in P1
REM Old TITL 1 in I 1 #-1
REM SHELXT solution in P1: R1 0.843, Rweak 0.404, Alpha 0.000
REM <I/s>   0.000 for    0 systematic absences,  Orientation as input
REM Flack x = -6.555 ( 0.579 ) from   437 Parsons' quotients
REM Formula found by SHELXT:  C43 N15 O27

CELL  0.71073   9.3100  15.1100  30.5000   90.000   90.000   90.000
ZERR   52.000   0.0019   0.0030   0.0061    0.000    0.000    0.000
LATT -2
SFAC H C N O ZR CL
UNIT 20 20 20 20 20 0
L.S. 10
BOND
LIST 6
FMAP 2
PLAN 20
CL01  6  0.45451  0.89983  0.20593 11.00000  0.05663  20.95
CL02  6  0.81502  0.88681  0.21079 11.00000  0.03328  19.01
CL03  6  0.57245  0.87520  0.21015 11.00000  0.02448  18.89
CL04  6  0.69209  0.90612  0.20273 11.00000  0.03247  18.30
CL05  6  0.31953  0.89010  0.20599 11.00000  0.05577  18.01
CL06  6  0.61514  0.54077  0.43803 11.00000  0.07024  17.97
CL07  6  0.94745  0.88459  0.21020 11.00000  0.06301  17.55
CL08  6  0.91901  0.99107  0.75249 11.00000  0.06847  14.62
CL09  6 -0.16532  0.40665  0.38477 11.00000  0.03860  14.10
CL0A  6 -0.07748  0.41691  0.36359 11.00000  0.02024  12.70
CL0B  6  0.65231  0.71800  0.57085 11.00000  0.09106  12.60
CL0C  6  0.57423  0.59266  0.56979 11.00000  0.06946  12.60
O00D  4  0.76189  0.67899  0.54299 11.00000  0.01737  12.42
O00E  4  0.93296  0.66478  0.53775 11.00000  0.07764  12.14
O00F  4  0.47366  0.35862  0.48930 11.00000  0.01432  12.11
O00G  4  0.14249  0.63691  0.26674 11.00000  0.00010  11.95
N00H  3  0.50974  0.60593  0.44717 11.00000  0.00591  11.69
CL0I  6  0.32872  0.85288  0.32217 11.00000  0.10549  11.55
O00J  4  0.14037  0.69820  0.26768 11.00000  0.05088  11.32
O00K  4  0.43391  0.61098  0.56661 11.00000  0.00899  11.20
CL0L  6  0.63112  0.23837  0.45026 11.00000  0.05008  11.07
O00M  4  0.13668  0.65839  0.51418 11.00000  0.04727  10.53
O00N  4 -0.16798  0.55690  0.36359 11.00000  0.00010  10.45
O00O  4  0.33633  0.42661  0.49734 11.00000  0.00478   9.90
O00P  4  0.09891  1.04411  0.27163 11.00000  0.06896   9.82
N00Q  3  0.88384  0.63218  0.54237 11.00000  0.00645   9.49
O00R  4  0.15762 -0.10789  0.46930 11.00000  0.00010   9.47
O00S  4  1.09725  0.86966  0.20540 11.00000  0.00010   9.31
O00T  4  1.00856  1.02763  0.73972 11.00000  0.02747   9.15
O00U  4 -0.04295  0.55545  0.38016 11.00000  0.00010   9.13
O00V  4  0.02966  0.38608  0.37437 11.00000  0.08970   9.07
O00W  4  0.54317  0.37963  0.56613 11.00000  0.01650   9.06
O00X  4  0.86180  0.57401  0.58536 11.00000  0.00010   8.65
O00Y  4  0.41117  0.37361  0.38453 11.00000  0.01844   8.63
O00Z  4  0.25045  0.60190  0.54803 11.00000  0.02385   8.45
N010  3 -0.17574  0.46156  0.37032 11.00000  0.04487   8.30
C011  2  0.62696  0.85295  0.62855 11.00000  0.00980   8.29
O012  4  0.63843  0.15188  0.43741 11.00000  0.03704   7.91
N013  3  0.55560  0.52214  0.62397 11.00000  0.00010   7.38
O014  4 -0.08864  0.38820  0.51076 11.00000  0.00465   7.37
O015  4  0.06075  0.53697  0.65736 11.00000  0.03768   7.35
N016  3  0.40914  0.64455  0.45420 11.00000  0.00010   7.13
N017  3  0.10573  0.55110  0.48167 11.00000  0.00010   7.11
C018  2  0.00188  0.84999  0.31867 11.00000  0.03907   7.07
N019  3  0.94141  0.54597  0.57248 11.00000  0.01802   6.93
O01A  4 -0.05560  0.16621  0.48061 11.00000  0.00596   6.91
N01B  3  0.16441  0.49166  0.47428 11.00000  0.00943   6.90
O01C  4  0.49879  0.89325  0.62031 11.00000  0.11691   6.69
N01D  3 -0.02866  0.36137  0.57484 11.00000  0.00010   6.66
N01E  3  0.39549  0.65765  0.56334 11.00000  0.00010   6.60
C01F  2  0.28488  0.33768  0.53584 11.00000  0.05033   6.43
C01G  2  0.39269  0.55428  0.53443 11.00000  0.00010   6.42
C01H  2  0.80537  0.53510  0.51669 11.00000  0.00010   6.38
C01I  2  0.03542  0.42768  0.54259 11.00000  0.02413   6.25
C01J  2  0.03391  0.43069  0.51562 11.00000  0.00010   5.81
C01K  2  0.21056  0.95630  0.29726 11.00000  0.01494   5.80
C01L  2  0.94943  1.11746  0.77361 11.00000  0.00867   5.74
C01M  2  0.77828  0.58867  0.51469 11.00000  0.02479   5.67
C01N  2  0.24384  0.60920  0.44392 11.00000  0.00888   5.58
C01O  2  0.49235  0.73938  0.56122 11.00000  0.01073   5.52
C01P  2  0.12720  0.15229  0.45547 11.00000  0.07573   5.46
C01Q  2  0.76234  0.75309  0.52069 11.00000  0.00010   5.45
C01R  2  0.37064  0.54922  0.63537 11.00000  0.01171   5.40
C01S  2  0.65075  0.46987  0.57824 11.00000  0.04304   5.37
C01T  2  0.35625  0.68688  0.48643 11.00000  0.00010   5.18
C01U  2  0.30103  0.53952  0.43088 11.00000  0.00010   5.07
C01V  2  0.06021  0.51819  0.38154 11.00000  0.01406   4.96
C01W  2  0.03628  0.49065  0.30331 11.00000  0.00168   4.94
N01X  3 -0.14500  0.88499  0.33121 11.00000  0.00010   4.82
C01Y  2  0.08224  0.45391  0.50986 11.00000  0.00010   4.80
O01Z  4  0.77418  0.94101  0.54113 11.00000  0.04825   4.77
C020  2 -0.09649  0.41903  0.57030 11.00000  0.00010   4.76
C021  2  0.83282  0.66346  0.67056 11.00000  0.01415   4.59
C022  2  0.70474  0.45500  0.48633 11.00000  0.01471   4.51
C023  2  0.09899 -0.05963  0.48623 11.00000  0.06115   4.25
C024  2  0.56879  0.74278  0.63690 11.00000  0.00010   4.02
C025  2  0.81823  1.00525  0.53336 11.00000  0.00234   4.01
C026  2  0.85033  1.10697  0.68810 11.00000  0.00010   3.96
N027  3  1.08596  0.91949  0.79727 11.00000  0.00010   3.93
C028  2  0.71576  0.56164  0.63111 11.00000  0.00010   3.92
C029  2  0.11246 -0.11746  0.57862 11.00000  0.02150   3.92
O02A  4  0.25461  0.38987  0.35601 11.00000  0.00010   3.91
C02B  2  0.20454  0.19088  0.41501 11.00000  0.00383   3.85
C02C  2  0.89622  0.54878  0.50027 11.00000  0.00749   3.80
C02D  2  0.24495  0.59295  0.64512 11.00000  0.00010   3.75
N02E  3  0.87474  0.80918  0.75838 11.00000  0.06272   3.70
C02F  2  1.17574  0.73056  0.77357 11.00000  0.07056   3.69
C02G  2  0.85802  0.63637  0.72898 11.00000  0.00010   3.67
C02H  2  0.27782  0.44419  0.38267 11.00000  0.00010   3.64
C02I  2  0.94547  0.69416  0.71228 11.00000  0.00010   3.58
C02J  2  0.13464  0.37607  0.43082 11.00000  0.00010   3.57
C02K  2  0.14074  0.10427  0.47887 11.00000  0.01166   3.45
C02L  2  0.83192  0.66286  0.71596 11.00000  0.00010   3.42
N02M  3  0.37621 -0.07866  0.51901 11.00000  0.00281   3.37
O02N  4  0.63425  0.48497  0.49673 11.00000  0.04041   3.22
C02O  2  0.29589  0.80606  0.65247 11.00000  0.00273   3.21
C02P  2  0.25333  0.85687  0.27139 11.00000  0.00010   3.01
C02Q  2  0.39518  0.59905  0.48516 11.00000  0.00010   3.01
N02R  3  0.29986  0.10368  0.51532 11.00000  0.02526   3.00
HKLF 4
END
