TITL shelx03-merge_expF_1_5_expS_1_5_shelx03-merge_a.res in P1
REM Old TITL 1 in I 1 #-1
REM SHELXT solution in P1: R1 0.928, Rweak 0.405, Alpha 0.000
REM <I/s>   0.000 for    0 systematic absences,  Orientation as input
REM Flack x = -9.990 ( 2.320 ) from   219 Parsons' quotients
REM Formula found by SHELXT:  C30 N15 O12

CELL  0.71073   9.3100  15.1100  30.5000   90.000   90.000   90.000
ZERR   52.000   0.0019   0.0030   0.0061    0.000    0.000    0.000
LATT -2
SFAC H C N O ZR CL
UNIT 20 20 20 20 20 0
L.S. 10
BOND
LIST 6
FMAP 2
PLAN 20
CL01  6  0.13817  0.44064  0.72798 11.00000  0.04035  21.00
CL02  6  0.26631  0.44025  0.73352 11.00000  0.04469  20.90
CL03  6  0.61684  0.45423  0.73623 11.00000  0.02327  19.45
CL04  6  0.21864  0.46014  0.40732 11.00000  0.04926  18.19
CL05  6  0.75214  0.43869  0.72407 11.00000  0.08413  17.84
CL06  6  0.41418  0.46220  0.72961 11.00000  0.06348  16.45
CL07  6  0.06028  0.49783  0.40926 11.00000  0.08400  15.36
CL08  6  0.84654  0.45730  0.72366 11.00000  0.02550  14.11
CL09  6  1.16360  0.45559  0.61689 11.00000  0.06169  13.69
CL0A  6  0.35292  0.43607  0.39856 11.00000  0.04648  12.97
CL0B  6  0.12504  0.42907  0.42974 11.00000  0.08116  12.57
CL0C  6  1.31155  0.46206  0.61042 11.00000  0.06950  12.53
O00D  4  0.41956  0.47808  0.40449 11.00000  0.00739  11.61
CL0E  6  0.00076  0.29581  0.48643 11.00000  0.07867  11.03
O00F  4  0.19462  0.62724  0.37550 11.00000  0.09186  10.37
C00G  2 -0.00599  0.42151  0.29907 11.00000  0.00010  10.37
O00H  4  0.99657  0.44595  0.62864 11.00000  0.05356   9.99
O00I  4  0.92303  0.31879  0.67112 11.00000  0.02533   9.86
O00J  4  0.23833  0.35664  0.45323 11.00000  0.00869   9.39
O00K  4  0.02482  0.61962  0.67282 11.00000  0.01012   9.17
N00L  3 -0.27657  0.57458  0.27855 11.00000  0.04424   8.91
O00M  4 -0.14211  0.38419  0.37731 11.00000  0.10111   8.48
N00N  3 -0.37507  0.52484  0.29638 11.00000  0.03146   8.17
C00O  2  0.94040  0.35099  0.70864 11.00000  0.01728   7.99
N00P  3 -0.04965  0.41502  0.27729 11.00000  0.00033   7.88
O00Q  4 -0.12921  0.60044  0.30307 11.00000  0.07907   7.85
C00R  2  0.34743  0.32382  0.70604 11.00000  0.00010   7.77
O00S  4 -0.03292  0.34155  0.31157 11.00000  0.01090   7.59
N00T  3  0.15261  0.32800  0.67759 11.00000  0.01558   7.20
N00U  3  0.50502  0.42292  0.40456 11.00000  0.02839   7.03
N00V  3 -0.19954  0.35612  0.46128 11.00000  0.02778   7.00
N00W  3  0.16735  0.64486  0.27002 11.00000  0.00010   6.94
C00X  2 -0.00956  0.38229  0.30550 11.00000  0.00010   6.92
O00Y  4  0.81179  0.47654  0.59275 11.00000  0.02498   6.75
C00Z  2 -0.39348  0.44682  0.29289 11.00000  0.00397   6.49
O010  4  0.42722  0.98574  0.36568 11.00000  0.00106   6.18
C011  2  0.92872  0.58980  0.54397 11.00000  0.00010   6.15
C012  2 -0.19443  0.38645  0.48473 11.00000  0.00010   6.12
C013  2  0.54030  0.69001  0.56800 11.00000  0.06899   6.05
C014  2 -0.15869  0.38736  0.29847 11.00000  0.09146   5.99
C015  2  0.05887  0.28212  0.51636 11.00000  0.02333   5.97
C016  2 -0.01447  0.51450  0.41022 11.00000  0.01736   5.94
C017  2  1.51462  0.47401  0.58424 11.00000  0.02216   5.91
O018  4  0.76120  0.66392  0.50923 11.00000  0.00911   5.81
C019  2  0.42500  0.83351  0.33928 11.00000  0.00010   5.78
C01A  2  0.30953  0.68272  0.30844 11.00000  0.05415   5.66
C01B  2  0.19221  0.58607  0.26377 11.00000  0.04980   5.66
C01C  2 -0.51462  0.50814  0.31339 11.00000  0.00010   5.52
C01D  2 -0.35821  0.61509  0.27546 11.00000  0.00010   5.43
C01E  2  0.40372  0.26921  0.47906 11.00000  0.09349   5.42
C01F  2  0.31834  0.31715  0.35982 11.00000  0.06984   5.27
N01G  3  0.57511  0.30608  0.66206 11.00000  0.04647   5.21
C01H  2  0.69646  0.55450  0.59132 11.00000  0.00969   5.19
C01I  2  0.19751  0.55891  0.48477 11.00000  0.00010   5.14
N01J  3  0.05362 -0.00816  0.49615 11.00000  0.03908   5.08
C01K  2  0.20223  0.30971  0.50005 11.00000  0.05084   4.68
N01L  3  0.31174  0.68659  0.61210 11.00000  0.03403   4.50
C01M  2 -0.29127  0.24554  0.33073 11.00000  0.01344   4.44
C01N  2  0.16000  0.15592  0.45103 11.00000  0.00010   4.28
C01O  2  0.44448  0.58949  0.44241 11.00000  0.03955   4.27
C01P  2  0.36091  0.98709  0.38900 11.00000  0.00010   4.22
C01Q  2  0.40083  0.75736  0.50552 11.00000  0.00010   3.83
C01R  2 -0.04977  0.15097  0.28097 11.00000  0.00907   3.69
N01S  3  0.14246  0.67418  0.61820 11.00000  0.01025   3.58
N01T  3 -0.23853  0.26506  0.57184 11.00000  0.01276   3.43
N01U  3  0.21107  0.92197  0.64146 11.00000  0.05551   3.29
C01V  2  0.28947  0.70248  0.45039 11.00000  0.02226   3.23
C01W  2  0.23622  0.58775  0.35267 11.00000  0.00010   3.08
N01X  3 -0.21069  0.78242  0.67268 11.00000  0.05882   3.02
N01Y  3  0.60797  1.00816  0.60457 11.00000  0.01138   3.01
HKLF 4
END
