TITL shelx03-merge_expF_1_3_expS_0_9_shelx03-merge_a.res in P1
REM Old TITL 1 in I 1 #-1
REM SHELXT solution in P1: R1 0.845, Rweak 0.191, Alpha 0.000
REM <I/s>   0.000 for    0 systematic absences,  Orientation as input
REM Flack x =  0.350 ( 0.923 ) from   823 Parsons' quotients
REM Formula found by SHELXT:  C48 N15 O17

CELL  0.71073   9.3100  15.1100  30.5000   90.000   90.000   90.000
ZERR   52.000   0.0019   0.0030   0.0061    0.000    0.000    0.000
LATT -2
SFAC H C N O ZR CL
UNIT 20 20 20 20 20 0
L.S. 10
BOND
LIST 6
FMAP 2
PLAN 20
CL01  6  0.24847  0.02842  0.48421 11.00000  0.02688  19.11
CL02  6  0.37432  0.01949  0.48378 11.00000  0.03586  16.51
CL03  6  0.71360  0.02140  0.48199 11.00000  0.04444  15.81
CL04  6  0.59542  0.03729  0.47758 11.00000  0.06828  15.10
CL05  6  0.88771  0.22078  0.34579 11.00000  0.05960  14.38
CL06  6  0.74550  0.22680  0.36890 11.00000  0.10225  13.71
CL07  6  0.01987  0.75366  0.71171 11.00000  0.10398  12.93
CL08  6  0.94888  0.24907  0.33374 11.00000  0.02141  12.91
CL09  6  0.10720  0.03630  0.49113 11.00000  0.11086  12.88
N00A  3  1.13934  0.29290  0.38595 11.00000  0.06129  12.14
C00B  2  0.41258  0.26486  0.44344 11.00000  0.00010  11.82
CL0C  6  0.73981 -0.01880  0.38145 11.00000  0.14431  11.55
O00D  4  0.54138  0.02412  0.48125 11.00000  0.00730  11.09
CL0E  6  0.55873  0.16972  0.43022 11.00000  0.05982  10.98
C00F  2  0.83255  0.54331  0.63251 11.00000  0.01670  10.89
O00G  4  1.19582  0.04417  0.39510 11.00000  0.09155  10.86
O00H  4  0.10826  0.21492  0.49768 11.00000  0.04812  10.52
C00I  2  0.48239  0.75560  0.64598 11.00000  0.02285  10.38
CL0J  6 -0.16470  0.73792  0.71146 11.00000  0.05960  10.03
N00K  3 -0.08748  0.45317  0.56343 11.00000  0.07553   9.82
O00L  4  0.66788  0.54605  0.63510 11.00000  0.00681   9.42
O00M  4  0.61801  0.70097  0.67449 11.00000  0.05378   9.15
O00N  4  1.00033  0.28785  0.34298 11.00000  0.00301   8.99
O00O  4  1.19927  0.15470  0.33719 11.00000  0.03896   8.74
O00P  4  0.04101  0.55924  0.57019 11.00000  0.03898   8.64
O00Q  4  0.54531  0.62455  0.63967 11.00000  0.02145   8.50
O00R  4  0.46520  0.54653  0.59224 11.00000  0.03864   8.32
C00S  2  0.28498  0.55265  0.61456 11.00000  0.00053   8.26
C00T  2  0.25891  0.72058  0.67473 11.00000  0.02202   7.88
O00U  4  0.56239  0.29254  0.37375 11.00000  0.02714   7.84
C00V  2  0.18777  0.60812  0.31937 11.00000  0.03205   7.63
N00W  3  0.06844  0.33874  0.55904 11.00000  0.08527   7.37
O00X  4 -0.06803  0.42672  0.67316 11.00000  0.12699   7.35
C00Y  2  1.04313 -0.03037  0.37913 11.00000  0.00010   7.25
N00Z  3  1.03664 -0.20137  0.44941 11.00000  0.01370   7.19
N010  3  0.09934  0.61905  0.54945 11.00000  0.01236   7.05
N011  3  1.11461  0.09069  0.33024 11.00000  0.01890   7.01
N012  3  0.05642  0.76941  0.61574 11.00000  0.03434   6.94
N013  3  1.20430  0.08387  0.38145 11.00000  0.04307   6.70
N014  3  0.04324  0.61354  0.65688 11.00000  0.03865   6.70
N015  3  0.21209  0.57290  0.66379 11.00000  0.02567   6.65
O016  4  0.15393  0.67851  0.54478 11.00000  0.02042   6.60
C017  2 -0.03060  1.03254  0.64497 11.00000  0.00445   6.45
C018  2  0.26344  0.77548  0.69884 11.00000  0.00127   6.42
C019  2  0.43872  0.70834  0.60773 11.00000  0.02123   6.17
C01A  2  0.63484  0.49905  0.68095 11.00000  0.04644   6.10
C01B  2  0.60778 -0.00753  0.32084 11.00000  0.02906   6.03
O01C  4  1.52243 -0.14785  0.42944 11.00000  0.07380   6.01
O01D  4 -0.16928  0.78211  0.71234 11.00000  0.03931   5.96
N01E  3 -0.15775  0.82264  0.58331 11.00000  0.01840   5.95
C01F  2  0.07125  0.89445  0.60029 11.00000  0.09714   5.92
C01G  2  0.50657  0.56713  0.33672 11.00000  0.03442   5.88
O01H  4  0.18110  0.55516  0.32298 11.00000  0.01956   5.87
C01I  2  0.48231  0.23746  0.35741 11.00000  0.00092   5.85
C01J  2  1.04544 -0.07552  0.38745 11.00000  0.00632   5.64
C01K  2 -0.10131  0.54609  0.34648 11.00000  0.00010   5.63
C01L  2 -0.45922  1.17461  0.60564 11.00000  0.00010   5.62
C01M  2  1.06273 -0.16011  0.39877 11.00000  0.00010   5.60
C01N  2  0.31549  0.54539  0.57443 11.00000  0.04218   5.58
C01O  2  0.55965  0.25519  0.31715 11.00000  0.03146   5.52
C01P  2 -0.10572  0.73774  0.57188 11.00000  0.01018   5.49
N01Q  3  0.33503  0.73885  0.68056 11.00000  0.00499   5.45
C01R  2  1.44355 -0.10317  0.41970 11.00000  0.00010   5.37
N01S  3 -0.09033  0.84643  0.56934 11.00000  0.01302   5.29
C01T  2  0.04599  0.53066  0.68418 11.00000  0.02183   5.23
N01U  3  0.16550  0.23947  0.67129 11.00000  0.00010   5.21
C01V  2  0.43979  0.56379  0.40216 11.00000  0.03767   5.13
C01W  2  0.69606  0.62584  0.66109 11.00000  0.01922   4.85
C01X  2  0.53894  0.45594  0.41837 11.00000  0.01541   4.84
C01Y  2  1.04114  0.34327  0.26635 11.00000  0.02610   4.81
C01Z  2  1.06513 -0.01186  0.29949 11.00000  0.00477   4.79
C020  2  0.20523  0.25670  0.48657 11.00000  0.00619   4.63
C021  2  0.33508  0.53759  0.75311 11.00000  0.00010   4.46
C022  2  0.06965  0.84581  0.59720 11.00000  0.00010   4.27
C023  2  1.08242 -0.04376  0.39992 11.00000  0.00010   4.17
C024  2 -0.00090  0.60685  0.29247 11.00000  0.00010   4.16
C025  2  0.41940  0.58034  0.67947 11.00000  0.00010   4.13
C026  2 -0.04221  0.18471  0.49140 11.00000  0.00010   4.09
C027  2  0.28216  0.33136  0.47515 11.00000  0.02343   4.08
C028  2 -0.22486  1.17289  0.63645 11.00000  0.09325   4.05
C029  2  0.07618  0.60326  0.31264 11.00000  0.01056   4.03
O02A  4  0.09937  0.52833  0.63675 11.00000  0.09112   3.92
C02B  2  0.17847  0.91169  0.69211 11.00000  0.00621   3.86
N02C  3 -0.52243  1.20137  0.53661 11.00000  0.00010   3.81
C02D  2  0.51835  0.53778  0.43687 11.00000  0.00010   3.76
C02E  2 -0.03678  0.66251  0.63894 11.00000  0.00010   3.68
C02F  2  1.26938 -0.06301  0.35281 11.00000  0.00010   3.63
C02G  2  0.31932  0.33783  0.34525 11.00000  0.08630   3.63
C02H  2  0.50697  0.38884  0.40202 11.00000  0.00010   3.49
C02I  2  0.90277  0.41545  0.24689 11.00000  0.02605   3.44
C02J  2  0.74779  0.09894  0.54843 11.00000  0.05373   3.18
C02K  2  0.68441  0.61818  0.55273 11.00000  0.03534   3.02
HKLF 4
END
