TITL shelx03-merge_expF_1_2_expS_1_1_shelx03-merge_a.res in P1
REM Old TITL 1 in I 1 #-1
REM SHELXT solution in P1: R1 0.803, Rweak 0.203, Alpha 0.000
REM <I/s>   0.000 for    0 systematic absences,  Orientation as input
REM Flack x = -9.596 ( 0.489 ) from   520 Parsons' quotients
REM Formula found by SHELXT:  C53 N19 O30

CELL  0.71073   9.3100  15.1100  30.5000   90.000   90.000   90.000
ZERR   52.000   0.0019   0.0030   0.0061    0.000    0.000    0.000
LATT -2
SFAC H C N O ZR CL
UNIT 20 20 20 20 20 0
L.S. 10
BOND
LIST 6
FMAP 2
PLAN 20
CL01  6  0.34097  0.62261  0.36010 11.00000  0.04687  22.84
CL02  6  0.85431  0.62222  0.37026 11.00000  0.07598  21.46
CL03  6  0.59678  0.64174  0.36580 11.00000  0.02264  21.26
CL04  6  0.47525  0.61970  0.36227 11.00000  0.07242  20.85
CL05  6  0.96673  0.63457  0.36423 11.00000  0.02992  20.52
CL06  6  0.70917  0.61976  0.36065 11.00000  0.05956  18.66
CL07  6  0.18542  0.63219  0.36554 11.00000  0.02480  18.25
CL08  6  0.85413  0.15928  0.53392 11.00000  0.06638  16.83
CL09  6  0.70975  0.14233  0.54476 11.00000  0.05419  16.47
CL0A  6  0.45104  0.22119  0.57219 11.00000  0.10128  15.52
CL0B  6  0.90335  0.62653  0.48570 11.00000  0.04262  15.05
CL0C  6  0.30837  0.31981  0.63383 11.00000  0.04701  14.58
C00D  2  1.26328  0.65287  0.49025 11.00000  0.00655  14.44
CL0E  6  0.43837  0.16053  0.62977 11.00000  0.04284  14.29
CL0F  6  0.96135  0.20931  0.52892 11.00000  0.06304  13.93
CL0G  6  0.69289  0.19643  0.54058 11.00000  0.07590  13.20
CL0H  6  0.30719  0.03143  0.63346 11.00000  0.04804  13.03
CL0I  6  0.34301  0.24884  0.63592 11.00000  0.04813  12.96
CL0J  6  0.86773  0.25484  0.53785 11.00000  0.03705  12.84
CL0K  6  0.47253  0.12207  0.63012 11.00000  0.05168  12.56
O00L  4  0.22958  0.10847  0.58294 11.00000  0.00154  12.35
O00M  4 -0.18882  0.11454  0.65558 11.00000  0.00127  11.43
O00N  4  0.13649  0.60070  0.36784 11.00000  0.00457  11.39
O00O  4  0.60878  0.28071  0.59616 11.00000  0.02328  11.02
O00P  4  0.98847  0.80232  0.45109 11.00000  0.09263  10.81
O00Q  4 -0.13836  0.33884  0.67229 11.00000  0.10664  10.64
N00R  3  0.21125  0.35913  0.60421 11.00000  0.04908  10.62
N00S  3  0.32614  0.27489  0.57568 11.00000  0.00010  10.13
N00T  3  0.05883  0.18092  0.71180 11.00000  0.01118  10.10
C00U  2  0.09573  0.10942  0.66426 11.00000  0.05085   9.91
C00V  2  0.47563 -0.01015  0.60846 11.00000  0.01258   9.90
O00W  4  0.71627  0.63968  0.47566 11.00000  0.01522   9.73
O00X  4 -0.33030  0.35491  0.70131 11.00000  0.00033   9.32
O00Y  4  0.34640  1.01804  0.29515 11.00000  0.00693   9.14
O00Z  4 -0.52452  0.28571  0.72265 11.00000  0.05271   9.04
N010  3  0.76751  0.96375  0.30941 11.00000  0.00010   8.63
N011  3  0.82186  0.68685  0.33051 11.00000  0.00010   8.61
O012  4  1.22960  0.69351  0.45736 11.00000  0.00200   8.59
O013  4  0.25823  0.25583  0.57911 11.00000  0.00399   8.49
O014  4  0.66481  0.11016  0.60437 11.00000  0.00010   8.28
N015  3  0.22782  0.21408  0.56784 11.00000  0.00010   8.15
O016  4  0.08749  0.44036  0.61789 11.00000  0.00010   8.14
O017  4  0.59504  0.79447  0.40797 11.00000  0.00010   8.06
O018  4  0.35828  0.08149  0.43129 11.00000  0.06762   8.02
O019  4  0.63461  0.40471  0.52452 11.00000  0.00010   7.93
N01A  3 -0.17720  0.20989  0.71852 11.00000  0.02243   7.89
N01B  3  0.48613  0.03131  0.60225 11.00000  0.00010   7.85
O01C  4  0.57070  0.34706  0.50625 11.00000  0.01297   7.82
O01D  4  1.21661  0.74896  0.44053 11.00000  0.03241   7.68
N01E  3  0.62296 -0.18325  0.57473 11.00000  0.00169   7.35
N01F  3  0.20877  0.27751  0.62925 11.00000  0.00010   7.28
O01G  4  1.12748  0.44435  0.41476 11.00000  0.05742   7.06
O01H  4  0.74800  0.43166  0.48680 11.00000  0.01666   7.02
N01I  3  0.16126 -0.08184  0.58163 11.00000  0.00010   6.96
C01J  2  0.56469 -0.06800  0.56575 11.00000  0.00107   6.89
O01K  4  0.76017  1.14339  0.17611 11.00000  0.00208   6.66
N01L  3  0.27111  0.13368  0.61961 11.00000  0.00667   6.62
C01M  2  0.80397  0.59357  0.19867 11.00000  0.02438   6.41
N01N  3  1.38781  0.56012  0.49427 11.00000  0.00665   6.39
O01O  4  0.78070  0.62455  0.26997 11.00000  0.02341   6.37
N01P  3 -0.36236  0.10349  0.69964 11.00000  0.01718   6.15
C01Q  2  0.00650  0.25754  0.67963 11.00000  0.00010   6.12
C01R  2  0.64101  0.67937  0.30374 11.00000  0.00526   5.91
O01S  4  0.57563  0.81941  0.31134 11.00000  0.00614   5.90
O01T  4  0.02377 -0.06890  0.71360 11.00000  0.02484   5.81
C01U  2  1.12727  1.15614  0.22391 11.00000  0.03429   5.79
C01V  2  0.39982  0.13771  0.43370 11.00000  0.00010   5.78
O01W  4  0.91995  0.97880  0.29933 11.00000  0.00010   5.65
C01X  2  0.87487  0.18926  0.57018 11.00000  0.01385   5.49
N01Y  3  0.44802 -0.14479  0.58525 11.00000  0.02758   5.34
C01Z  2  0.75051  0.76691  0.30995 11.00000  0.00163   5.34
O020  4  1.21147  0.99060  0.21880 11.00000  0.02316   5.33
C021  2  0.14315  0.15682  0.43968 11.00000  0.00010   5.29
O022  4 -0.05669  0.03737  0.50779 11.00000  0.06400   5.20
C023  2  1.05066  0.48494  0.49504 11.00000  0.00010   5.08
C024  2 -0.15892  0.31028  0.62800 11.00000  0.00010   5.05
C025  2 -0.12300  0.51230  0.65155 11.00000  0.02776   5.04
C026  2  0.04239  0.26410  0.64157 11.00000  0.00010   5.04
C027  2 -0.08506  0.05466  0.64917 11.00000  0.00010   5.01
C028  2  0.63694  0.37245  0.53209 11.00000  0.00010   4.97
C029  2  0.29602 -0.01379  0.57090 11.00000  0.00540   4.96
C02A  2  0.78197 -0.17768  0.60352 11.00000  0.00747   4.93
C02B  2  0.79027  1.18325  0.20408 11.00000  0.00473   4.89
C02C  2  0.22058  0.22211  0.67219 11.00000  0.00767   4.89
C02D  2  0.45676  0.89293  0.36698 11.00000  0.05979   4.79
C02E  2 -0.19275  0.12604  0.73355 11.00000  0.02700   4.65
C02F  2  0.92736  0.63481  0.22390 11.00000  0.07471   4.61
N02G  3  0.87754  0.91088  0.33895 11.00000  0.00758   4.60
C02H  2  0.36895 -0.06268  0.67804 11.00000  0.01089   4.57
C02I  2  0.91894  0.67156  0.42006 11.00000  0.02581   4.57
C02J  2  0.25307  1.05069  0.30796 11.00000  0.00010   4.53
C02K  2  1.04651  0.46696  0.43999 11.00000  0.00010   4.45
C02L  2  0.89076  0.48021  0.48163 11.00000  0.03279   4.44
C02M  2  0.13001 -0.10561  0.72385 11.00000  0.00010   4.41
C02N  2 -0.18222  0.11243  0.69461 11.00000  0.00122   4.35
C02O  2  0.47583  0.85804  0.42139 11.00000  0.00194   4.30
C02P  2  0.55451  0.89281  0.32057 11.00000  0.04759   4.30
N02Q  3  0.23008 -0.10575  0.82389 11.00000  0.01578   4.14
C02R  2  0.62690  0.53289  0.46569 11.00000  0.00785   4.02
C02S  2  0.13506 -0.04748  0.68573 11.00000  0.00468   4.00
C02T  2  1.02040  0.99416  0.24891 11.00000  0.03663   3.97
C02U  2  0.24498  0.99677  0.30814 11.00000  0.00010   3.90
O02V  4  0.62098  0.99651  0.32917 11.00000  0.03279   3.83
C02W  2  0.37529  0.09623  0.40821 11.00000  0.00828   3.82
C02X  2  0.78315 -0.14438  0.54855 11.00000  0.03584   3.76
C02Y  2  1.48878  0.66367  0.51756 11.00000  0.00010   3.72
C02Z  2  0.33083 -0.10042  0.57885 11.00000  0.06105   3.67
N030  3  0.48915  0.24073  0.37870 11.00000  0.00010   3.63
C031  2 -0.28449  0.61892  0.61227 11.00000  0.00010   3.57
C032  2  0.68952  0.87781  0.38323 11.00000  0.00010   3.37
C033  2  0.48539  0.93204  0.30600 11.00000  0.00010   3.36
O034  4  1.23600  1.15648  0.23870 11.00000  0.01935   3.35
C035  2  0.43726  0.33602  0.52739 11.00000  0.04315   3.35
C036  2  0.73923  0.78205  0.40379 11.00000  0.05851   3.32
C037  2  0.37101 -0.04438  0.54829 11.00000  0.00804   3.32
C038  2  0.13819  0.01123  0.54416 11.00000  0.00268   3.22
N039  3  0.46240 -0.08610  0.75902 11.00000  0.01653   3.21
C03A  2 -0.06574  0.05351  0.74981 11.00000  0.01266   3.13
C03B  2  0.35823  0.87837  0.36263 11.00000  0.00413   3.08
C03C  2  1.52452  0.63906  0.54126 11.00000  0.00010   3.03
C03D  2  0.32204  0.19524  0.45584 11.00000  0.03572   3.01
HKLF 4
END
