TITL shelx03-merge_expF_1_4_expS_0_7_shelx03-merge_a.res in P1
REM Old TITL 1 in I 1 #-1
REM SHELXT solution in P1: R1 1.058, Rweak 0.655, Alpha 0.000
REM <I/s>   0.000 for    0 systematic absences,  Orientation as input
REM Flack x = -4.188 ( 0.772 ) from  1071 Parsons' quotients
REM Formula found by SHELXT:  C36 N11 O22

CELL  0.71073   9.3100  15.1100  30.5000   90.000   90.000   90.000
ZERR   52.000   0.0019   0.0030   0.0061    0.000    0.000    0.000
LATT -2
SFAC H C N O ZR CL
UNIT 20 20 20 20 20 0
L.S. 10
BOND
LIST 6
FMAP 2
PLAN 20
CL01  6  1.20618  0.11034  0.22782 11.00000  0.01295  23.49
CL02  6  1.30466  0.10102  0.23475 11.00000  0.00010  22.75
CL03  6  1.44997  0.07714  0.24061 11.00000  0.02489  22.68
CL04  6  1.57773  0.07359  0.22345 11.00000  0.02071  22.18
CL05  6  0.88372  0.09564  0.23342 11.00000  0.02418  21.76
CL06  6  0.64321  0.63873  0.42470 11.00000  0.06587  20.96
CL07  6  0.92406  0.11906  0.23288 11.00000  0.01408  17.93
CL08  6  1.02355  0.15043  0.24112 11.00000  0.01816  17.21
CL09  6  0.58669  0.69093  0.43330 11.00000  0.00010  17.19
CL0A  6  0.87515  0.11489  0.34770 11.00000  0.03341  15.95
CL0B  6  0.48167  0.59957  0.47239 11.00000  0.03058  15.19
CL0C  6  0.27986  0.58295  0.50660 11.00000  0.01902  14.24
C00D  2  0.61826  0.28029  0.38439 11.00000  0.05987  13.62
O00E  4  0.04642  0.68477  0.48562 11.00000  0.07463  12.07
O00F  4  0.07220  0.79674  0.40371 11.00000  0.14365  11.43
N00G  3  0.36330  0.62714  0.38619 11.00000  0.19223  11.22
O00H  4  0.22221  0.69674  0.43530 11.00000  0.00058  10.99
O00I  4  0.54620  0.54553  0.46877 11.00000  0.00010  10.77
N00J  3  0.18194  0.78333  0.52343 11.00000  0.15556  10.50
O00K  4  0.09306  0.48826  0.50509 11.00000  0.00010  10.40
O00L  4  0.17976  0.82841  0.70000 11.00000  0.08504  10.20
O00M  4  0.99424  0.04256  0.30327 11.00000  0.20602   9.89
N00N  3  0.44768  0.51878  0.51521 11.00000  0.07641   9.81
O00O  4  0.57901  0.39294  0.29525 11.00000  0.21806   9.80
C00P  2  0.07165  0.95995  0.62840 11.00000  0.17021   9.42
C00Q  2  0.38559  0.19701  0.78550 11.00000  0.08711   9.19
N00R  3  0.47235  0.18391  0.78424 11.00000  0.17696   9.05
N00S  3  0.16549  0.60368  0.45892 11.00000  0.08799   8.70
O00T  4  0.36491  0.66528  0.56282 11.00000  0.14828   8.62
O00U  4  1.28023  0.26317  0.59665 11.00000  0.17086   8.44
O00V  4  0.44036  0.33404  0.33983 11.00000  0.10915   8.42
C00W  2 -0.57773  0.90353  0.50743 11.00000  0.19150   8.39
C00X  2  0.56000  0.13554  0.44296 11.00000  0.14862   8.35
O00Y  4  0.41994  0.34588  0.73701 11.00000  0.19257   8.32
O00Z  4  0.23813  0.63169  0.49575 11.00000  0.00787   8.30
O010  4  0.64068  0.34207  0.31266 11.00000  0.15872   8.30
C011  2  0.34750  0.75602  0.41625 11.00000  0.16843   8.20
O012  4  0.69310  0.64434  0.62864 11.00000  0.11104   8.13
O013  4  1.55006 -0.11884  0.28479 11.00000  0.02173   8.01
O014  4  0.00374  0.46494  0.52092 11.00000  0.19895   7.81
O015  4  0.17595  0.67430  0.57647 11.00000  0.14826   7.73
O016  4  0.80888  0.50182  0.40955 11.00000  0.02733   7.45
O017  4  0.74866  0.50307  0.35350 11.00000  0.16120   7.17
N018  3  0.89534  0.59064  0.55179 11.00000  0.12022   6.90
N019  3 -0.33849  0.87471  0.53455 11.00000  0.18894   6.67
N01A  3  0.14104  0.82931  0.52205 11.00000  0.19781   6.59
C01B  2  0.73877  0.48531  0.55620 11.00000  0.15060   6.28
C01C  2  0.08716  0.86028  0.69538 11.00000  0.09548   6.25
C01D  2  0.75858  0.04235  0.25620 11.00000  0.00010   6.20
O01E  4  0.47154  0.84832  0.37780 11.00000  0.20852   6.01
C01F  2  0.94128  0.27131  0.30320 11.00000  0.11836   5.96
C01G  2  1.51721 -0.05697  0.21450 11.00000  0.11569   5.94
C01H  2  0.46658  0.51849  0.64008 11.00000  0.17290   5.89
C01I  2  0.56285  0.59448  0.58366 11.00000  0.15502   5.87
C01J  2 -0.07834  0.80202  0.59159 11.00000  0.14096   5.66
N01K  3  0.43728  0.06493  0.39785 11.00000  0.05594   5.43
C01L  2 -0.01107  0.88065  0.64764 11.00000  0.12652   5.26
C01M  2 -0.07982  1.11884  0.56173 11.00000  0.00010   5.15
C01N  2  0.71711  0.51585  0.62936 11.00000  0.11125   5.01
C01O  2  0.97388  0.30455  0.56964 11.00000  0.19988   4.99
C01P  2  1.19214  0.24356  0.28309 11.00000  0.18642   4.93
C01Q  2 -0.46223  0.89305  0.47911 11.00000  0.09271   4.90
C01R  2 -0.07751  0.72801  0.49630 11.00000  0.10446   4.81
N01S  3 -0.22984  0.88737  0.50332 11.00000  0.13745   4.59
C01T  2 -0.09816  0.93970  0.53392 11.00000  0.17433   4.47
C01U  2  0.20500  0.11095  0.48174 11.00000  0.19971   4.45
C01V  2  0.44309  0.74919  0.37529 11.00000  0.17517   4.45
N01W  3  0.27507  0.43114  0.22943 11.00000  0.17377   4.38
C01X  2 -0.52692  1.05112  0.55505 11.00000  0.15552   4.26
C01Y  2  0.58343  0.33591  0.67912 11.00000  0.16021   4.26
C01Z  2 -0.23904  0.89035  0.55959 11.00000  0.09730   4.14
C020  2 -0.21448  1.10564  0.52292 11.00000  0.06877   3.76
C021  2  0.27901  0.10692  0.36359 11.00000  0.00010   3.68
C022  2 -0.05988  0.86261  0.61219 11.00000  0.15540   3.66
C023  2  0.85522  0.37225  0.61795 11.00000  0.14192   3.46
C024  2  0.35635  0.51534  0.57920 11.00000  0.16179   3.37
O025  4  0.37491  0.16972  0.46000 11.00000  0.12918   3.28
C026  2 -0.34261  1.02326  0.61555 11.00000  0.14231   3.25
C027  2  0.73985  0.43932  0.33766 11.00000  0.14582   3.24
C028  2  0.90744  0.43819  0.27108 11.00000  0.17602   3.20
C029  2  0.39593  0.47272  0.26053 11.00000  0.16578   3.04
HKLF 4
END
