TITL shelx03-merge_expF_1_3_expS_0_6_shelx03-merge_a.res in P1
REM Old TITL 1 in I 1 #-1
REM SHELXT solution in P1: R1 0.913, Rweak 0.217, Alpha 0.000
REM <I/s>   0.000 for    0 systematic absences,  Orientation as input
REM Flack x = -9.990 ( 9.990 ) from  1165 Parsons' quotients
REM Formula found by SHELXT:  C35 N14 O12

CELL  0.71073   9.3100  15.1100  30.5000   90.000   90.000   90.000
ZERR   52.000   0.0019   0.0030   0.0061    0.000    0.000    0.000
LATT -2
SFAC H C N O ZR
UNIT 20 20 20 20 20
L.S. 10
BOND
LIST 6
FMAP 2
PLAN 20
O001  4  0.22031  0.20639  0.62118 11.00000  0.04359  10.89
N002  3  0.03132  0.16228  0.64335 11.00000  0.02688   9.88
N003  3  0.16441  0.75458  0.40687 11.00000  0.07008   9.79
N004  3  0.90544  0.57397  0.33582 11.00000  0.02471   9.75
C005  2  0.32478  0.24043  0.61177 11.00000  0.15388   9.46
C006  2 -0.10422  0.14637  0.63502 11.00000  0.04093   8.87
O007  4  0.58828  0.17850  0.63317 11.00000  0.05895   8.76
C008  2  0.92911  0.65038  0.31802 11.00000  0.01387   8.60
C009  2  0.01889  0.63084  0.45871 11.00000  0.00746   8.57
O00A  4  0.19128  0.85600  0.39396 11.00000  0.04793   8.35
O00B  4 -0.19286  0.17738  0.63910 11.00000  0.10497   8.20
C00C  2  0.64252  0.54761  0.42525 11.00000  0.02013   8.01
N00D  3  0.44070  0.54247  0.40471 11.00000  0.11431   7.89
N00E  3  0.43407  0.17103  0.64129 11.00000  0.00010   7.61
O00F  4  1.14861  0.51361  0.54643 11.00000  0.09239   7.51
N00G  3 -0.07347  0.59917  0.43363 11.00000  0.02156   7.37
O00H  4  0.26598  0.59834  0.44176 11.00000  0.13596   7.29
C00I  2 -0.10936 -0.00074  0.69172 11.00000  0.00981   7.28
O00J  4  1.09485  0.56392  0.33131 11.00000  0.06155   7.27
N00K  3  0.28855  0.07465  0.59981 11.00000  0.01885   7.19
C00L  2  0.14059  0.73214  0.41873 11.00000  0.08197   7.06
O00M  4  0.71872  0.71165  0.48994 11.00000  0.07642   6.75
C00N  2  0.29845  0.46413  0.41462 11.00000  0.04356   6.72
C00O  2  0.04197  0.01169  0.71814 11.00000  0.11904   6.50
C00P  2  0.44605  0.58192  0.43333 11.00000  0.00010   6.38
C00Q  2  0.53058  0.54811  0.54830 11.00000  0.01897   6.34
C00R  2  0.48199  0.65448  0.56004 11.00000  0.02143   6.26
C00S  2  0.69250  0.63445  0.45671 11.00000  0.00220   6.23
O00T  4  0.43334  0.40913  0.40853 11.00000  0.01950   6.17
C00U  2  0.49711  0.61839  0.45851 11.00000  0.06064   6.09
N00V  3  0.24452  0.64861  0.45888 11.00000  0.05176   5.99
C00W  2  0.02908  0.27315  0.68731 11.00000  0.03315   5.69
C00X  2  0.74998  0.56524  0.55724 11.00000  0.01460   5.32
C00Y  2 -0.29623  0.27998  0.69024 11.00000  0.05366   5.17
C00Z  2 -0.17412  0.23180  0.68374 11.00000  0.04957   5.13
C010  2  0.51500  0.73775  0.48669 11.00000  0.03728   4.93
O011  4  0.64178  0.58123  0.35891 11.00000  0.06297   4.92
N012  3  0.62495  1.18076  0.35174 11.00000  0.05394   4.70
C013  2  0.69640  0.67374  0.30622 11.00000  0.11380   4.66
C014  2  0.25609  0.68635  0.39682 11.00000  0.04041   4.59
C015  2  0.33299  0.59599  0.35913 11.00000  0.00978   4.58
O016  4  0.47817  0.29770  0.55768 11.00000  0.05241   4.58
C017  2  0.62233  0.63228  0.57144 11.00000  0.02269   4.58
C018  2  0.96510  0.42166  0.45272 11.00000  0.01078   4.50
C019  2  0.64039  0.87735  0.29571 11.00000  0.04354   4.49
C01A  2 -0.02616  0.02705  0.59600 11.00000  0.01096   4.08
N01B  3  0.13770 -0.18076  0.71014 11.00000  0.11299   4.06
N01C  3 -0.11554  0.95816  0.40463 11.00000  0.04509   3.94
N01D  3  0.57847  0.37086  0.48102 11.00000  0.10821   3.93
C01E  2 -0.30630  0.32466  0.67741 11.00000  0.01740   3.90
N01F  3 -0.21314  0.04562  0.69706 11.00000  0.09455   3.88
O01G  4  1.16698  0.36379  0.48303 11.00000  0.02035   3.87
C01H  2  0.58254  0.99300  0.32190 11.00000  0.01224   3.67
C01I  2  0.35319  0.28098  0.56613 11.00000  0.05662   3.56
C01J  2  1.14671  0.31348  0.46696 11.00000  0.03295   3.49
C01K  2  0.66267  0.85593  0.49668 11.00000  0.02335   3.30
N01L  3  1.30630  0.04368  0.47727 11.00000  0.05043   3.26
C01M  2  0.68572  1.01916  0.31495 11.00000  0.00010   3.16
C01N  2  0.92621  0.71929  0.28186 11.00000  0.01356   3.09
C01O  2  1.06435  0.21858  0.49192 11.00000  0.01510   3.06
C01P  2  0.82077  0.43383  0.43925 11.00000  0.04840   3.05
HKLF 4
END
