TITL shelx03-merge_expF_0_5_expS_1_5_shelx03-merge_a.res in P1
REM Old TITL 1 in I 1 #-1
REM SHELXT solution in P1: R1 0.711, Rweak 0.279, Alpha 0.000
REM <I/s>   0.000 for    0 systematic absences,  Orientation as input
REM Flack x = -0.529 ( 0.524 ) from   241 Parsons' quotients
REM Formula found by SHELXT:  C78 N30 O48

CELL  0.71073   9.3100  15.1100  30.5000   90.000   90.000   90.000
ZERR   52.000   0.0019   0.0030   0.0061    0.000    0.000    0.000
LATT -2
SFAC H C N O ZR CL
UNIT 20 20 20 20 20 0
L.S. 10
BOND
LIST 6
FMAP 2
PLAN 20
CL01  6  0.84381  0.09950  0.54416 11.00000  0.04251  21.24
CL02  6  0.98729  0.10303  0.54152 11.00000  0.00663  20.22
CL03  6  0.74722  0.01826  0.37898 11.00000  0.03542  16.83
CL04  6 -0.34198  0.43544  0.54401 11.00000  0.05208  16.71
CL05  6  0.58061  0.10198  0.53652 11.00000  0.03584  16.57
CL06  6  0.32302  0.09821  0.53839 11.00000  0.04585  15.81
CL07  6  0.21965  0.10741  0.54515 11.00000  0.09826  15.24
CL08  6  0.70320  0.08531  0.53995 11.00000  0.02308  14.79
CL09  6  0.07980  0.39089  0.44442 11.00000  0.08342  13.69
C00A  2  0.52019  0.27668  0.40081 11.00000  0.02479  13.50
CL0B  6 -0.03688  0.72035  0.68457 11.00000  0.01825  13.38
CL0C  6 -0.20305  0.83156  0.68680 11.00000  0.02151  13.08
CL0D  6  0.11889  0.45403  0.49154 11.00000  0.05459  12.69
N00E  3 -0.20378  0.42172  0.35078 11.00000  0.00010  12.24
N00F  3  0.08351  0.27969  0.42170 11.00000  0.00138  12.09
N00G  3  0.00681  0.63854  0.71653 11.00000  0.00179  11.76
O00H  4  0.50337  0.25248  0.45960 11.00000  0.01928  11.75
N00I  3 -0.22018  0.40930  0.52241 11.00000  0.03365  11.55
N00J  3 -0.31379  0.33403  0.49471 11.00000  0.03026  11.31
O00K  4 -0.31656  0.48733  0.34870 11.00000  0.00573  11.30
O00L  4  0.39336  0.09541  0.42160 11.00000  0.00010  11.23
O00M  4  0.22706  0.30483  0.43224 11.00000  0.00010  11.12
N00N  3 -0.21060  0.75438  0.69536 11.00000  0.06311  10.75
O00O  4 -0.08071  0.38285  0.45615 11.00000  0.00135  10.65
O00P  4  0.70140 -0.02970  0.47845 11.00000  0.01468  10.52
O00Q  4  0.46454  1.00186  0.57119 11.00000  0.00010  10.43
O00R  4  0.67040  0.26461  0.39822 11.00000  0.00010  10.24
O00S  4  0.04779 -0.21506  0.49389 11.00000  0.03080   9.96
O00T  4 -0.36256  0.46778  0.68010 11.00000  0.00010   9.90
N00U  3  0.51566  0.01002  0.43107 11.00000  0.02543   9.84
O00V  4  0.99258 -0.12741  0.34031 11.00000  0.09495   9.71
O00W  4  0.05294  0.53226  0.44060 11.00000  0.02776   9.60
O00X  4  0.02410  0.69363  0.75063 11.00000  0.00010   9.46
C00Y  2  0.04203  0.71495  0.62707 11.00000  0.00010   9.33
C00Z  2  0.66960 -0.16639  0.53002 11.00000  0.03824   9.07
O010  4 -0.06767  1.10360  0.63840 11.00000  0.00010   9.04
N011  3  0.42752  0.64815  0.60810 11.00000  0.00072   8.98
O012  4  0.54580  0.29087  0.33796 11.00000  0.04714   8.79
O013  4  0.90830  0.05352  0.53027 11.00000  0.04758   8.76
O014  4  0.15916  0.21266  0.42034 11.00000  0.01418   8.69
O015  4 -0.03074  0.99545  0.62314 11.00000  0.01359   8.60
O016  4  0.07552  0.52694  0.52147 11.00000  0.00957   8.47
N017  3  0.66042  0.06237  0.38781 11.00000  0.00010   8.44
O018  4  0.71484  0.26560  0.33245 11.00000  0.05493   8.43
O019  4  0.43807 -0.26983  0.54732 11.00000  0.02904   8.43
N01A  3  0.28257  0.43125  0.48182 11.00000  0.01483   8.41
O01B  4  1.07526 -0.17819  0.24173 11.00000  0.11526   8.36
O01C  4  0.71080  0.21045  0.54846 11.00000  0.05725   8.30
O01D  4  0.05530  0.28317  0.50035 11.00000  0.00315   8.28
O01E  4 -0.24926  0.20904  0.61710 11.00000  0.00010   8.19
O01F  4  1.05280 -0.07050  0.26696 11.00000  0.01211   8.16
N01G  3  0.47120  0.35659  0.49842 11.00000  0.05343   8.13
N01H  3 -0.04847  0.78102  0.69796 11.00000  0.00010   8.13
O01I  4 -0.19560  0.51745  0.66978 11.00000  0.02875   8.10
O01J  4  0.39482  0.99293  0.76354 11.00000  0.00160   8.06
O01K  4  0.23227  0.52662  0.58066 11.00000  0.00010   8.05
N01L  3  0.39898 -0.00321  0.43896 11.00000  0.02570   7.91
O01M  4  0.81195 -0.06461  0.50985 11.00000  0.00048   7.87
C01N  2  0.48426 -0.14217  0.43726 11.00000  0.00058   7.85
O01O  4 -0.28736  0.49016  0.51778 11.00000  0.00010   7.75
O01P  4  0.64811  0.03655  0.51664 11.00000  0.03844   7.72
O01Q  4  0.40071  0.82026  0.61521 11.00000  0.12739   7.60
O01R  4  0.71974 -0.20398  0.48887 11.00000  0.03588   7.56
O01S  4  0.18231  0.99869  0.70571 11.00000  0.01244   7.56
O01T  4  0.47080 -0.02474  0.36379 11.00000  0.00230   7.52
O01U  4  0.36039  0.76384  0.64752 11.00000  0.07159   7.40
O01V  4  0.59287 -0.18980  0.44520 11.00000  0.01644   7.40
O01W  4  0.03971  0.61859  0.56694 11.00000  0.02531   7.34
C01X  2  0.44024  1.04389  0.80394 11.00000  0.00010   7.34
C01Y  2  1.22837 -0.07756  0.36647 11.00000  0.01643   7.34
N01Z  3 -0.14203  0.87814  0.69610 11.00000  0.00010   7.26
O020  4  0.29004  0.47258  0.61349 11.00000  0.05630   7.12
N021  3  1.16517  0.09565  0.26260 11.00000  0.02739   7.10
N022  3 -0.01677  0.17756  0.41796 11.00000  0.04431   7.03
N023  3  1.16033 -0.18538  0.17942 11.00000  0.00010   7.01
N024  3  0.43245  0.33134  0.33802 11.00000  0.00510   6.96
N025  3  0.64624  0.20414  0.48182 11.00000  0.00010   6.96
N026  3 -0.27018  0.98243  0.65603 11.00000  0.00010   6.95
N027  3  0.31089  0.98089  0.57882 11.00000  0.03112   6.93
N028  3  0.38171  0.30145  0.54722 11.00000  0.02730   6.89
N029  3  0.24667  0.45716  0.54405 11.00000  0.00010   6.85
N02A  3 -0.27272  0.79560  0.70153 11.00000  0.00010   6.80
N02B  3 -0.40210  0.43254  0.33809 11.00000  0.02570   6.79
N02C  3  0.03651  0.04753  0.45102 11.00000  0.01393   6.65
C02D  2 -0.18409  0.95789  0.74812 11.00000  0.00010   6.48
C02E  2  0.47154  0.69334  0.62297 11.00000  0.00010   6.46
C02F  2  0.40126 -0.01718  0.48169 11.00000  0.02356   6.45
C02G  2  0.46794  1.17424  0.77999 11.00000  0.00561   6.45
O02H  4  0.05426  0.78850  0.61986 11.00000  0.00010   6.43
C02I  2  0.82529 -0.31238  0.48822 11.00000  0.00010   6.41
O02J  4  0.90356  0.02753  0.33783 11.00000  0.04264   6.34
C02K  2 -0.00505  0.25803  0.43713 11.00000  0.00010   6.34
C02L  2  1.13430  0.16726  0.27227 11.00000  0.00010   6.32
C02M  2 -0.33931  0.22197  0.61292 11.00000  0.00010   6.30
C02N  2  0.52391  0.53732  0.61968 11.00000  0.00010   6.29
C02O  2  0.51168  0.86136  0.75473 11.00000  0.06434   6.28
C02P  2 -0.05464  0.24292  0.59608 11.00000  0.00010   6.25
C02Q  2 -0.09509  0.47576  0.59269 11.00000  0.00010   6.22
C02R  2  0.25282  0.84659  0.57854 11.00000  0.00353   6.21
N02S  3  0.80397 -0.19107  0.37419 11.00000  0.00010   6.21
C02T  2  0.50462  0.96874  0.80735 11.00000  0.00010   6.16
C02U  2  0.95944  0.13656  0.27536 11.00000  0.00010   6.08
C02V  2  0.13294  1.18668  0.78162 11.00000  0.00010   6.03
C02W  2  0.08505  1.31238  0.80488 11.00000  0.01303   6.02
C02X  2  1.26555  0.07662  0.34330 11.00000  0.00954   5.91
C02Y  2 -0.32315  0.63675  0.69448 11.00000  0.00010   5.85
C02Z  2  0.07938  1.30885  0.77584 11.00000  0.00010   5.81
C030  2  0.27435 -0.18454  0.51500 11.00000  0.00010   5.81
C031  2 -0.21173  0.42779  0.61306 11.00000  0.00432   5.78
C032  2 -0.11186  0.50808  0.40998 11.00000  0.00010   5.78
C033  2 -0.25779  0.38760  0.58116 11.00000  0.12228   5.74
O034  4  1.08126 -0.10392  0.35547 11.00000  0.04063   5.72
C035  2  0.41740  0.34083  0.49633 11.00000  0.05623   5.72
C036  2  0.11028  0.99908  0.61331 11.00000  0.00010   5.42
C037  2 -0.22585  0.92225  0.60924 11.00000  0.00010   5.40
C038  2  0.14058 -0.16768  0.48571 11.00000  0.01587   5.31
C039  2  1.00827  0.17426  0.33183 11.00000  0.00010   5.24
C03A  2  0.30612  0.60402  0.55624 11.00000  0.06715   5.21
C03B  2  0.05303  0.64561  0.46857 11.00000  0.05140   5.19
C03C  2  0.26264  0.36959  0.58232 11.00000  0.00010   5.18
C03D  2 -0.19555  0.53548  0.60652 11.00000  0.02585   5.09
C03E  2  0.22895 -0.06852  0.50183 11.00000  0.00154   5.08
C03F  2 -0.40719  0.53852  0.70246 11.00000  0.00010   5.05
C03G  2  0.66084  0.08327  0.46259 11.00000  0.03811   5.03
C03H  2  0.90201  0.27662  0.31946 11.00000  0.02888   5.02
C03I  2  0.31116  0.17737  0.46992 11.00000  0.00556   4.99
C03J  2  0.24834 -0.05205  0.45739 11.00000  0.00010   4.90
C03K  2  0.19529  0.56131  0.69463 11.00000  0.00010   4.80
C03L  2  0.39912  0.33309  0.55394 11.00000  0.01342   4.76
C03M  2  1.41626  0.07749  0.29897 11.00000  0.00627   4.75
C03N  2 -0.03245  1.09329  0.76860 11.00000  0.02948   4.68
C03O  2  0.19120  0.02143  0.49985 11.00000  0.00010   4.64
C03P  2 -0.10016  0.58474  0.45111 11.00000  0.00033   4.64
C03Q  2 -0.06846  0.31556  0.57498 11.00000  0.00010   4.58
C03R  2  0.32981  0.37074  0.65712 11.00000  0.05039   4.54
C03S  2  0.82015  0.23164  0.47381 11.00000  0.00958   4.36
N03T  3  0.46939 -0.10903  0.45797 11.00000  0.00010   4.36
C03U  2  0.24002  0.49088  0.66497 11.00000  0.01569   4.14
N03V  3  0.48645  0.52710  0.58034 11.00000  0.02095   4.13
C03W  2  0.14000  0.75775  0.70264 11.00000  0.00010   4.12
C03X  2  0.50543  0.89462  0.81826 11.00000  0.00010   4.06
O03Y  4  0.27847  0.62179  0.50685 11.00000  0.01522   4.03
O03Z  4  0.13428  0.68029  0.69938 11.00000  0.06228   3.99
C040  2 -0.37616  0.44680  0.40460 11.00000  0.04417   3.98
C041  2 -0.13819  0.35096  0.39557 11.00000  0.06906   3.98
C042  2  0.61702  0.08786  0.41622 11.00000  0.00010   3.94
C043  2  0.06477  0.01299  0.50483 11.00000  0.00762   3.92
C044  2  0.45433  0.47383  0.55561 11.00000  0.02398   3.92
C045  2 -0.22603  1.17134  0.82058 11.00000  0.09345   3.90
C046  2  1.42188 -0.03486  0.26649 11.00000  0.00403   3.89
C047  2  0.80791 -0.11383  0.51649 11.00000  0.00174   3.88
O048  4  0.42622  0.83830  0.74196 11.00000  0.01649   3.85
C049  2  0.64695  0.01920  0.43655 11.00000  0.05661   3.84
C04A  2  0.74449  0.06356  0.41822 11.00000  0.01096   3.73
C04B  2 -0.05004  0.32352  0.49909 11.00000  0.00010   3.66
C04C  2 -0.42188  0.49457  0.48628 11.00000  0.00010   3.66
C04D  2  0.99292 -0.03557  0.29929 11.00000  0.03213   3.65
C04E  2  0.38038  0.53073  0.63700 11.00000  0.09681   3.59
N04F  3  0.43787  0.80554  0.70491 11.00000  0.06870   3.59
O04G  4 -0.20851  0.37822  0.55680 11.00000  0.06634   3.52
C04H  2  0.73266  0.08427  0.37758 11.00000  0.01017   3.40
C04I  2 -0.16521  0.59067  0.70962 11.00000  0.09940   3.40
C04J  2  0.02006  0.75307  0.61200 11.00000  0.09357   3.32
O04K  4 -0.37092  0.46010  0.43683 11.00000  0.05926   3.20
C04L  2  0.88591  0.02681  0.30505 11.00000  0.09463   3.18
C04M  2  0.23254  0.55379  0.46218 11.00000  0.00752   3.02
C04N  2  0.10453  0.38216  0.58123 11.00000  0.01473   3.02
C04O  2  0.99946 -0.11587  0.29144 11.00000  0.12659   3.01
HKLF 4
END
