TITL shelx03-merge_expF_1_4_expS_1_1_shelx03-merge_a.res in P1
REM Old TITL 1 in I 1 #-1
REM SHELXT solution in P1: R1 0.897, Rweak 0.259, Alpha 0.000
REM <I/s>   0.000 for    0 systematic absences,  Orientation as input
REM Flack x = -9.990 ( 9.990 ) from   568 Parsons' quotients
REM Formula found by SHELXT:  C31 N18 O17

CELL  0.71073   9.3100  15.1100  30.5000   90.000   90.000   90.000
ZERR   52.000   0.0019   0.0030   0.0061    0.000    0.000    0.000
LATT -2
SFAC H C N O ZR
UNIT 20 20 20 20 20
L.S. 10
BOND
LIST 6
FMAP 2
PLAN 20
O001  4  0.50526  0.40454  0.59871 11.00000  0.02581  14.32
O002  4  0.34422  0.42516  0.59715 11.00000  0.03274  13.63
N003  3  0.10852  0.39474  0.60408 11.00000  0.06698  12.78
N004  3  0.26698  0.38362  0.60309 11.00000  0.00010  11.93
O005  4  0.66809  0.41704  0.59494 11.00000  0.06404  11.89
O006  4  0.27230  0.25237  0.64733 11.00000  0.00010  11.77
O007  4  0.88179  0.29212  0.49767 11.00000  0.05001   9.92
N008  3  0.24269  0.27790  0.64089 11.00000  0.01090   8.76
O009  4 -0.50696  0.25666  0.73238 11.00000  0.00010   8.73
N00A  3  0.85827  0.26499  0.52922 11.00000  0.00171   8.24
C00B  2 -0.17739  0.27167  0.64591 11.00000  0.00230   8.10
O00C  4  0.32323  0.24833  0.52922 11.00000  0.07384   8.02
O00D  4  0.42846  0.22128  0.65268 11.00000  0.05279   7.71
O00E  4  0.42548  0.07579  0.60122 11.00000  0.04143   7.51
N00F  3  0.68136  0.27460  0.53640 11.00000  0.12900   7.38
N00G  3  1.07106  0.72792  0.42913 11.00000  0.01817   7.32
N00H  3  0.10803  0.37252  0.63291 11.00000  0.00010   7.15
C00I  2  0.39678  0.22123  0.53527 11.00000  0.02195   7.10
N00J  3  0.33967  0.02991  0.64956 11.00000  0.04093   7.06
N00K  3 -0.01560  0.25020  0.64720 11.00000  0.02155   6.88
N00L  3  1.06669  0.64068  0.45038 11.00000  0.02893   6.83
C00M  2  0.47291  0.25209  0.38380 11.00000  0.00010   6.76
N00N  3  0.59619  0.29081  0.56073 11.00000  0.02320   6.57
O00O  4  0.48376  0.19979  0.38968 11.00000  0.03571   6.39
C00P  2  0.50583  0.28009  0.60416 11.00000  0.00010   6.37
N00Q  3 -0.28249  0.29160  0.66185 11.00000  0.03345   6.31
C00R  2  1.39613  0.77145  0.43087 11.00000  0.00010   6.13
O00S  4  1.11352  0.84337  0.41693 11.00000  0.04131   6.09
C00T  2  0.03404  0.34974  0.63494 11.00000  0.00010   6.01
C00U  2  1.00058  0.70480  0.45515 11.00000  0.01970   5.87
N00V  3 -0.55760  0.47834  0.72173 11.00000  0.00018   5.67
C00W  2 -0.04056  0.04167  0.64404 11.00000  0.01675   5.66
C00X  2  1.24833  0.77427  0.43374 11.00000  0.00368   5.66
C00Y  2  0.83867  0.33222  0.47977 11.00000  0.00010   5.52
C00Z  2  0.52108  0.22918  0.59401 11.00000  0.00010   5.43
C010  2  0.13796  0.01915  0.65798 11.00000  0.04084   5.42
C011  2  0.09103  0.20469  0.69727 11.00000  0.00010   5.30
O012  4  1.55760  0.74498  0.43926 11.00000  0.00612   5.19
C013  2  0.21359  0.06566  0.64212 11.00000  0.01758   5.16
O014  4  0.77028  0.51516  0.51382 11.00000  0.05742   5.09
C015  2  1.25508  0.68216  0.42370 11.00000  0.00737   5.05
C016  2  0.24160  0.27300  0.35819 11.00000  0.00010   5.03
C017  2 -0.42067  0.19506  0.72466 11.00000  0.00010   4.85
C018  2 -0.15377  0.07659  0.64093 11.00000  0.00010   4.68
C019  2  0.16407  0.12288  0.64167 11.00000  0.00409   4.62
C01A  2  0.09982  0.23486  0.63053 11.00000  0.04216   4.22
O01B  4  0.98568  0.70916  0.55807 11.00000  0.02206   4.17
C01C  2  0.90225  0.45073  0.50245 11.00000  0.02751   4.16
C01D  2  0.96406  0.75912  0.56021 11.00000  0.00194   4.09
C01E  2 -0.28333  0.34613  0.72351 11.00000  0.00165   4.05
O01F  4  1.02839  0.98085  0.43712 11.00000  0.05564   3.93
C01G  2  0.68541  0.44748  0.65832 11.00000  0.00010   3.92
C01H  2  1.10009  0.92713  0.43473 11.00000  0.00010   3.87
O01I  4  0.95048  0.91836  0.43435 11.00000  0.02966   3.74
C01J  2  0.26552  0.42076  0.35523 11.00000  0.07491   3.59
N01K  3  0.26863  0.20043  0.36798 11.00000  0.00556   3.50
C01L  2  0.37774  0.34153  0.34620 11.00000  0.00193   3.46
C01M  2 -0.30239  0.05684  0.66069 11.00000  0.00010   3.41
N01N  3  0.09955  0.26992  0.27938 11.00000  0.01171   3.39
N01O  3  0.57857  0.25428  0.26762 11.00000  0.00010   3.35
C01P  2  0.13547  0.25085  0.69407 11.00000  0.00010   3.35
N01Q  3  0.07611  0.42422  0.69587 11.00000  0.00639   3.21
C01R  2 -0.45739  0.40482  0.73198 11.00000  0.00983   3.21
O01S  4  0.64635  0.03287  0.34399 11.00000  0.04605   3.20
C01T  2  0.70757  0.08592  0.35225 11.00000  0.01807   3.19
N01U  3  0.58550  0.44953  0.46222 11.00000  0.03018   3.02
HKLF 4
END
