TITL shelx03-merge_expF_1_3_expS_1_1_shelx03-merge_a.res in P1
REM Old TITL 1 in I 1 #-1
REM SHELXT solution in P1: R1 0.864, Rweak 0.378, Alpha 0.000
REM <I/s>   0.000 for    0 systematic absences,  Orientation as input
REM Flack x = -9.990 ( 9.990 ) from   575 Parsons' quotients
REM Formula found by SHELXT:  C34 N12 O14

CELL  0.71073   9.3100  15.1100  30.5000   90.000   90.000   90.000
ZERR   52.000   0.0019   0.0030   0.0061    0.000    0.000    0.000
LATT -2
SFAC H C N O ZR
UNIT 20 20 20 20 20
L.S. 10
BOND
LIST 6
FMAP 2
PLAN 20
O001  4  0.29018  0.60518  0.32768 11.00000  0.00010  12.79
O002  4  0.12903  0.63552  0.33215 11.00000  0.00894  12.63
O003  4  0.58698  0.62150  0.44052 11.00000  0.01777  10.52
N004  3  0.89574  0.59615  0.33534 11.00000  0.00295  10.24
O005  4  0.40896  0.55140  0.32729 11.00000  0.06955  10.10
O006  4  0.95555  0.71363  0.33729 11.00000  0.11367   9.98
N007  3  0.80481  0.63349  0.32750 11.00000  0.01378   9.76
C008  2  0.66165  0.59374  0.45896 11.00000  0.01085   9.75
O009  4  0.15413  0.39138  0.58973 11.00000  0.00535   8.62
O00A  4  0.40496  0.57196  0.44048 11.00000  0.10990   8.61
O00B  4  0.54368  0.62139  0.33452 11.00000  0.03855   8.05
O00C  4  0.96589  0.63196  0.58627 11.00000  0.02582   7.63
O00D  4  0.98846  0.47463  0.38359 11.00000  0.00010   7.48
N00E  3  0.43346  0.47457  0.50388 11.00000  0.00740   7.02
N00F  3  0.26588  0.59727  0.43801 11.00000  0.03346   6.98
N00G  3  0.85925  0.59681  0.43608 11.00000  0.03233   6.83
C00H  2 -0.07417  0.18786  0.52841 11.00000  0.00010   6.27
C00I  2  0.62411  0.63404  0.33770 11.00000  0.02319   6.21
C00J  2  0.28719  0.55568  0.66256 11.00000  0.00010   6.14
C00K  2  0.22528  0.64133  0.44207 11.00000  0.00010   6.02
N00L  3  0.90843  0.69519  0.59121 11.00000  0.00010   5.96
C00M  2  0.43456  0.15675  0.50988 11.00000  0.00010   5.88
C00N  2  1.08752  0.62803  0.58578 11.00000  0.00010   5.83
C00O  2  0.80727  0.59376  0.36770 11.00000  0.00010   5.46
N00P  3  0.84191  0.55741  0.20382 11.00000  0.00010   5.31
C00Q  2  0.49553  0.19513  0.51130 11.00000  0.03313   5.26
C00R  2  0.78407  0.67340  0.57936 11.00000  0.06192   5.21
C00S  2  0.45506  0.46295  0.66514 11.00000  0.02997   5.15
N00T  3  0.36368  0.11094  0.53406 11.00000  0.01574   5.05
C00U  2  0.10242  0.43193  0.79618 11.00000  0.00010   5.04
C00V  2  0.64909  0.63182  0.62613 11.00000  0.06834   4.99
C00W  2  0.28568  0.76107  0.37611 11.00000  0.03536   4.92
C00X  2  0.88697  0.45489  0.39310 11.00000  0.01453   4.78
C00Y  2  1.00097  0.78241  0.37018 11.00000  0.03360   4.71
C00Z  2  0.71518  0.72446  0.40214 11.00000  0.00010   4.66
O010  4  0.55543  0.60772  0.62138 11.00000  0.00540   4.56
C011  2  0.72816  0.76230  0.53850 11.00000  0.09299   4.51
O012  4  0.70385  0.93946  0.62981 11.00000  0.06855   4.48
C013  2  0.04606  0.14746  0.51043 11.00000  0.00010   4.23
C014  2  0.36073  0.41242  0.33483 11.00000  0.00395   4.17
C015  2  0.50969  0.74057  0.40079 11.00000  0.00010   4.10
C016  2 -0.00344  0.21679  0.53122 11.00000  0.00010   4.10
C017  2  0.98935  0.59002  0.52866 11.00000  0.03697   4.04
C018  2  0.60070  0.92304  0.61740 11.00000  0.00495   3.84
O019  4  0.56608  0.34931  0.61367 11.00000  0.03646   3.82
C01A  2  0.36944  0.06054  0.53492 11.00000  0.03172   3.80
C01B  2  0.54137  0.31090  0.62116 11.00000  0.00617   3.69
C01C  2  0.06852  0.54867  0.73461 11.00000  0.00010   3.62
C01D  2  1.04173  0.57531  0.40210 11.00000  0.00939   3.62
N01E  3  0.46442  0.80076  0.69120 11.00000  0.04740   3.60
C01F  2 -0.10292  0.28230  0.50024 11.00000  0.00010   3.58
N01G  3  0.82063  0.21858  0.67323 11.00000  0.02157   3.55
O01H  4  1.10292  0.84281  0.31550 11.00000  0.03661   3.52
C01I  2  1.04622  0.89541  0.29706 11.00000  0.01728   3.47
C01J  2  0.58404  0.57990  0.26646 11.00000  0.00372   3.45
N01K  3  0.61698  0.83427  0.75838 11.00000  0.01219   3.40
N01L  3  1.06064  0.92016  0.66011 11.00000  0.05338   3.32
C01M  2  0.66991  0.55579  0.67058 11.00000  0.01424   3.31
C01N  2  0.34898  0.45063  0.51330 11.00000  0.01285   3.31
C01O  2  0.43707  0.64081  0.68509 11.00000  0.04490   3.03
HKLF 4
END
