TITL shelx03-merge_expF_1_2_expS_1_4_shelx03-merge_a.res in P1
REM Old TITL 1 in I 1 #-1
REM SHELXT solution in P1: R1 0.821, Rweak 0.277, Alpha 0.000
REM <I/s>   0.000 for    0 systematic absences,  Orientation as input
REM Flack x = -9.990 ( 8.352 ) from   346 Parsons' quotients
REM Formula found by SHELXT:  C48 N20 O16

CELL  0.71073   9.3100  15.1100  30.5000   90.000   90.000   90.000
ZERR   52.000   0.0019   0.0030   0.0061    0.000    0.000    0.000
LATT -2
SFAC H C N O ZR
UNIT 20 20 20 20 20
L.S. 10
BOND
LIST 6
FMAP 2
PLAN 20
O001  4  1.80270  0.47431  0.25729 11.00000  0.01953  12.31
N002  3  0.22628  0.39988  0.56931 11.00000  0.00010  10.79
O003  4  2.17020  0.52177  0.25928 11.00000  0.00679  10.64
O004  4  0.02328  0.23256  0.61601 11.00000  0.07996  10.50
C005  2  1.48720  0.51481  0.25924 11.00000  0.00010  10.49
O006  4  1.41335  0.49490  0.25730 11.00000  0.02592  10.38
C007  2  1.87018  0.51422  0.26181 11.00000  0.00649  10.11
N008  3  1.63235  0.48003  0.25829 11.00000  0.02201   9.99
O009  4  0.05717  0.52178  0.63725 11.00000  0.05611   9.42
O00A  4  2.05984  0.49678  0.25037 11.00000  0.05428   9.34
N00B  3 -0.51581  0.34155  0.54612 11.00000  0.03758   8.98
N00C  3  0.07733  0.45567  0.57890 11.00000  0.00117   8.42
N00D  3  0.07717  0.39447  0.57998 11.00000  0.00010   8.07
O00E  4 -0.09740  0.61265  0.62975 11.00000  0.07631   7.96
C00F  2 -0.42674  0.31900  0.52682 11.00000  0.01909   7.83
C00G  2  1.21573  0.56731  0.35727 11.00000  0.05413   7.63
N00H  3  0.29580  0.42413  0.56279 11.00000  0.00010   7.37
N00I  3 -0.28099  0.29732  0.54234 11.00000  0.00448   7.00
N00J  3 -0.20108  0.38824  0.57494 11.00000  0.03103   6.99
C00K  2 -0.54494  0.29840  0.54457 11.00000  0.01629   6.89
N00L  3  0.43278  0.55230  0.55034 11.00000  0.09446   6.75
N00M  3 -0.11482  0.46981  0.59327 11.00000  0.05576   6.63
N00N  3 -0.30147  0.23636  0.73069 11.00000  0.02553   6.59
C00O  2 -0.28660  0.51637  0.60024 11.00000  0.00010   6.58
N00P  3 -0.11526  0.41235  0.67138 11.00000  0.01019   6.54
C00Q  2 -0.58025  0.46150  0.70351 11.00000  0.06823   6.33
C00R  2  0.27254  0.55451  0.57140 11.00000  0.00010   6.29
C00S  2 -0.33310  0.48858  0.66212 11.00000  0.00086   5.99
C00T  2  1.15816  0.82596  0.55190 11.00000  0.02459   5.74
C00U  2 -0.48363  0.22175  0.52654 11.00000  0.01679   5.74
C00V  2 -0.64027  0.33741  0.71339 11.00000  0.01754   5.46
C00W  2  0.47457  0.47510  0.54250 11.00000  0.05636   5.44
C00X  2  0.70108  0.46083  0.37532 11.00000  0.00010   5.40
C00Y  2  0.14104  0.35295  0.61150 11.00000  0.00010   5.35
C00Z  2 -0.44286  0.24455  0.72906 11.00000  0.00010   5.34
C010  2  1.31947  0.45947  0.38491 11.00000  0.01966   5.28
C011  2  1.50987  0.81211  0.48562 11.00000  0.02428   5.11
C012  2 -0.39748  0.10906  0.53197 11.00000  0.04896   5.06
N013  3  1.13484  0.56608  0.38212 11.00000  0.00343   4.96
N014  3 -1.17020  0.53977  0.81893 11.00000  0.05881   4.95
N015  3 -0.39258  0.39742  0.69644 11.00000  0.02107   4.95
C016  2  1.55383  0.37246  0.32267 11.00000  0.00010   4.90
C017  2  0.67442  0.47842  0.53786 11.00000  0.03340   4.87
C018  2 -0.40131  0.30180  0.71746 11.00000  0.05812   4.84
C019  2  1.01102  0.50621  0.36678 11.00000  0.00010   4.78
C01A  2 -0.06380  0.28009  0.45279 11.00000  0.00010   4.65
C01B  2 -0.33698  0.47039  0.60061 11.00000  0.04494   4.60
N01C  3  1.50388  0.90849  0.46500 11.00000  0.00010   4.57
C01D  2  1.27186  0.30552  0.37021 11.00000  0.02928   4.55
O01E  4  1.34689  0.34533  0.35651 11.00000  0.02712   4.54
O01F  4  0.45271  0.47778  0.48997 11.00000  0.03187   4.34
C01G  2 -0.63941  0.28158  0.53298 11.00000  0.02701   4.22
C01H  2  1.70818  0.37344  0.31878 11.00000  0.00935   4.19
C01I  2  0.85206  0.77026  0.50389 11.00000  0.00275   4.15
O01J  4 -0.23177  0.30285  0.46095 11.00000  0.01320   4.11
C01K  2 -0.01406  0.36357  0.65356 11.00000  0.00010   4.08
C01L  2 -0.69878  0.54790  0.69677 11.00000  0.01761   4.06
N01M  3  1.93055  0.29734  0.30244 11.00000  0.01941   4.06
N01N  3  0.06507  0.41203  0.63363 11.00000  0.11931   4.03
C01O  2  1.40686  0.38360  0.31360 11.00000  0.07735   3.91
C01P  2 -0.22426  0.47078  0.65946 11.00000  0.03331   3.90
C01Q  2 -0.27522  0.19667  0.70035 11.00000  0.03509   3.87
O01R  4  0.82806  0.49617  0.38804 11.00000  0.05808   3.85
C01S  2  0.23027  0.30507  0.63302 11.00000  0.00010   3.84
C01T  2  1.40928  0.70037  0.47804 11.00000  0.02621   3.82
O01U  4 -0.91832  0.69133  0.76651 11.00000  0.02601   3.78
C01V  2  0.78690  0.52779  0.46248 11.00000  0.00010   3.77
C01W  2  0.26766  0.49545  0.50692 11.00000  0.03618   3.74
O01X  4 -0.28257  0.12156  0.53188 11.00000  0.04899   3.72
C01Y  2  0.52401  0.53834  0.37437 11.00000  0.02553   3.68
N01Z  3  1.26852  0.32275  0.18107 11.00000  0.00324   3.62
O020  4 -0.73232  0.58738  0.71247 11.00000  0.03751   3.52
O021  4  1.32562  0.78186  0.55484 11.00000  0.04401   3.48
N022  3  0.25551  0.09151  0.63332 11.00000  0.04400   3.43
C023  2  0.14499  0.49329  0.52962 11.00000  0.00010   3.39
C024  2 -0.15386  0.20353  0.43409 11.00000  0.01992   3.39
C025  2 -0.77151  0.67109  0.77486 11.00000  0.05329   3.36
C026  2 -0.39719  0.54830  0.59192 11.00000  0.00895   3.33
C027  2 -0.68296  0.45940  0.70263 11.00000  0.00851   3.33
C028  2 -1.01977  0.55867  0.80804 11.00000  0.01620   3.21
C029  2 -0.73635  0.37033  0.71034 11.00000  0.01631   3.18
C02A  2  1.24019  0.75010  0.52527 11.00000  0.01573   3.16
C02B  2  0.93188  0.75050  0.50990 11.00000  0.02210   3.15
O02C  4  0.76576  0.72187  0.49285 11.00000  0.10816   3.08
HKLF 4
END
