TITL shelx03-merge_expF_1_3_expS_0_5_shelx03-merge_a.res in P1
REM Old TITL 1 in I 1 #-1
REM SHELXT solution in P1: R1 0.859, Rweak 0.186, Alpha 0.000
REM <I/s>   0.000 for    0 systematic absences,  Orientation as input
REM Flack x = -5.628 ( 0.585 ) from  1259 Parsons' quotients
REM Formula found by SHELXT:  C47 N14 O18

CELL  0.71073   9.3100  15.1100  30.5000   90.000   90.000   90.000
ZERR   52.000   0.0019   0.0030   0.0061    0.000    0.000    0.000
LATT -2
SFAC H C N O ZR CL
UNIT 20 20 20 20 20 0
L.S. 10
BOND
LIST 6
FMAP 2
PLAN 20
CL01  6  0.23246  0.14328  0.69014 11.00000  0.05876  21.00
CL02  6  0.12659  0.13541  0.69307 11.00000  0.07791  18.58
CL03  6  0.97128  0.60300  0.47115 11.00000  0.09487  18.22
CL04  6  0.31280  0.62188  0.47595 11.00000  0.08070  17.65
CL05  6  0.89706  0.83906  0.46236 11.00000  0.10957  16.63
CL06  6  1.08485  0.56323  0.47129 11.00000  0.04627  15.85
CL07  6 -0.00417  0.12934  0.68993 11.00000  0.08830  15.25
CL08  6  0.53117  0.66216  0.38480 11.00000  0.07805  14.27
CL09  6  0.97218  0.51717  0.46320 11.00000  0.04654  14.27
CL0A  6  0.33498  0.14677  0.68840 11.00000  0.09545  14.13
CL0B  6  1.13158  0.47610  0.53601 11.00000  0.08896  13.92
CL0C  6 -0.13799  0.13925  0.68944 11.00000  0.05190  13.84
CL0D  6  1.00752  0.79574  0.46205 11.00000  0.08256  13.67
CL0E  6  0.28841  0.63596  0.59732 11.00000  0.05724  13.57
CL0F  6  0.77334  0.69228  0.51091 11.00000  0.08697  13.49
CL0G  6 -0.25333  0.13692  0.68500 11.00000  0.05886  13.35
CL0H  6  0.42953  0.63911  0.35952 11.00000  0.07715  12.88
O00I  4  0.61080  0.60583  0.38360 11.00000  0.12299  11.87
CL0J  6  0.91524  0.63541  0.59832 11.00000  0.14439  11.35
O00K  4 -0.42025  0.14220  0.68859 11.00000  0.02821  10.28
O00L  4  0.80640  0.47619  0.53626 11.00000  0.04054  10.21
O00M  4  0.74972  0.63219  0.38703 11.00000  0.06384   9.96
C00N  2  0.40648  0.59351  0.49758 11.00000  0.01636   9.93
N00O  3  1.08883  0.50509  0.47002 11.00000  0.03553   9.64
N00P  3  0.57501  0.67226  0.52914 11.00000  0.02910   9.60
O00Q  4  0.54655  0.47841  0.52469 11.00000  0.09335   9.51
N00R  3  0.79319  0.43548  0.40162 11.00000  0.10803   9.16
O00S  4  0.45986  0.21796  0.75370 11.00000  0.02040   9.16
O00T  4  0.48491  0.61372  0.57754 11.00000  0.04839   9.08
C00U  2  1.12167  0.43276  0.54586 11.00000  0.06110   8.72
O00V  4  0.69084  0.43520  0.50975 11.00000  0.09259   8.61
C00W  2  1.08730  0.69696  0.52424 11.00000  0.00460   8.31
O00X  4  0.88578  0.57043  0.54309 11.00000  0.02869   8.21
N00Y  3  0.06841  0.45222  0.66534 11.00000  0.04419   8.18
O00Z  4  0.07659  0.30001  0.73726 11.00000  0.05109   8.09
C010  2  0.58571  0.44898  0.42662 11.00000  0.08384   7.83
C011  2  0.25814  0.19932  0.22392 11.00000  0.07467   7.65
C012  2  0.19373  0.46899  0.65392 11.00000  0.02501   7.57
N013  3  0.36584  0.82668  0.59699 11.00000  0.04990   7.52
N014  3  0.43921  0.74258  0.50147 11.00000  0.09598   7.25
C015  2  0.15688  0.29485  0.22591 11.00000  0.01600   7.24
C016  2  0.30740  0.90053  0.57677 11.00000  0.04391   6.94
N017  3  1.44894  0.15810  0.43109 11.00000  0.07332   6.84
C018  2  0.26552  0.27470  0.72714 11.00000  0.07109   6.47
C019  2  0.24850  0.31795  0.23400 11.00000  0.00397   6.42
C01A  2  0.94007  0.67690  0.52500 11.00000  0.00010   6.34
C01B  2  0.13963  0.88055  0.63688 11.00000  0.13100   6.29
O01C  4  0.36781  0.32379  0.30997 11.00000  0.10520   6.29
C01D  2  0.17525  0.67937  0.41095 11.00000  0.06602   6.20
N01E  3  0.40074  0.29521  0.23464 11.00000  0.06634   6.19
C01F  2  1.17779  0.51059  0.46409 11.00000  0.06051   6.16
C01G  2  0.39503  0.17167  0.20240 11.00000  0.11347   5.91
C01H  2  0.23338  0.90000  0.60070 11.00000  0.01752   5.89
C01I  2  1.33639  0.49380  0.45354 11.00000  0.01870   5.79
C01J  2  1.25513  0.17571  0.35682 11.00000  0.04534   5.78
C01K  2  0.61713  0.15113  0.82091 11.00000  0.00556   5.58
C01L  2 -0.24088  0.09753  0.69007 11.00000  0.12813   5.56
C01M  2 -0.24600  0.31868  0.74516 11.00000  0.11151   5.53
C01N  2  0.35047  0.52806  0.62053 11.00000  0.02317   5.49
C01O  2  0.71600  0.36111  0.32730 11.00000  0.07562   5.36
C01P  2  0.19877  0.42252  0.71473 11.00000  0.01436   5.22
C01Q  2  0.39804  0.51810  0.52074 11.00000  0.11233   5.11
N01R  3  0.74713  0.50358  0.38626 11.00000  0.02086   5.09
O01S  4  1.18842  0.86515  0.38856 11.00000  0.04935   5.05
C01T  2  0.52059  0.52858  0.68261 11.00000  0.08457   5.02
C01U  2  0.46204  0.45280  0.77329 11.00000  0.00010   5.01
C01V  2 -0.44894  0.24126  0.68017 11.00000  0.14231   4.86
C01W  2  0.61643  0.62098  0.53400 11.00000  0.12950   4.73
N01X  3  0.56408  0.71137  0.37690 11.00000  0.03452   4.65
O01Y  4  1.08868  0.78589  0.52216 11.00000  0.08950   4.59
N01Z  3  0.51428  0.96609  0.30449 11.00000  0.06053   4.59
C020  2  0.58311  0.15934  0.26435 11.00000  0.01347   4.55
C021  2  0.61917  0.71091  0.55935 11.00000  0.03967   4.29
C022  2  1.02474  0.85174  0.39569 11.00000  0.02974   4.26
C023  2  0.97251  0.36437  0.33797 11.00000  0.12596   4.24
N024  3  0.61474  0.90834  0.36542 11.00000  0.00982   4.21
C025  2  0.40362  0.25699  0.81117 11.00000  0.10808   4.21
O026  4  0.42609  0.56713  0.81977 11.00000  0.07974   4.05
C027  2  0.57002  0.95752  0.47880 11.00000  0.08281   4.01
C028  2  1.10253  0.13441  0.45680 11.00000  0.01954   4.00
O029  4  0.61312  0.11080  0.78885 11.00000  0.13057   3.80
C02A  2 -0.03017  0.18138  0.64299 11.00000  0.04125   3.76
C02B  2  1.08709  0.25654  0.39671 11.00000  0.00031   3.69
C02C  2  0.43223  0.54465  0.78106 11.00000  0.01505   3.67
O02D  4 -0.16488  0.14494  0.57241 11.00000  0.04692   3.65
O02E  4  1.19701  0.41730  0.41120 11.00000  0.01716   3.57
N02F  3 -0.04766  0.44977  0.68161 11.00000  0.01093   3.48
C02G  2  1.11539  0.11922  0.53498 11.00000  0.01335   3.38
C02H  2  0.52575  0.29520  0.31069 11.00000  0.00956   3.30
O02I  4  0.04397  0.27805  0.63621 11.00000  0.13349   3.29
C02J  2  0.63132  0.31573  0.46912 11.00000  0.02778   3.27
C02K  2  0.97713  0.43790  0.41127 11.00000  0.05684   3.26
C02L  2  0.49107  0.03391  0.76771 11.00000  0.01314   3.25
C02M  2  0.40169  0.24793  0.23027 11.00000  0.00721   3.18
N02N  3 -0.32923  0.15530  0.57870 11.00000  0.09837   3.15
C02O  2  0.30717  0.42194  0.17909 11.00000  0.06883   3.04
C02P  2  0.01321  0.25208  0.20887 11.00000  0.00010   3.02
HKLF 4
END
