TITL shelx03-merge_expF_1_4_expS_0_9_shelx03-merge_a.res in P1
REM Old TITL 1 in I 1 #-1
REM SHELXT solution in P1: R1 0.883, Rweak 0.555, Alpha 0.000
REM <I/s>   0.000 for    0 systematic absences,  Orientation as input
REM Flack x = -9.990 ( 9.990 ) from   784 Parsons' quotients
REM Formula found by SHELXT:  C39 N13 O10

CELL  0.71073   9.3100  15.1100  30.5000   90.000   90.000   90.000
ZERR   52.000   0.0019   0.0030   0.0061    0.000    0.000    0.000
LATT -2
SFAC H C N O ZR
UNIT 20 20 20 20 20
L.S. 10
BOND
LIST 6
FMAP 2
PLAN 20
O001  4  1.15481  0.18401  0.53686 11.00000  0.01444  12.89
O002  4  0.98661  0.18373  0.54147 11.00000  0.06289  12.08
N003  3  0.19017  0.58177  0.37068 11.00000  0.01157  10.23
C004  2  1.14087  0.13563  0.56215 11.00000  0.01994   9.77
C005  2  0.56706  0.16886  0.53556 11.00000  0.01130   9.30
N006  3  0.48006  0.20067  0.53188 11.00000  0.04086   9.09
C007  2  0.15460  0.63856  0.36990 11.00000  0.00010   8.72
C008  2  0.43322  0.16777  0.54659 11.00000  0.00658   8.52
N009  3  0.49738  0.75704  0.30868 11.00000  0.02701   8.44
C00A  2  0.53763  0.66955  0.36964 11.00000  0.00730   8.22
N00B  3  0.47329  0.70478  0.30421 11.00000  0.03260   8.05
O00C  4 -0.09333  0.69114  0.39928 11.00000  0.04556   7.51
N00D  3  0.94769  0.73013  0.61912 11.00000  0.02333   7.45
O00E  4  0.77007  0.18901  0.54352 11.00000  0.00020   7.42
C00F  2  0.83316  0.73224  0.58750 11.00000  0.07067   7.18
N00G  3  0.03282  0.51761  0.37667 11.00000  0.01805   7.01
N00H  3  0.30000  0.67374  0.31785 11.00000  0.03265   6.88
O00I  4  0.53411  0.70102  0.47628 11.00000  0.01879   6.59
N00J  3  0.72528  0.15072  0.68153 11.00000  0.00079   6.58
C00K  2  0.39983  0.82701  0.28027 11.00000  0.02174   6.42
C00L  2  0.29184  0.73560  0.32509 11.00000  0.01313   6.35
C00M  2  0.01004  0.71567  0.35258 11.00000  0.03254   6.20
N00N  3  0.61309  0.64212  0.35361 11.00000  0.00414   6.16
C00O  2  0.88242  0.12595  0.66924 11.00000  0.03115   6.09
C00P  2  1.05350  0.75930  0.61629 11.00000  0.02154   6.02
C00Q  2  0.59767  0.55357  0.34738 11.00000  0.00010   5.90
C00R  2  0.67097  0.69950  0.47424 11.00000  0.02416   5.86
C00S  2  0.59124  0.15606  0.66948 11.00000  0.02615   5.79
C00T  2 -0.05563  0.82495  0.39110 11.00000  0.00888   5.76
C00U  2  0.21018  0.71332  0.31840 11.00000  0.02739   5.68
C00V  2  0.78627  0.51744  0.29579 11.00000  0.00010   5.67
C00W  2  0.35984  0.49000  0.31761 11.00000  0.01208   5.31
C00X  2  0.08230  0.76230  0.41727 11.00000  0.00056   5.25
O00Y  4  0.55249  0.55259  0.51031 11.00000  0.04325   5.22
C00Z  2  0.49932  0.71853  0.34801 11.00000  0.04432   5.09
N010  3  1.02107  0.17138  0.65596 11.00000  0.01337   5.02
C011  2  0.72457  0.82369  0.60593 11.00000  0.00546   4.96
C012  2  0.43676  0.44413  0.31955 11.00000  0.01727   4.94
N013  3  0.32795  0.87403  0.30459 11.00000  0.08268   4.93
O014  4  0.77680  0.33808  0.47871 11.00000  0.02330   4.83
C015  2  0.76502  0.75102  0.29897 11.00000  0.00010   4.56
C016  2  0.52306  0.52225  0.33774 11.00000  0.01500   4.51
C017  2  0.46953  0.57480  0.31990 11.00000  0.03044   4.48
C018  2  0.43179  0.52719  0.52605 11.00000  0.03092   4.45
N019  3  0.32798  0.45223  0.61192 11.00000  0.02551   4.44
C01A  2 -0.15481  0.86364  0.40072 11.00000  0.03542   4.32
O01B  4  0.85093  0.47350  0.29869 11.00000  0.01925   4.25
C01C  2 -0.15081  0.81234  0.39885 11.00000  0.06298   4.16
C01D  2  0.61011  0.61325  0.30043 11.00000  0.00079   4.14
N01E  3  0.94839  0.67230  0.27449 11.00000  0.05089   4.08
C01F  2  0.27267  0.65855  0.44138 11.00000  0.03418   3.90
O01G  4  0.48723  0.67029  0.72551 11.00000  0.03697   3.88
O01H  4  0.41368  0.87405  0.51547 11.00000  0.09268   3.80
C01I  2  0.81215  0.47615  0.50212 11.00000  0.02130   3.69
C01J  2  0.95572  0.32869  0.47874 11.00000  0.01067   3.63
C01K  2  0.41104  0.84613  0.53435 11.00000  0.00019   3.57
C01L  2  0.71323  0.74697  0.28647 11.00000  0.00010   3.55
C01M  2  0.98980  0.36583  0.42485 11.00000  0.05114   3.45
C01N  2  0.22285  0.75926  0.37961 11.00000  0.00062   3.35
C01O  2  0.85696  0.24182  0.65539 11.00000  0.01043   3.33
C01P  2  0.58895  0.66128  0.71592 11.00000  0.02982   3.07
C01Q  2  0.46496  0.49864  0.39558 11.00000  0.10033   3.05
HKLF 4
END
