TITL shelx03-merge_expF_1_1_expS_1_5_shelx03-merge_a.res in P1
REM Old TITL 1 in I 1 #-1
REM SHELXT solution in P1: R1 0.794, Rweak 0.497, Alpha 0.000
REM <I/s>   0.000 for    0 systematic absences,  Orientation as input
REM Flack x = -9.990 ( 2.439 ) from   182 Parsons' quotients
REM Formula found by SHELXT:  C57 N18 O16

CELL  0.71073   9.3100  15.1100  30.5000   90.000   90.000   90.000
ZERR   52.000   0.0019   0.0030   0.0061    0.000    0.000    0.000
LATT -2
SFAC H C N O ZR CL
UNIT 20 20 20 20 20 0
L.S. 10
BOND
LIST 6
FMAP 2
PLAN 20
CL01  6  1.01947  0.30147  0.72377 11.00000  0.02089  15.54
CL02  6  0.89542  0.31809  0.72281 11.00000  0.03600  13.59
CL03  6  0.71435  0.30724  0.72675 11.00000  0.07730  13.56
O004  4  0.54732  0.27475  0.71574 11.00000  0.01886  11.82
O005  4  0.60042  0.33523  0.72578 11.00000  0.00932  10.67
N006  3  1.53897  0.37540  0.35966 11.00000  0.02022  10.45
O007  4  0.35567  0.31111  0.73132 11.00000  0.00554  10.13
O008  4  1.73470  0.33298  0.35728 11.00000  0.03743   9.87
O009  4  0.57888  0.57724  0.53901 11.00000  0.02050   9.54
C00A  2  0.48828  0.57919  0.57090 11.00000  0.02723   9.36
N00B  3  1.28083  0.51937  0.45332 11.00000  0.04606   9.07
C00C  2  1.59426  0.42657  0.42573 11.00000  0.00010   9.01
C00D  2  1.14022  0.25087  0.70662 11.00000  0.00010   8.74
N00E  3  0.23423  0.60324  0.62271 11.00000  0.02583   8.16
C00F  2  0.01089  0.80215  0.65141 11.00000  0.00010   8.07
O00G  4  0.14634  0.29773  0.59425 11.00000  0.05713   8.04
O00H  4  1.13694  0.39118  0.26984 11.00000  0.01079   7.90
C00I  2 -0.27600  0.84710  0.49384 11.00000  0.01742   7.36
N00J  3  1.62879  0.40772  0.36340 11.00000  0.00010   7.06
N00K  3  1.19874  0.31758  0.46539 11.00000  0.00120   7.04
C00L  2  1.33126  0.53291  0.42529 11.00000  0.00010   6.87
N00M  3  1.35981  0.45610  0.40096 11.00000  0.06530   6.86
N00N  3  1.19011  0.40483  0.43323 11.00000  0.00010   6.74
C00O  2  1.36110  0.44409  0.42818 11.00000  0.00010   6.70
N00P  3  0.74009  0.46901  0.52528 11.00000  0.00499   6.69
N00Q  3  1.12140  0.51242  0.26131 11.00000  0.00010   6.64
N00R  3  1.05019  0.33783  0.40801 11.00000  0.00010   6.63
N00S  3 -0.40216  0.82463  0.64791 11.00000  0.04219   6.62
C00T  2 -0.35196  0.87091  0.61107 11.00000  0.00895   6.60
O00U  4  0.59760  0.30020  0.59212 11.00000  0.02103   6.26
O00V  4  1.21939  0.61114  0.39127 11.00000  0.00010   6.26
C00W  2  0.89180  0.44867  0.47521 11.00000  0.01464   6.25
N00X  3  1.45014  0.30538  0.40401 11.00000  0.00010   6.19
C00Y  2  0.26074  0.38317  0.58842 11.00000  0.00010   6.19
C00Z  2  1.14798  0.36283  0.43461 11.00000  0.00639   6.05
C010  2  1.44573  0.25952  0.40751 11.00000  0.00010   5.99
C011  2  0.47944  0.35297  0.60726 11.00000  0.00010   5.99
C012  2  0.02417  0.64717  0.63786 11.00000  0.00010   5.98
C013  2  1.48545  0.35223  0.38091 11.00000  0.01225   5.92
O014  4  0.63878  0.22305  0.66763 11.00000  0.01068   5.79
C015  2  1.67283  0.44441  0.30714 11.00000  0.02428   5.55
C016  2  1.45177  0.59266  0.37156 11.00000  0.01376   5.53
N017  3  0.25315  0.51192  0.58039 11.00000  0.08518   5.51
C018  2  0.16475  0.65038  0.63953 11.00000  0.00010   5.46
C019  2  1.63057  0.34916  0.35823 11.00000  0.01086   5.18
C01A  2  0.02269  0.62260  0.65087 11.00000  0.00201   5.17
C01B  2  0.79432  0.54889  0.46312 11.00000  0.00010   5.15
O01C  4 -0.82630  0.82949  0.55420 11.00000  0.01913   5.02
C01D  2  0.70207  0.18133  0.66606 11.00000  0.00453   5.01
C01E  2  1.55996  0.50962  0.33665 11.00000  0.02746   4.88
C01F  2  1.24589  0.55852  0.40192 11.00000  0.01452   4.88
C01G  2 -0.69948  0.76661  0.49854 11.00000  0.00345   4.82
C01H  2 -0.15593  0.75723  0.46328 11.00000  0.03949   4.70
C01I  2  1.45230  0.33217  0.40620 11.00000  0.02408   4.65
C01J  2  1.33796  0.55266  0.37806 11.00000  0.02394   4.61
N01K  3  0.12356  0.74511  0.64304 11.00000  0.03297   4.49
O01L  4 -0.22184  0.87310  0.60754 11.00000  0.09231   4.48
C01M  2  0.30296  0.67265  0.63926 11.00000  0.02103   4.48
C01N  2  0.83442  0.12690  0.67619 11.00000  0.01143   4.32
C01O  2  0.89199  0.43579  0.42966 11.00000  0.00010   4.29
N01P  3 -0.41553  0.83516  0.49786 11.00000  0.00010   4.27
C01Q  2  1.35224  0.41034  0.27643 11.00000  0.00480   4.27
C01R  2 -0.11155  0.85922  0.66452 11.00000  0.01737   4.19
C01S  2  1.78078  0.60379  0.29416 11.00000  0.03282   4.19
C01T  2  1.39783  0.28765  0.46696 11.00000  0.02116   4.18
N01U  3  0.53257  0.30442  0.82297 11.00000  0.01404   4.16
C01V  2 -0.12066  0.35991  0.62150 11.00000  0.01266   4.12
C01W  2  1.61785  0.47903  0.17703 11.00000  0.01247   4.11
C01X  2  1.56462  0.43801  0.32790 11.00000  0.02669   4.05
N01Y  3  1.65182  0.39974  0.42549 11.00000  0.00010   4.00
O01Z  4 -0.53951  0.80318  0.57673 11.00000  0.01892   4.00
O020  4  1.59437  0.56888  0.23660 11.00000  0.00782   4.00
C021  2  1.14032  0.46608  0.29574 11.00000  0.00221   3.90
C022  2  1.43321  0.23044  0.45424 11.00000  0.01571   3.84
C023  2 -0.15550  0.74652  0.64121 11.00000  0.00062   3.73
C024  2  1.01888  0.51276  0.45290 11.00000  0.01965   3.67
C025  2 -0.17523  0.63895  0.66536 11.00000  0.00684   3.60
C026  2  1.23994  0.40384  0.24743 11.00000  0.04231   3.60
C027  2 -0.09074  0.67929  0.54226 11.00000  0.00010   3.56
N028  3  0.41992  0.61151  0.65707 11.00000  0.01333   3.52
C029  2 -0.65967  0.82798  0.56590 11.00000  0.01288   3.51
C02A  2  1.72891  0.59296  0.34348 11.00000  0.02117   3.51
C02B  2 -0.03823  0.29690  0.54958 11.00000  0.06056   3.50
C02C  2  1.24967  0.30075  0.30664 11.00000  0.01540   3.48
C02D  2  1.82630  0.46073  0.30444 11.00000  0.00380   3.39
C02E  2 -0.32787  0.64000  0.67379 11.00000  0.00010   3.34
C02F  2  0.14735  0.57007  0.64677 11.00000  0.00616   3.31
C02G  2  1.53405  0.54691  0.23560 11.00000  0.00010   3.30
C02H  2  1.47618  0.53283  0.29117 11.00000  0.09910   3.28
C02I  2  0.14867  0.46200  0.62165 11.00000  0.02656   3.28
O02J  4  1.58107  0.23449  0.40338 11.00000  0.04796   3.28
C02K  2  1.24070  0.54374  0.25729 11.00000  0.04487   3.08
C02L  2  0.43333  0.41863  0.77049 11.00000  0.00010   3.02
O02M  4  0.63469  0.39824  0.73908 11.00000  0.01561   3.02
HKLF 4
END
