TITL shelx03-merge_expF_1_4_expS_0_8_shelx03-merge_a.res in P1
REM Old TITL 1 in I 1 #-1
REM SHELXT solution in P1: R1 0.904, Rweak 0.120, Alpha 0.000
REM <I/s>   0.000 for    0 systematic absences,  Orientation as input
REM Flack x = -4.907 ( 0.374 ) from   938 Parsons' quotients
REM Formula found by SHELXT:  C34 N11 O14

CELL  0.71073   9.3100  15.1100  30.5000   90.000   90.000   90.000
ZERR   52.000   0.0019   0.0030   0.0061    0.000    0.000    0.000
LATT -2
SFAC H C N O ZR CL
UNIT 20 20 20 20 20 0
L.S. 10
BOND
LIST 6
FMAP 2
PLAN 20
CL01  6  1.31255  0.52698  0.42393 11.00000  0.00378  16.42
CL02  6  1.16745  0.51734  0.42643 11.00000  0.05348  15.08
CL03  6  0.69873  0.52454  0.42406 11.00000  0.03372  15.01
CL04  6  1.44559  0.51459  0.42605 11.00000  0.05220  14.74
CL05  6  0.80418  0.51779  0.41406 11.00000  0.02971  13.70
CL06  6  1.58113  0.33266  0.37887 11.00000  0.07186  13.01
O007  4  0.72372  0.54696  0.30150 11.00000  0.02498  11.45
O008  4  0.77268  0.56369  0.33965 11.00000  0.05884  11.31
O009  4  1.14060  0.49903  0.29455 11.00000  0.00346  11.18
N00A  3 -0.23049  0.45372  0.70917 11.00000  0.06552  10.96
CL0B  6  1.24129  0.51903  0.30633 11.00000  0.04340  10.85
O00C  4 -0.39195  0.41555  0.72411 11.00000  0.02546  10.71
O00D  4 -0.15355  0.53349  0.75513 11.00000  0.01710  10.42
O00E  4  1.15098  0.52681  0.47202 11.00000  0.00010   9.93
O00F  4 -0.40694  0.48587  0.72037 11.00000  0.12812   9.70
O00G  4  0.19133  0.47816  0.62635 11.00000  0.01151   8.88
O00H  4  0.11173  0.50713  0.66879 11.00000  0.01631   8.12
N00I  3  0.90335  0.40680  0.47619 11.00000  0.11363   7.98
O00J  4  0.92426  0.40945  0.34364 11.00000  0.02265   7.32
N00K  3  0.92440  0.18786  0.48448 11.00000  0.00425   7.32
O00L  4  1.23772  0.20099  0.44984 11.00000  0.05816   7.24
N00M  3 -0.16024  0.48768  0.73119 11.00000  0.05281   6.72
N00N  3  0.51871  0.52483  0.22994 11.00000  0.06713   6.55
C00O  2  0.94113  0.51104  0.41676 11.00000  0.06460   6.17
C00P  2  1.25628  0.45024  0.31065 11.00000  0.02693   6.12
C00Q  2 -0.12906  0.50696  0.70689 11.00000  0.15603   6.09
C00R  2  1.13206  0.18355  0.44198 11.00000  0.01959   5.88
C00S  2  0.16209  0.32434  0.65025 11.00000  0.01381   5.81
C00T  2  0.97778  0.21884  0.50448 11.00000  0.04645   5.79
C00U  2  0.89005  0.57315  0.46350 11.00000  0.00639   5.79
C00V  2 -0.09599  0.33431  0.76407 11.00000  0.00737   5.72
C00W  2 -0.48126  0.55912  0.57345 11.00000  0.03885   5.57
C00X  2 -0.41625  0.62326  0.63233 11.00000  0.02408   5.44
C00Y  2  1.05296  0.00428  0.53530 11.00000  0.00010   5.42
C00Z  2 -0.03555  0.39586  0.77006 11.00000  0.10068   5.39
C010  2 -0.58113  0.63620  0.56192 11.00000  0.02607   5.16
N011  3 -0.16719  0.33769  0.66031 11.00000  0.16485   5.09
C012  2  0.59705  0.64153  0.30010 11.00000  0.08868   4.95
C013  2 -0.47490  0.75534  0.60766 11.00000  0.11131   4.92
C014  2  1.01257  0.29806  0.39829 11.00000  0.11717   4.68
C015  2  0.57220  0.70136  0.48186 11.00000  0.03273   4.68
N016  3  0.89333  0.72447  0.49426 11.00000  0.04483   4.35
C017  2  0.82089  0.03341  0.52053 11.00000  0.01034   4.25
C018  2  0.71379  0.30528  0.48327 11.00000  0.03868   4.23
C019  2 -0.46121  0.53391  0.67519 11.00000  0.00456   4.20
O01A  4  1.07560  0.33824  0.46574 11.00000  0.01815   4.08
C01B  2  0.93132  0.35899  0.48148 11.00000  0.00196   3.96
N01C  3 -0.25794  0.78334  0.67669 11.00000  0.10844   3.96
C01D  2  0.76470  0.66677  0.51337 11.00000  0.08578   3.89
C01E  2  1.25394  0.16801  0.34184 11.00000  0.00010   3.86
C01F  2  0.42648  0.39264  0.62823 11.00000  0.05931   3.75
N01G  3  0.49539  0.79698  0.49812 11.00000  0.07923   3.61
C01H  2  1.23328  0.32570  0.39788 11.00000  0.00010   3.53
O01I  4 -0.57811  0.60096  0.73029 11.00000  0.03527   3.46
C01J  2 -0.08996  0.59878  0.63732 11.00000  0.01164   3.41
C01K  2  0.47989  0.34770  0.56142 11.00000  0.00688   3.35
C01L  2  1.41884  0.25368  0.36233 11.00000  0.04820   3.31
C01M  2  0.57746  0.31176  0.55225 11.00000  0.06111   3.30
C01N  2  0.04543  0.66033  0.66913 11.00000  0.05654   3.27
N01O  3  0.92711  0.68274  0.34345 11.00000  0.01664   3.18
C01P  2  0.21210  0.20526  0.60511 11.00000  0.02000   3.13
O01Q  4  0.68638  0.32794  0.53585 11.00000  0.06747   3.13
C01R  2  0.54702  0.67757  0.27427 11.00000  0.00802   3.12
N01S  3 -0.49486  0.99572  0.60548 11.00000  0.05836   3.11
C01T  2  1.04777  0.06809  0.51063 11.00000  0.00811   3.09
C01U  2  0.06151  0.62945  0.68174 11.00000  0.03728   3.02
HKLF 4
END
