TITL shelx03-merge_expF_1_5_expS_0_6_shelx03-merge_a.res in P1
REM Old TITL 1 in I 1 #-1
REM SHELXT solution in P1: R1 0.903, Rweak 0.346, Alpha 0.000
REM <I/s>   0.000 for    0 systematic absences,  Orientation as input
REM Flack x = -9.990 ( 1.779 ) from  1116 Parsons' quotients
REM Formula found by SHELXT:  C40 N10 O21

CELL  0.71073   9.3100  15.1100  30.5000   90.000   90.000   90.000
ZERR   52.000   0.0019   0.0030   0.0061    0.000    0.000    0.000
LATT -2
SFAC H C N O ZR CL
UNIT 20 20 20 20 20 0
L.S. 10
BOND
LIST 6
FMAP 2
PLAN 20
CL01  6  0.37912  0.67575  0.30550 11.00000  0.07194  19.52
CL02  6  0.26205  0.68570  0.30723 11.00000  0.06668  18.80
O003  4  0.39440  0.18726  0.68629 11.00000  0.03830  18.28
CL04  6 -0.36070  0.61160  0.60631 11.00000  0.06712  17.64
CL05  6  0.51577  0.68239  0.30219 11.00000  0.09625  17.46
CL06  6  0.13231  0.68316  0.30307 11.00000  0.08864  16.69
CL07  6 -0.01769  0.70482  0.30570 11.00000  0.05195  16.26
CL08  6 -0.35477  0.55082  0.59687 11.00000  0.11065  15.17
CL09  6 -0.12204  0.69345  0.31039 11.00000  0.06767  15.08
CL0A  6  0.56254  0.18493  0.67542 11.00000  0.07247  14.30
O00B  4  0.67748  0.52912  0.25532 11.00000  0.07132  12.88
O00C  4  0.34202  0.48933  0.52511 11.00000  0.11854  12.31
O00D  4  0.44727  0.69398  0.59566 11.00000  0.15080  11.89
O00E  4 -0.25279  0.68868  0.30363 11.00000  0.01820  11.85
N00F  3 -0.25214  0.58124  0.60503 11.00000  0.00450  11.62
O00G  4 -0.01263  0.70759  0.50941 11.00000  0.02888  11.10
O00H  4  0.13953  0.67421  0.58868 11.00000  0.03339  10.70
O00I  4 -0.44733  0.68351  0.45877 11.00000  0.06473  10.38
O00J  4 -0.28651  0.69399  0.45529 11.00000  0.03712   9.56
C00K  2  0.56882  0.54378  0.26764 11.00000  0.05331   9.50
O00L  4  0.18114  0.54648  0.57085 11.00000  0.01141   9.44
O00M  4  0.06557  0.92736  0.57521 11.00000  0.04532   9.44
O00N  4  0.03297  0.59535  0.56748 11.00000  0.07937   9.24
O00O  4  0.38955  0.51304  0.52856 11.00000  0.13107   9.14
O00P  4  0.41943  0.51950  0.32574 11.00000  0.05172   8.71
C00Q  2 -0.05287  0.97990  0.55713 11.00000  0.04629   8.49
O00R  4  1.06957  0.20292  0.69016 11.00000  0.06167   8.48
N00S  3  0.37135  0.48304  0.32996 11.00000  0.06072   8.19
C00T  2  0.09756  0.46594  0.51990 11.00000  0.05385   8.04
O00U  4  0.06539  0.63449  0.35572 11.00000  0.05931   7.89
N00V  3  0.16513  0.48566  0.50423 11.00000  0.04418   7.71
O00W  4  0.86305  0.19457  0.68553 11.00000  0.11060   7.71
N00X  3 -0.05769  0.41917  0.50517 11.00000  0.07068   7.54
O00Y  4  0.07508  0.36876  0.74468 11.00000  0.05617   7.26
C00Z  2  0.33204  0.74033  0.53196 11.00000  0.03803   7.25
N010  3  0.24326  0.78241  0.51487 11.00000  0.02580   7.05
N011  3 -0.26353  0.69674  0.54342 11.00000  0.07279   6.71
N012  3  0.13576  0.51898  0.36301 11.00000  0.08335   6.54
C013  2 -0.29137  0.60028  0.41999 11.00000  0.03191   6.49
C014  2  0.21461  0.34760  0.74334 11.00000  0.04744   6.48
C015  2 -0.05084  0.47831  0.52955 11.00000  0.05134   6.27
C016  2  0.17858  0.46298  0.35326 11.00000  0.01798   6.27
N017  3  0.43458  0.45125  0.68150 11.00000  0.04072   6.22
C018  2 -0.36025  0.79483  0.43614 11.00000  0.04409   6.09
C019  2 -0.14465  0.37276  0.49456 11.00000  0.08081   6.06
C01A  2  0.49273  0.39867  0.34285 11.00000  0.01007   6.04
O01B  4  0.29321  0.54579  0.65347 11.00000  0.05903   5.98
C01C  2 -0.15206  0.58541  0.58874 11.00000  0.09657   5.91
C01D  2 -0.07741  0.71841  0.62223 11.00000  0.03286   5.85
C01E  2  0.30798  0.58751  0.59413 11.00000  0.01818   5.42
C01F  2  0.36836  0.69403  0.54853 11.00000  0.02337   5.17
O01G  4  0.56887  0.29788  0.57198 11.00000  0.10889   4.98
C01H  2 -0.25945  0.49119  0.45140 11.00000  0.01029   4.86
C01I  2  0.44273  0.49475  0.66589 11.00000  0.00010   4.61
C01J  2 -0.04529  0.81168  0.56573 11.00000  0.04446   4.60
N01K  3  1.44733  0.02010  0.46523 11.00000  0.07923   4.46
C01L  2  0.21643  0.80719  0.60709 11.00000  0.01938   4.37
N01M  3 -0.32474  0.47275  0.47575 11.00000  0.04439   4.37
C01N  2  1.30479  0.20879  0.47516 11.00000  0.06662   4.32
O01O  4 -0.00437  0.52880  0.61981 11.00000  0.09739   4.30
C01P  2  0.57068  0.40131  0.29972 11.00000  0.12430   4.29
C01Q  2  1.40867  0.20115  0.48746 11.00000  0.08044   4.16
C01R  2  0.91952  0.23696  0.38197 11.00000  0.03885   4.07
C01S  2  0.75420  0.23449  0.58994 11.00000  0.03010   4.05
C01T  2  0.09566  0.64287  0.64199 11.00000  0.01807   4.04
C01U  2  0.30684  0.35057  0.71031 11.00000  0.04687   3.99
C01V  2  0.33711  0.33944  0.32615 11.00000  0.04229   3.82
C01W  2 -0.32520  0.69671  0.37913 11.00000  0.02706   3.80
C01X  2  0.23690  0.44345  0.30145 11.00000  0.00822   3.69
C01Y  2  0.05808  0.69091  0.71175 11.00000  0.01998   3.69
C01Z  2 -0.19580  0.94017  0.35229 11.00000  0.02130   3.67
C020  2  1.07896  0.13098  0.43580 11.00000  0.07392   3.55
C021  2  0.69685  0.28646  0.35548 11.00000  0.01251   3.52
C022  2 -0.18955  0.50823  0.43089 11.00000  0.00391   3.45
C023  2  1.23394  0.15844  0.50101 11.00000  0.07617   3.27
C024  2  0.97073  0.25409  0.37228 11.00000  0.07414   3.12
C025  2  0.50071  0.23181  0.33745 11.00000  0.02837   3.08
C026  2  0.29998  0.73071  0.44127 11.00000  0.04327   3.07
C027  2 -0.00921  0.86930  0.37522 11.00000  0.03298   3.07
C028  2  1.21574  0.25727  0.46584 11.00000  0.06818   3.02
HKLF 4
END
