TITL shelx03-merge_expF_1_0_expS_0_8_shelx03-merge_a.res in P1
REM Old TITL 1 in I 1 #-1
REM SHELXT solution in P1: R1 0.756, Rweak 0.026, Alpha 0.000
REM <I/s>   0.000 for    0 systematic absences,  Orientation as input
REM Flack x = -0.653 ( 0.279 ) from  1252 Parsons' quotients
REM Formula found by SHELXT:  C61 N40 O52

CELL  0.71073   9.3100  15.1100  30.5000   90.000   90.000   90.000
ZERR   52.000   0.0019   0.0030   0.0061    0.000    0.000    0.000
LATT -2
SFAC H C N O ZR
UNIT 20 20 20 20 20
L.S. 10
BOND
LIST 6
FMAP 2
PLAN 20
ZR01  5 -0.23505  0.41267  0.66094 11.00000  0.06502  39.45
ZR02  5 -0.12520  0.38412  0.65269 11.00000  0.02381  38.92
ZR03  5 -0.19945  0.47378  0.67630 11.00000  0.04372  35.52
ZR04  5 -0.31297  0.47211  0.66523 11.00000  0.07537  33.60
ZR05  5  0.37645  0.39439  0.64989 11.00000  0.06982  28.94
ZR06  5  0.11187  0.40297  0.64977 11.00000  0.06583  26.27
ZR07  5  0.25669  0.38208  0.65312 11.00000  0.04044  25.50
ZR08  5  0.41096  0.38737  0.54333 11.00000  0.09020  25.31
N009  3 -0.34803  0.47243  0.68766 11.00000  0.00010  22.78
N00A  3 -0.39128  0.41259  0.66014 11.00000  0.00134  21.13
O00B  4  0.13046  0.54165  0.57103 11.00000  0.01217  19.25
O00C  4  0.38111  0.04418  0.69378 11.00000  0.01301  18.50
O00D  4  0.62482  0.46382  0.35741 11.00000  0.00527  17.69
N00E  3  1.17747  0.55827  0.29329 11.00000  0.02783  17.12
O00F  4  0.14045  0.40436  0.51870 11.00000  0.04448  16.03
O00G  4  0.44274  0.44783  0.52076 11.00000  0.11214  15.78
O00H  4  0.27446  0.45977  0.72370 11.00000  0.00010  15.72
O00I  4  0.20520  0.35557  0.62220 11.00000  0.04843  15.26
O00J  4 -0.23989  0.23717  0.66847 11.00000  0.00515  15.12
O00K  4  0.13255  0.56734  0.70225 11.00000  0.01069  15.03
O00L  4  0.04343  0.88869  0.62073 11.00000  0.02415  14.96
O00M  4  0.84203  0.39622  0.32373 11.00000  0.05505  14.88
O00N  4  0.16995  0.05318  0.70718 11.00000  0.01346  14.87
N00O  3  0.35419  0.50396  0.58049 11.00000  0.01167  14.81
O00P  4  1.29586  0.55182  0.36248 11.00000  0.02909  14.52
O00Q  4  0.65597  0.52296  0.59296 11.00000  0.00010  14.43
O00R  4  0.63682  0.40394  0.34657 11.00000  0.00954  14.08
O00S  4 -0.17054  0.78377  0.67065 11.00000  0.08909  14.03
N00T  3  0.61813  0.52899  0.49784 11.00000  0.00171  13.97
O00U  4  0.81734  0.38365  0.53238 11.00000  0.00010  13.81
O00V  4  0.83627  0.42351  0.53287 11.00000  0.04207  13.28
O00W  4  0.06166  0.48957  0.65127 11.00000  0.00010  13.23
N00X  3  0.79805  0.42065  0.37436 11.00000  0.05311  12.60
N00Y  3  0.72612  0.46428  0.47478 11.00000  0.08252  12.18
O00Z  4  0.67108  0.42411  0.42570 11.00000  0.05816  12.11
N010  3 -0.08030  0.60280  0.70744 11.00000  0.01942  11.97
O011  4  0.14033  0.78778  0.60272 11.00000  0.04097  11.84
O012  4  1.31870  0.56622  0.25837 11.00000  0.04618  11.72
O013  4  0.60201 -0.00768  0.73092 11.00000  0.00010  11.46
N014  3  1.18150  0.53681  0.33764 11.00000  0.06801  11.42
O015  4 -0.25606  0.36734  0.66132 11.00000  0.02027  11.34
N016  3  0.53783 -0.03422  0.73048 11.00000  0.05761  11.00
N017  3  1.12359  0.25395  0.40974 11.00000  0.04887  10.95
O018  4 -0.05664  0.15256  0.66085 11.00000  0.00010  10.68
O019  4  0.48032  0.60892  0.76678 11.00000  0.00010  10.55
N01A  3 -0.28857  0.83292  0.61383 11.00000  0.05035  10.50
N01B  3  1.28559  0.39594  0.31081 11.00000  0.02800  10.34
N01C  3  0.43140  0.38491  0.59364 11.00000  0.00010  10.27
N01D  3  0.51482  0.26134  0.53196 11.00000  0.01376  10.15
O01E  4  1.25792  0.58770  0.37623 11.00000  0.04681  10.12
C01F  2 -0.45992  0.18060  0.59069 11.00000  0.00010   9.93
O01G  4  0.06713  0.24991  0.65596 11.00000  0.02428   9.87
N01H  3  0.23657  0.13711  0.70301 11.00000  0.00910   9.83
N01I  3  0.50947 -0.06351  0.76516 11.00000  0.01506   9.80
N01J  3  1.27260  0.46609  0.31648 11.00000  0.03357   9.76
O01K  4  0.33396  0.63528  0.59414 11.00000  0.00532   9.59
O01L  4  0.46184  0.74916  0.27633 11.00000  0.00144   9.59
O01M  4  0.10135  0.33605  0.60254 11.00000  0.01077   9.49
O01N  4 -0.28976  0.17500  0.55776 11.00000  0.04151   9.45
O01O  4  0.93350  0.36244  0.41677 11.00000  0.12621   9.25
O01P  4  0.09275  0.81686  0.62970 11.00000  0.00255   9.18
N01Q  3  0.63128  0.59317  0.31537 11.00000  0.01549   9.09
N01R  3 -0.29566  0.09802  0.66781 11.00000  0.00010   8.96
N01S  3  0.63626 -0.17124  0.40146 11.00000  0.05177   8.77
O01T  4  1.15713  0.38981  0.36127 11.00000  0.01138   8.60
O01U  4  0.31637  0.46734  0.76881 11.00000  0.08373   8.49
O01V  4 -0.39059  0.12890  0.68335 11.00000  0.04569   8.41
O01W  4  0.59542  1.06463  0.30995 11.00000  0.04138   8.37
O01X  4  1.11548  0.09194  0.39119 11.00000  0.06523   8.35
O01Y  4  0.65623  1.10427  0.36514 11.00000  0.00010   8.34
O01Z  4  0.16790  0.35246  0.68302 11.00000  0.00309   8.26
O020  4  0.49746  0.62441  0.44656 11.00000  0.04314   8.18
N021  3 -0.34245  0.13778  0.60984 11.00000  0.04061   8.15
N022  3  1.12196  0.05587  0.48415 11.00000  0.08136   8.02
N023  3  0.74311  0.34796  0.47897 11.00000  0.04654   7.99
O024  4  0.83042  0.36820  0.58938 11.00000  0.02971   7.96
O025  4  0.50641  0.90924  0.23085 11.00000  0.02971   7.95
N026  3  0.12243  0.66874  0.57665 11.00000  0.02083   7.93
O027  4  0.14557  0.15945  0.69283 11.00000  0.00704   7.84
O028  4  0.15656  0.24107  0.65432 11.00000  0.01924   7.80
N029  3  0.85951  0.28560  0.59296 11.00000  0.03167   7.48
N02A  3  1.27476  0.07075  0.51524 11.00000  0.01248   7.44
N02B  3  0.47856  0.53688  0.31317 11.00000  0.00105   7.33
O02C  4  0.34987  0.63642  0.52510 11.00000  0.01672   7.27
N02D  3  0.68058  0.02935  0.47364 11.00000  0.00719   7.23
N02E  3  0.49697 -0.06288  0.45755 11.00000  0.02783   7.22
N02F  3  0.83001  0.29908  0.28032 11.00000  0.04816   7.21
N02G  3  0.36155  0.86891  0.53624 11.00000  0.00223   6.90
C02H  2  1.29575  0.36853  0.30142 11.00000  0.08897   6.77
C02I  2  0.29948  0.67745  0.73863 11.00000  0.07607   6.71
N02J  3  0.42070  0.77999  0.51908 11.00000  0.05826   6.66
N02K  3  0.54722  0.47234  0.52317 11.00000  0.00010   6.66
N02L  3  0.06790  0.53400  0.59144 11.00000  0.00832   6.65
N02M  3  0.79069  0.34974  0.31834 11.00000  0.06774   6.60
C02N  2 -0.31621  0.93341  0.58842 11.00000  0.01904   6.49
C02O  2  0.93236  0.21384  0.59968 11.00000  0.01655   6.40
C02P  2 -0.32617  0.20737  0.61561 11.00000  0.02887   6.32
C02Q  2  0.21049 -0.03074  0.63626 11.00000  0.02815   6.29
C02R  2  0.92981  0.39128  0.43899 11.00000  0.00010   6.15
C02S  2  0.54383  0.96555  0.28703 11.00000  0.00907   6.11
C02T  2  0.42253  0.30256  0.72792 11.00000  0.00010   6.07
C02U  2  0.45418  0.74033  0.30173 11.00000  0.02960   6.04
C02V  2  0.41008 -0.03568  0.42926 11.00000  0.07498   5.83
C02W  2  1.00997  0.18220  0.44986 11.00000  0.03475   5.76
C02X  2  1.35751  0.30928  0.40998 11.00000  0.07449   5.74
C02Y  2  1.12644  0.41792  0.42263 11.00000  0.00021   5.73
C02Z  2  1.11286  0.15002  0.43258 11.00000  0.11581   5.66
C030  2  0.97620  0.00373  0.33891 11.00000  0.02503   5.64
C031  2 -0.14225  0.58921  0.61532 11.00000  0.04521   5.57
C032  2  0.96397  0.31079  0.43178 11.00000  0.01767   5.45
C033  2  0.41996 -0.10259  0.45510 11.00000  0.02845   5.45
O034  4  0.35904  0.54996  0.73532 11.00000  0.00010   5.44
C035  2  0.76424  0.62081  0.53230 11.00000  0.02115   5.33
C036  2  0.56394  0.56305  0.31815 11.00000  0.03519   5.33
C037  2  0.54073  0.62418  0.29506 11.00000  0.00472   5.31
C038  2  0.60421 -0.11605  0.48669 11.00000  0.05825   5.23
O039  4  1.09993  0.10128  0.56627 11.00000  0.00839   5.22
C03A  2  0.68451 -0.05804  0.40425 11.00000  0.00010   5.00
C03B  2  0.06283  0.75243  0.56443 11.00000  0.01094   4.99
C03C  2  0.75059  0.67850  0.34753 11.00000  0.03879   4.96
C03D  2  0.80652  0.59678  0.28946 11.00000  0.04522   4.94
C03E  2  1.45992  0.23177  0.43332 11.00000  0.02378   4.90
C03F  2  1.19379  0.24129  0.35425 11.00000  0.00010   4.84
C03G  2  1.24069  0.37283  0.37716 11.00000  0.06164   4.78
N03H  3 -0.19590  0.39169  0.68233 11.00000  0.03290   4.78
C03I  2  0.65315  1.17124  0.34198 11.00000  0.06368   4.75
C03J  2  0.18838  0.71522  0.66771 11.00000  0.00010   4.73
N03K  3  0.78622  0.12614  0.43264 11.00000  0.00104   4.64
C03L  2  0.83702  0.06159  0.42208 11.00000  0.05248   4.55
C03M  2 -0.24257  0.54983  0.65712 11.00000  0.02002   4.54
C03N  2  1.08296  0.68057  0.28834 11.00000  0.00668   4.54
C03O  2  0.92900  0.79162  0.43534 11.00000  0.00211   4.51
C03P  2  1.20063  0.81007  0.30740 11.00000  0.05346   4.48
C03Q  2  1.20818  0.15408  0.45409 11.00000  0.00988   4.41
C03R  2  0.66115  0.58562  0.30937 11.00000  0.03426   4.40
C03S  2  0.44699  0.86870  0.23915 11.00000  0.00408   4.33
C03T  2 -0.25659  0.64484  0.66977 11.00000  0.00278   4.32
C03U  2  0.44725  0.48868  0.57311 11.00000  0.00010   4.22
C03V  2  1.10556  0.06395  0.46235 11.00000  0.09525   4.21
O03W  4  1.09533  0.53675  0.45798 11.00000  0.00987   4.21
C03X  2  0.45102  0.40706  0.76915 11.00000  0.06783   4.15
C03Y  2  1.28363  0.20119  0.54078 11.00000  0.06963   4.15
C03Z  2  0.02933  0.01624  0.66372 11.00000  0.01951   4.12
C040  2 -0.12159  0.87369  0.62275 11.00000  0.02103   4.12
C041  2  0.59188 -0.14087  0.75888 11.00000  0.08300   3.98
O042  4  1.29978  0.04872  0.29963 11.00000  0.11997   3.97
C043  2 -0.27147  0.61939  0.70172 11.00000  0.00194   3.95
C044  2  1.21679  0.06528  0.31041 11.00000  0.00010   3.95
C045  2  0.57241  0.50819  0.59295 11.00000  0.00010   3.94
C046  2  0.34671  0.76115  0.51217 11.00000  0.00010   3.88
C047  2  0.53631 -0.05029  0.47175 11.00000  0.08274   3.84
C048  2  1.01553 -0.08506  0.35345 11.00000  0.04617   3.78
C049  2 -0.28714  0.67342  0.60131 11.00000  0.10077   3.76
C04A  2  0.57562  0.62926  0.32454 11.00000  0.01138   3.72
N04B  3  0.08243  0.63550  0.53198 11.00000  0.04266   3.67
C04C  2 -0.17359  0.95219  0.67593 11.00000  0.04338   3.54
N04D  3  1.10257  0.18674  0.38828 11.00000  0.00010   3.33
C04E  2  0.96988  0.60246  0.43303 11.00000  0.00219   3.21
C04F  2  0.34713  0.16727  0.65583 11.00000  0.00337   3.12
O04G  4  0.92918  0.47166  0.40219 11.00000  0.05512   3.12
C04H  2 -0.04538  0.50938  0.58183 11.00000  0.05942   3.04
HKLF 4
END
