TITL shelx03-merge_expF_1_5_expS_1_3_shelx03-merge_a.res in P1
REM Old TITL 1 in I 1 #-1
REM SHELXT solution in P1: R1 0.933, Rweak 0.345, Alpha 0.000
REM <I/s>   0.000 for    0 systematic absences,  Orientation as input
REM Flack x = -9.990 ( 9.990 ) from   356 Parsons' quotients
REM Formula found by SHELXT:  C17 N11 O5

CELL  0.71073   9.3100  15.1100  30.5000   90.000   90.000   90.000
ZERR   52.000   0.0019   0.0030   0.0061    0.000    0.000    0.000
LATT -2
SFAC H C N O ZR
UNIT 20 20 20 20 20
L.S. 10
BOND
LIST 6
FMAP 2
PLAN 20
N001  3  0.73347  0.75154  0.62010 11.00000  0.02109   9.50
C002  2  0.60547  0.75693  0.62234 11.00000  0.01561   8.36
N003  3  0.14567  0.72831  0.62203 11.00000  0.03378   8.35
N004  3 -0.06377  0.73586  0.61505 11.00000  0.01968   7.45
C005  2  0.01417  0.76931  0.61507 11.00000  0.00160   7.37
C006  2  0.65348  0.16749  0.43992 11.00000  0.00054   7.06
N007  3  0.92051  0.26348  0.38174 11.00000  0.00010   7.02
N008  3  0.48944  0.74485  0.61942 11.00000  0.01452   6.95
N009  3  0.66187  0.22112  0.45617 11.00000  0.04629   6.53
C00A  2  1.06377  0.27059  0.33983 11.00000  0.00034   6.45
N00B  3  0.73443  0.11435  0.45613 11.00000  0.09925   6.17
C00C  2  0.90374  0.22837  0.38807 11.00000  0.00080   6.12
C00D  2  0.32173  0.75199  0.62160 11.00000  0.00010   5.97
N00E  3  0.11971  0.77217  0.72846 11.00000  0.06571   5.89
C00F  2  0.89124  0.48127  0.39742 11.00000  0.01086   5.76
C00G  2  0.49030  0.18756  0.42822 11.00000  0.01208   4.82
C00H  2  0.36934  0.19731  0.43246 11.00000  0.00010   4.81
C00I  2  0.77164  0.24924  0.39809 11.00000  0.01600   4.47
O00J  4  0.35594  0.32100  0.48901 11.00000  0.08974   4.46
C00K  2 -0.04671  0.35396  0.53822 11.00000  0.01569   4.45
C00L  2  0.71782  0.51942  0.39315 11.00000  0.03497   4.29
O00M  4 -0.00575  0.25315  0.54787 11.00000  0.06583   4.06
C00N  2  0.71778  0.37787  0.45365 11.00000  0.04626   3.96
O00O  4  0.24214  0.23016  0.44753 11.00000  0.04857   3.95
N00P  3  0.33441  0.88565  0.67437 11.00000  0.02315   3.90
C00Q  2  0.15201  0.24922  0.55362 11.00000  0.00889   3.87
O00R  4  0.32092  0.42094  0.43217 11.00000  0.04557   3.86
O00S  4  0.14117  0.65169  0.27154 11.00000  0.06658   3.71
C00T  2  0.16442  0.69445  0.29256 11.00000  0.02450   3.58
C00U  2  0.24264  0.45140  0.43000 11.00000  0.00084   3.54
C00V  2  0.20541  0.36985  0.47493 11.00000  0.00010   3.51
N00W  3  0.20866  0.70896  0.47443 11.00000  0.05633   3.22
N00X  3  0.27830  0.43769  0.33076 11.00000  0.04445   3.02
HKLF 4
END
