TITL shelx03-merge_expF_1_2_expS_0_6_shelx03-merge_a.res in P1
REM Old TITL 1 in I 1 #-1
REM SHELXT solution in P1: R1 0.866, Rweak 0.050, Alpha 0.000
REM <I/s>   0.000 for    0 systematic absences,  Orientation as input
REM Flack x = -4.762 ( 0.817 ) from  1181 Parsons' quotients
REM Formula found by SHELXT:  C44 N14 O19

CELL  0.71073   9.3100  15.1100  30.5000   90.000   90.000   90.000
ZERR   52.000   0.0019   0.0030   0.0061    0.000    0.000    0.000
LATT -2
SFAC H C N O ZR CL
UNIT 20 20 20 20 20 0
L.S. 10
BOND
LIST 6
FMAP 2
PLAN 20
CL01  6  0.97672  0.40634  0.60202 11.00000  0.09440  18.05
CL02  6  1.09251  0.43644  0.60249 11.00000  0.05099  16.54
CL03  6  0.75971  0.44619  0.59947 11.00000  0.08207  16.31
CL04  6  1.23327  0.41656  0.59441 11.00000  0.09678  14.39
O005  4  1.30943  0.45917  0.47977 11.00000  0.05532  13.94
CL06  6  1.35278  0.42719  0.60244 11.00000  0.05966  13.56
N007  3  0.88233  0.46271  0.60599 11.00000  0.06056  12.10
C008  2  0.28386  0.62593  0.48139 11.00000  0.03483  11.74
C009  2  1.29898  0.44940  0.43709 11.00000  0.07091  11.43
O00A  4  0.61389  0.38948  0.58914 11.00000  0.05226  11.39
O00B  4  1.06277  0.56697  0.56175 11.00000  0.00870  10.50
C00C  2  0.36630  0.60367  0.46635 11.00000  0.01064  10.20
O00D  4  1.24339  0.44200  0.32901 11.00000  0.02046   9.56
O00E  4  1.36669  0.37873  0.34311 11.00000  0.03437   9.21
O00F  4  0.07175  0.84229  0.39459 11.00000  0.01271   9.17
N00G  3 -0.18954  1.06332  0.65293 11.00000  0.00652   8.62
O00H  4  1.15083  0.43679  0.33003 11.00000  0.02565   8.51
O00I  4  1.03525  0.27107  0.55472 11.00000  0.00010   8.09
O00J  4  0.62955  0.46020  0.45673 11.00000  0.02858   8.00
N00K  3  0.51931  0.50338  0.41646 11.00000  0.07472   7.63
N00L  3  1.01199  0.48672  0.59664 11.00000  0.00010   7.56
C00M  2  1.04549  0.47344  0.31351 11.00000  0.02178   7.51
O00N  4  0.51744  0.54530  0.68013 11.00000  0.03188   7.45
N00O  3  0.47640  0.57312  0.34339 11.00000  0.10546   7.45
C00P  2  0.35658  0.97249  0.51002 11.00000  0.11522   7.08
N00Q  3 -0.28658  1.07901  0.67745 11.00000  0.10834   6.98
O00R  4  1.45712  0.16140  0.29650 11.00000  0.00710   6.88
O00S  4  0.54310  0.77815  0.40127 11.00000  0.00214   6.76
N00T  3  0.58274  0.44964  0.40951 11.00000  0.15590   6.62
N00U  3  0.68093  0.40400  0.44133 11.00000  0.14341   6.58
C00V  2  0.98929  0.16062  0.37090 11.00000  0.15307   6.43
O00W  4  0.97068  0.66606  0.31081 11.00000  0.03785   6.30
C00X  2 -0.45712  1.07322  0.64986 11.00000  0.00010   6.27
C00Y  2  0.99210  0.28521  0.47346 11.00000  0.08924   6.21
C00Z  2  1.04530  0.51731  0.58311 11.00000  0.04838   6.16
O010  4  0.34904  0.60029  0.34761 11.00000  0.01075   6.07
C011  2  0.34162  0.55894  0.68634 11.00000  0.09825   6.01
C012  2  1.34695  0.33578  0.35047 11.00000  0.00061   5.98
C013  2  1.02689  0.35878  0.38339 11.00000  0.08806   5.94
N014  3  0.78834  0.61514  0.40645 11.00000  0.10079   5.78
C015  2  0.97305  0.51506  0.37402 11.00000  0.00614   5.77
C016  2 -0.20599  1.09233  0.56080 11.00000  0.18182   5.56
C017  2  0.30743  0.64908  0.68282 11.00000  0.00872   5.53
C018  2  0.57919  0.50805  0.61202 11.00000  0.03595   5.41
C019  2  0.65967  0.61167  0.38297 11.00000  0.04967   5.39
C01A  2  0.84423  0.64837  0.32890 11.00000  0.01824   5.38
C01B  2  0.55038  0.52576  0.44580 11.00000  0.02411   5.37
O01C  4  0.31151  0.96767  0.51891 11.00000  0.01747   5.27
C01D  2  0.82816  0.64077  0.57768 11.00000  0.04498   5.04
N01E  3  0.53550  0.32081  0.55318 11.00000  0.10165   4.88
C01F  2  0.16476  0.59249  0.43128 11.00000  0.06180   4.87
N01G  3 -0.41115  1.12795  0.66393 11.00000  0.01011   4.79
N01H  3  0.05376  1.07643  0.68343 11.00000  0.04221   4.79
O01I  4  1.01608  0.44466  0.31718 11.00000  0.01140   4.67
N01J  3 -0.14270  0.99328  0.48301 11.00000  0.03368   4.63
C01K  2  0.95252  0.41766  0.23698 11.00000  0.01424   4.60
C01L  2  0.64277  0.60602  0.41972 11.00000  0.00032   4.55
C01M  2  0.53532  0.89656  0.45244 11.00000  0.13242   4.51
C01N  2  0.44592  1.00760  0.46629 11.00000  0.12623   4.49
C01O  2  0.01854  0.91874  0.74209 11.00000  0.02691   4.49
C01P  2  0.93674  0.55627  0.39177 11.00000  0.01589   4.44
C01Q  2 -0.17317  0.99710  0.62185 11.00000  0.07391   4.29
O01R  4  0.77571  0.01143  0.32591 11.00000  0.02219   4.18
C01S  2  0.62888  0.40985  0.38633 11.00000  0.05838   4.16
O01T  4  1.09061  0.04004  0.27136 11.00000  0.14092   4.09
C01U  2 -0.00397  0.95507  0.43085 11.00000  0.05164   4.08
C01V  2  0.14367  1.07788  0.62335 11.00000  0.02427   3.89
O01W  4  0.01806  0.78693  0.43685 11.00000  0.09662   3.85
C01X  2  0.62619  0.68592  0.45689 11.00000  0.00010   3.84
C01Y  2  1.06164  0.37840  0.41832 11.00000  0.03952   3.70
C01Z  2  0.68242  0.47458  0.36269 11.00000  0.03319   3.58
C020  2  1.12783  0.41020  0.40356 11.00000  0.08206   3.55
C021  2  1.16141  0.21518  0.27685 11.00000  0.05372   3.52
C022  2  0.32478  0.95405  0.41187 11.00000  0.12910   3.46
C023  2  0.81733 -0.12795  0.30997 11.00000  0.07008   3.42
C024  2  1.17453  0.25363  0.36669 11.00000  0.03275   3.35
C025  2  0.05230  0.97408  0.76302 11.00000  0.06991   3.33
C026  2  0.92238  0.25143  0.35589 11.00000  0.05305   3.27
C027  2  0.77792  0.33859  0.64278 11.00000  0.02255   3.21
N028  3  1.32007  0.36293  0.68334 11.00000  0.16352   3.14
C029  2  0.72560  0.41770  0.39032 11.00000  0.05323   3.13
C02A  2  0.34875  0.56670  0.35667 11.00000  0.03858   3.04
HKLF 4
END
