TITL shelx03-merge_expF_1_1_expS_1_1_shelx03-merge_a.res in P1
REM Old TITL 1 in I 1 #-1
REM SHELXT solution in P1: R1 0.773, Rweak 0.320, Alpha 0.000
REM <I/s>   0.000 for    0 systematic absences,  Orientation as input
REM Flack x = -1.225 ( 0.868 ) from   492 Parsons' quotients
REM Formula found by SHELXT:  C54 N24 O21

CELL  0.71073   9.3100  15.1100  30.5000   90.000   90.000   90.000
ZERR   52.000   0.0019   0.0030   0.0061    0.000    0.000    0.000
LATT -2
SFAC H C N O ZR CL
UNIT 20 20 20 20 20 0
L.S. 10
BOND
LIST 6
FMAP 2
PLAN 20
CL01  6 -0.49874  0.38957  0.65069 11.00000  0.05608  18.76
CL02  6 -0.89109  0.38290  0.65339 11.00000  0.03831  18.69
CL03  6 -0.10305  0.39782  0.65813 11.00000  0.04804  18.14
CL04  6  1.29040  0.43127  0.39071 11.00000  0.07362  17.18
CL05  6 -0.60241  0.37465  0.65477 11.00000  0.04712  14.84
CL06  6  1.17686  0.45454  0.39767 11.00000  0.05255  14.83
CL07  6  0.71392  0.47784  0.35592 11.00000  0.08260  14.69
O008  4  0.88073  0.39762  0.35531 11.00000  0.03623  12.30
O009  4  0.68169  0.53583  0.30237 11.00000  0.04194  11.99
N00A  3  1.04358  0.41640  0.38787 11.00000  0.00569  11.81
O00B  4  0.72395  0.45510  0.53782 11.00000  0.06320  11.37
O00C  4 -0.77325  0.42076  0.66539 11.00000  0.01372  10.93
N00D  3  0.01058  0.84282  0.49487 11.00000  0.03458  10.77
N00E  3 -0.19420  0.37955  0.65702 11.00000  0.00099  10.51
N00F  3  0.99668  0.37961  0.35661 11.00000  0.02313  10.46
O00G  4 -0.13665  0.68640  0.61693 11.00000  0.04749  10.30
N00H  3  1.62181  0.28970  0.31923 11.00000  0.02274   9.56
O00I  4 -0.33946  0.35094  0.63229 11.00000  0.06863   9.30
N00J  3  0.69580  0.47256  0.31061 11.00000  0.09862   9.08
O00K  4 -0.57677  0.39079  0.76921 11.00000  0.01060   9.07
O00L  4 -0.25727  0.46818  0.67310 11.00000  0.03944   8.92
N00M  3  0.35029  0.41106  0.58787 11.00000  0.07459   8.84
N00N  3  0.01078  0.71229  0.63783 11.00000  0.02673   8.81
N00O  3 -0.20012  0.37617  0.71418 11.00000  0.00357   8.80
O00P  4  0.25136  0.54314  0.60353 11.00000  0.00117   8.70
C00Q  2  0.05293  0.54734  0.62719 11.00000  0.02120   8.54
N00R  3 -0.03997  0.55032  0.66416 11.00000  0.00621   8.30
O00S  4  0.45578  0.38717  0.53325 11.00000  0.02736   8.19
O00T  4  0.59499  0.57285  0.30790 11.00000  0.04025   8.10
O00U  4  0.81280  0.38019  0.56708 11.00000  0.04231   8.09
N00V  3  0.90823  0.41881  0.52770 11.00000  0.01226   7.94
N00W  3  1.64306  0.27602  0.29997 11.00000  0.04082   7.93
O00X  4  1.55794  0.36781  0.42504 11.00000  0.01455   7.93
O00Y  4  1.02035  0.58906  0.45919 11.00000  0.00488   7.88
C00Z  2  1.14904  0.57930  0.43936 11.00000  0.03153   7.80
O010  4  1.49387  0.39597  0.36623 11.00000  0.04587   7.76
N011  3  1.89109  0.31678  0.30536 11.00000  0.00010   7.73
N012  3  0.07734  0.73968  0.63612 11.00000  0.00709   7.62
O013  4  0.17309  0.44240  0.58614 11.00000  0.00830   7.59
O014  4  0.67131  0.52194  0.47062 11.00000  0.06557   7.52
N015  3 -0.32550  0.78238  0.59479 11.00000  0.05708   7.15
N016  3 -0.00550  0.83417  0.60217 11.00000  0.00658   7.09
C017  2 -0.36180  0.81310  0.48454 11.00000  0.00670   6.90
C018  2 -0.49005  0.25890  0.64280 11.00000  0.02355   6.90
N019  3  1.52514  0.35706  0.35437 11.00000  0.02362   6.89
C01A  2  0.78002  0.53906  0.48376 11.00000  0.03624   6.76
N01B  3  1.02359  0.36546  0.55655 11.00000  0.00380   6.68
C01C  2  1.27468  0.41209  0.24671 11.00000  0.00010   6.62
N01D  3  1.10685  0.25525  0.52768 11.00000  0.00010   6.61
N01E  3  1.07485  0.31406  0.38796 11.00000  0.02540   6.59
C01F  2  0.58294  0.69260  0.35604 11.00000  0.00010   6.48
C01G  2  0.24642  0.70313  0.64586 11.00000  0.00755   6.15
C01H  2 -0.39072  0.60835  0.69807 11.00000  0.06647   6.14
C01I  2  1.24362  0.27995  0.45345 11.00000  0.00595   6.09
C01J  2  0.98121  0.63195  0.29815 11.00000  0.00500   5.84
C01K  2  0.82749  0.56107  0.24727 11.00000  0.00667   5.83
C01L  2 -0.21305  0.56312  0.70830 11.00000  0.00010   5.82
C01M  2  1.43444  0.38921  0.41315 11.00000  0.03170   5.72
O01N  4 -0.44201  0.21047  0.61990 11.00000  0.04331   5.70
C01O  2  1.07005  0.27155  0.33055 11.00000  0.01066   5.67
C01P  2 -0.16935  0.86456  0.48905 11.00000  0.00452   5.59
C01Q  2  0.81953  0.20329  0.57242 11.00000  0.00616   5.59
C01R  2  0.45031  0.37577  0.55973 11.00000  0.00381   5.58
C01S  2  0.23137  0.81688  0.57517 11.00000  0.02519   5.56
C01T  2  0.62454  0.33807  0.56777 11.00000  0.04379   5.50
C01U  2  0.92020  0.55363  0.31321 11.00000  0.00540   5.47
O01V  4 -0.72062  0.15483  0.60319 11.00000  0.00810   5.40
C01W  2  1.25513  0.52386  0.24645 11.00000  0.09013   5.30
C01X  2  1.31578  0.10289  0.42924 11.00000  0.02734   5.19
C01Y  2  0.11146  0.79311  0.58727 11.00000  0.00010   5.11
N01Z  3  0.15254  0.80596  0.50385 11.00000  0.02330   4.86
C020  2  1.56650  0.25670  0.31948 11.00000  0.00749   4.79
C021  2  1.24818  0.58318  0.42589 11.00000  0.02620   4.75
C022  2  1.81758  0.39537  0.24715 11.00000  0.04903   4.74
O023  4  0.45047  0.80620  0.61193 11.00000  0.13973   4.73
C024  2  1.07912  0.22009  0.53248 11.00000  0.00010   4.71
C025  2  0.12815  0.53675  0.58935 11.00000  0.05820   4.65
C026  2 -0.70449  0.08974  0.60038 11.00000  0.00010   4.61
C027  2 -0.56733  0.90466  0.46460 11.00000  0.01688   4.50
C028  2  1.24756  0.71094  0.41752 11.00000  0.03076   4.42
C029  2  1.75649  0.29929  0.31526 11.00000  0.00539   4.28
C02A  2  0.07299  0.90421  0.52198 11.00000  0.00346   4.23
C02B  2  0.35246  0.49056  0.61615 11.00000  0.00010   4.20
C02C  2  0.92398  0.25269  0.53019 11.00000  0.00010   4.09
C02D  2 -0.04062  0.52436  0.68426 11.00000  0.00010   4.08
C02E  2  1.06331  0.53235  0.29391 11.00000  0.05631   4.02
N02F  3 -0.49795  0.85545  0.48457 11.00000  0.07091   3.98
C02G  2  0.78677  0.15858  0.57672 11.00000  0.00010   3.95
C02H  2  1.45507  0.38879  0.24007 11.00000  0.00010   3.94
O02I  4  1.07273  0.42073  0.22882 11.00000  0.00177   3.87
C02J  2  0.69120  0.29985  0.52779 11.00000  0.03447   3.84
C02K  2  1.40861  0.22736  0.45242 11.00000  0.00010   3.68
C02L  2  0.25028  0.91489  0.53222 11.00000  0.03209   3.66
C02M  2  0.00299  0.08511  0.69276 11.00000  0.04401   3.61
C02N  2  0.92647  0.21087  0.54370 11.00000  0.03338   3.60
N02O  3  0.03982  0.40929  0.77118 11.00000  0.02230   3.53
C02P  2 -0.22953  0.72266  0.42477 11.00000  0.03730   3.45
C02Q  2  0.68798  0.29215  0.55160 11.00000  0.00010   3.42
C02R  2  1.24333  0.60741  0.38992 11.00000  0.00502   3.41
C02S  2 -0.16237  0.17903  0.68172 11.00000  0.01345   3.40
C02T  2 -0.22106  0.34203  0.72051 11.00000  0.00010   3.26
C02U  2  0.40417  0.74411  0.59453 11.00000  0.08452   3.19
C02V  2 -0.71643  0.58027  0.72963 11.00000  0.01615   3.15
C02W  2 -0.28183  0.83146  0.47600 11.00000  0.01293   3.04
C02X  2 -0.24217  0.80115  0.59314 11.00000  0.01957   3.01
N02Y  3 -0.52748  0.55425  0.75187 11.00000  0.07713   3.01
HKLF 4
END
