TITL shelx03-merge_expF_0_8_expS_1_5_shelx03-merge_a.res in P1
REM Old TITL 1 in I 1 #-1
REM SHELXT solution in P1: R1 0.782, Rweak 0.412, Alpha 0.000
REM <I/s>   0.000 for    0 systematic absences,  Orientation as input
REM Flack x = -9.990 ( 9.990 ) from   164 Parsons' quotients
REM Formula found by SHELXT:  C51 N13 O9

CELL  0.71073   9.3100  15.1100  30.5000   90.000   90.000   90.000
ZERR   52.000   0.0019   0.0030   0.0061    0.000    0.000    0.000
LATT -2
SFAC H C N O ZR
UNIT 20 20 20 20 20
L.S. 10
BOND
LIST 6
FMAP 2
PLAN 20
O001  4  1.11167  0.56963  0.56355 11.00000  0.00667  11.66
O002  4  1.22565  0.56981  0.56776 11.00000  0.01352  11.57
O003  4  0.98063  0.55353  0.56445 11.00000  0.00147  10.70
N004  3  0.59599  0.59770  0.52643 11.00000  0.00058  10.33
N005  3  1.34708  0.57184  0.56435 11.00000  0.00010   9.14
N006  3  0.68848  0.56866  0.53201 11.00000  0.00010   9.07
N007  3  0.07370  0.57834  0.44548 11.00000  0.01374   7.75
C008  2  0.88150  0.54482  0.56128 11.00000  0.00010   7.06
N009  3  0.21354  0.52977  0.44852 11.00000  0.00010   6.92
N00A  3  0.57021  0.56418  0.55266 11.00000  0.00067   6.82
C00B  2  0.02223  0.45371  0.44532 11.00000  0.00010   6.28
O00C  4 -0.29759  0.41599  0.32178 11.00000  0.00154   5.94
C00D  2  0.49149  0.66917  0.52509 11.00000  0.03246   5.91
C00E  2  1.16654  0.66535  0.61205 11.00000  0.02676   5.90
C00F  2  0.76208  0.46347  0.56116 11.00000  0.03987   5.83
C00G  2  0.73924  0.28353  0.51730 11.00000  0.03641   5.73
C00H  2  0.81404  0.22466  0.51717 11.00000  0.01047   5.66
C00I  2  1.14074  0.70155  0.63477 11.00000  0.00010   5.53
C00J  2  0.32993  0.49088  0.44744 11.00000  0.01612   5.50
O00K  4  1.37994  0.06892  0.66914 11.00000  0.02899   5.42
C00L  2 -0.29000  0.98303  0.47971 11.00000  0.00010   5.12
C00M  2  0.14008  0.44609  0.42761 11.00000  0.04868   5.11
C00N  2  0.47383  0.47104  0.52560 11.00000  0.00354   4.96
C00O  2 -0.12341  0.62865  0.44447 11.00000  0.01605   4.92
C00P  2  0.76893  0.31156  0.53699 11.00000  0.04636   4.89
C00Q  2  0.49420  0.54593  0.51212 11.00000  0.01607   4.84
C00R  2  0.70698  0.55106  0.56345 11.00000  0.00010   4.83
C00S  2  0.06873  0.67983  0.49464 11.00000  0.04157   4.81
C00T  2 -0.76649  1.11108  0.32441 11.00000  0.03322   4.75
C00U  2  0.03377  0.65176  0.40815 11.00000  0.03557   4.71
C00V  2 -0.28032  0.32592  0.33614 11.00000  0.00405   4.66
N00W  3  1.14942  0.10847  0.60414 11.00000  0.00397   4.58
C00X  2  0.65126  0.64709  0.59201 11.00000  0.02831   4.57
C00Y  2 -0.26983  0.08749  0.25299 11.00000  0.03819   4.55
C00Z  2  0.45559  0.26163  0.60983 11.00000  0.04602   4.51
N010  3  1.77506 -0.11108  0.69576 11.00000  0.00374   4.50
C011  2  0.61630  0.38792  0.53908 11.00000  0.00553   4.39
C012  2  0.60041  0.17734  0.59488 11.00000  0.00830   4.38
C013  2 -0.13195  0.49916  0.45500 11.00000  0.00010   4.30
C014  2  0.12583  0.74998  0.44791 11.00000  0.03808   4.27
N015  3 -0.77506  1.05598  0.20939 11.00000  0.01570   4.06
C016  2  0.00254  0.79288  0.44187 11.00000  0.00010   3.99
C017  2  0.05878  0.59530  0.39626 11.00000  0.01957   3.98
C018  2  0.46360  0.22195  0.58494 11.00000  0.03537   3.97
C019  2  1.39616  0.60816  0.58998 11.00000  0.00010   3.89
C01A  2 -0.33090  1.02854  0.41348 11.00000  0.01285   3.83
C01B  2 -0.41898  0.57178  0.41882 11.00000  0.03597   3.70
O01C  4 -0.01785  0.82692  0.40822 11.00000  0.04852   3.67
C01D  2  1.58974  0.26797  0.79061 11.00000  0.00554   3.67
C01E  2 -0.21920  0.15881  0.28294 11.00000  0.00010   3.64
C01F  2  0.59070  0.82434  0.54321 11.00000  0.01161   3.54
N01G  3  1.13556  0.88304  0.61074 11.00000  0.00945   3.54
C01H  2 -0.26000  0.58307  0.45058 11.00000  0.00070   3.53
N01I  3  1.19849  0.07483  0.74461 11.00000  0.06497   3.50
N01J  3  1.05136  0.37938  0.66862 11.00000  0.00085   3.49
O01K  4 -0.42078  0.11732  0.25613 11.00000  0.00858   3.46
C01L  2  1.01725  0.18982  0.50915 11.00000  0.06724   3.44
C01M  2  1.47156  0.31895  0.77877 11.00000  0.02456   3.38
C01N  2  0.59303  0.27024  0.59342 11.00000  0.00010   3.37
C01O  2  0.30755  0.65755  0.47417 11.00000  0.04123   3.35
C01P  2 -0.56377  0.99437  0.38781 11.00000  0.00010   3.31
C01Q  2 -0.47938  0.88921  0.40200 11.00000  0.00010   3.31
C01R  2  0.95502  0.22501  0.58226 11.00000  0.03967   3.29
C01S  2  0.17225  0.48788  0.44128 11.00000  0.00495   3.27
O01T  4 -0.20580  0.92867  0.35331 11.00000  0.05214   3.26
C01U  2 -0.73740  0.99052  0.36563 11.00000  0.00879   3.25
N01V  3  1.21184  0.27316  0.74465 11.00000  0.02093   3.23
C01W  2 -0.31001  0.96423  0.35643 11.00000  0.00010   3.23
O01X  4  0.81491  0.67670  0.59304 11.00000  0.00010   3.14
C01Y  2 -0.12384  0.22121  0.34971 11.00000  0.00272   3.13
C01Z  2  0.35807  0.41989  0.51510 11.00000  0.00010   3.08
C020  2  1.39972 -0.06372  0.70309 11.00000  0.09573   3.08
C021  2  0.10313  0.35509  0.36891 11.00000  0.00127   3.03
HKLF 4
END
