TITL shelx03-merge_expF_1_1_expS_0_9_shelx03-merge_a.res in P1
REM Old TITL 1 in I 1 #-1
REM SHELXT solution in P1: R1 0.755, Rweak 0.082, Alpha 0.000
REM <I/s>   0.000 for    0 systematic absences,  Orientation as input
REM Flack x = -2.580 ( 0.228 ) from   963 Parsons' quotients
REM Formula found by SHELXT:  C60 N45 O43

CELL  0.71073   9.3100  15.1100  30.5000   90.000   90.000   90.000
ZERR   52.000   0.0019   0.0030   0.0061    0.000    0.000    0.000
LATT -2
SFAC H C N O ZR
UNIT 20 20 20 20 20
L.S. 10
BOND
LIST 6
FMAP 2
PLAN 20
ZR01  5  0.28802  0.34329  0.56728 11.00000  0.05767  34.98
ZR02  5  0.55387  0.35345  0.56923 11.00000  0.04831  30.03
ZR03  5  0.66867  0.36060  0.56260 11.00000  0.06524  29.46
ZR04  5  0.34686  0.28758  0.56665 11.00000  0.09092  26.28
ZR05  5  0.44710  0.50323  0.62418 11.00000  0.07896  25.48
N006  3  0.13391  0.36585  0.67492 11.00000  0.00010  23.73
N007  3  0.30819  0.37123  0.60496 11.00000  0.02595  23.44
O008  4  0.21807  0.34387  0.68028 11.00000  0.00352  21.77
N009  3 -0.20606  0.35654  0.67538 11.00000  0.00010  20.80
O00A  4 -0.26392  0.32777  0.67349 11.00000  0.02404  20.54
O00B  4  0.17432  0.36933  0.56186 11.00000  0.00010  20.44
N00C  3 -0.02411  0.47279  0.64590 11.00000  0.00010  18.64
N00D  3 -0.07864  0.36692  0.69363 11.00000  0.02869  18.11
O00E  4 -0.17647  0.26080  0.65781 11.00000  0.02806  17.46
N00F  3 -0.11460  0.49736  0.63011 11.00000  0.01673  17.33
O00G  4  0.79142  0.37256  0.55424 11.00000  0.05046  17.31
O00H  4  0.36966  0.81756  0.64917 11.00000  0.06170  16.75
N00I  3  0.45003  0.25929  0.55231 11.00000  0.00010  16.62
N00J  3  0.28701  0.51123  0.61688 11.00000  0.02102  15.61
O00K  4  1.37397  0.17755  0.43817 11.00000  0.01098  15.20
O00L  4  0.11492  0.23762  0.65073 11.00000  0.06302  15.01
O00M  4  0.56361  0.48471  0.62038 11.00000  0.04507  14.91
O00N  4  0.69623  0.79599  0.72737 11.00000  0.04139  14.86
O00O  4 -0.04962  0.42802  0.59530 11.00000  0.01844  14.74
N00P  3  0.70242  0.54364  0.63918 11.00000  0.02385  14.63
O00Q  4  0.83415  0.27887  0.53994 11.00000  0.04470  14.52
N00R  3  0.87709  0.37242  0.30657 11.00000  0.04365  14.06
N00S  3  0.15416  0.41301  0.63621 11.00000  0.03196  13.63
O00T  4  1.08243  0.71170  0.48738 11.00000  0.04753  13.43
O00U  4  0.42253  0.19469  0.61065 11.00000  0.02186  13.32
N00V  3  0.25016  0.74333  0.50590 11.00000  0.00204  13.31
O00W  4  0.68234  0.86795  0.71686 11.00000  0.03833  13.28
N00X  3 -0.06574  0.27126  0.66815 11.00000  0.00010  12.84
O00Y  4  0.94698  0.78554  0.48071 11.00000  0.02186  12.74
N00Z  3  0.40928  0.68248  0.66129 11.00000  0.05251  12.44
O010  4  0.51799  0.86896  0.45029 11.00000  0.00729  12.40
O011  4  0.92331  0.33017  0.53306 11.00000  0.01927  12.24
O012  4 -0.57830  0.41381  0.69588 11.00000  0.05122  12.16
N013  3  0.00333  0.92147  0.33193 11.00000  0.04769  12.00
O014  4  0.23752  0.80470  0.61784 11.00000  0.08034  11.75
O015  4 -0.49910  0.35569  0.76525 11.00000  0.01492  11.58
O016  4  0.60222  0.82592  0.38230 11.00000  0.04134  11.53
C017  2  1.44208  0.51008  0.28536 11.00000  0.02589  11.49
O018  4  0.27306  0.81274  0.48228 11.00000  0.11727  11.37
N019  3 -0.09946  0.62157  0.62962 11.00000  0.00010  11.19
O01A  4  1.26767  0.21917  0.43703 11.00000  0.05147  11.17
O01B  4  0.97747  0.16579  0.49650 11.00000  0.06247  11.13
O01C  4 -0.17040  0.37925  0.70916 11.00000  0.06274  11.10
N01D  3  0.42179  0.74102  0.48835 11.00000  0.03377  10.63
O01E  4 -0.17257  0.12874  0.67373 11.00000  0.04367  10.42
O01F  4  0.16516  0.10981  0.62848 11.00000  0.00010  10.24
N01G  3  0.34629  0.44999  0.60857 11.00000  0.01613  10.01
N01H  3  0.09742  0.41970  0.67526 11.00000  0.11434  10.00
N01I  3  1.14108  0.59220  0.23183 11.00000  0.02257   9.98
N01J  3  0.75479  0.36804  0.32359 11.00000  0.06254   9.89
C01K  2  0.90006  0.51978  0.41843 11.00000  0.02449   9.76
N01L  3  0.23970  0.90358  0.37954 11.00000  0.00010   9.46
N01M  3 -0.34198  0.50679  0.70708 11.00000  0.03876   9.37
N01N  3  0.02798  0.51571  0.58352 11.00000  0.01589   9.16
N01O  3  0.27137  0.20268  0.64909 11.00000  0.00492   9.12
O01P  4  0.49759  0.54911  0.47380 11.00000  0.03708   9.10
O01Q  4  0.88555  0.59310  0.31150 11.00000  0.00356   9.05
N01R  3  0.88060  0.35878  0.31390 11.00000  0.00010   8.95
O01S  4  0.29671  0.67376  0.49514 11.00000  0.00364   8.85
N01T  3  0.89670  0.24274  0.30690 11.00000  0.01480   8.84
N01U  3  0.62069  0.74212  0.36259 11.00000  0.00010   8.82
O01V  4  0.70112  0.14669  0.56384 11.00000  0.04417   8.59
O01W  4  0.86112  0.82960  0.50275 11.00000  0.04104   8.55
C01X  2  0.28743  0.17128  0.66463 11.00000  0.00560   8.52
C01Y  2  0.88248  0.84617  0.70350 11.00000  0.02497   8.49
O01Z  4  1.51609  0.53013  0.29542 11.00000  0.03258   8.25
O020  4  0.72704  0.59810  0.41090 11.00000  0.07040   8.15
O021  4  0.12262  0.85849  0.34830 11.00000  0.05945   8.12
O022  4  1.43307  0.20116  0.42715 11.00000  0.03909   8.07
O023  4  1.30696  0.60812  0.26081 11.00000  0.05515   8.00
N024  3  0.71339  0.68480  0.54785 11.00000  0.03256   7.96
N025  3  0.66265  0.43704  0.32407 11.00000  0.01034   7.93
N026  3 -0.29983  0.43031  0.67626 11.00000  0.03236   7.90
N027  3  0.57358  0.65542  0.65881 11.00000  0.01975   7.90
N028  3  0.58622  0.80414  0.36009 11.00000  0.00446   7.84
O029  4  0.53538  0.85859  0.66921 11.00000  0.05305   7.79
O02A  4  0.06352  0.81694  0.33194 11.00000  0.00644   7.67
O02B  4  1.05394  0.36191  0.47790 11.00000  0.00607   7.60
N02C  3  0.93740  0.76719  0.73264 11.00000  0.00010   7.44
N02D  3  1.05455  0.53563  0.28345 11.00000  0.02622   7.29
N02E  3  0.38720  0.87495  0.37447 11.00000  0.02962   7.15
N02F  3  0.94776  0.05676  0.46270 11.00000  0.01592   7.08
N02G  3  0.99955  0.36764  0.27586 11.00000  0.00010   7.05
N02H  3  0.68724  0.26671  0.32289 11.00000  0.02191   7.04
N02I  3  1.28351  0.59842  0.27993 11.00000  0.00878   7.02
C02J  2  0.66984  0.72375  0.69694 11.00000  0.04504   6.76
N02K  3  0.70398  0.80078  0.50824 11.00000  0.01412   6.74
N02L  3  1.57830  0.38076  0.38638 11.00000  0.03612   6.74
C02M  2  0.62991  0.11580  0.59653 11.00000  0.02457   6.58
N02N  3  0.82345  0.52961  0.33703 11.00000  0.02172   6.50
C02O  2  0.55114  0.79089  0.48926 11.00000  0.01336   6.45
N02P  3  0.28539  0.12792  0.70579 11.00000  0.04186   6.33
C02Q  2  0.49576  0.64863  0.67557 11.00000  0.06572   6.15
C02R  2  0.98216  0.18825  0.31807 11.00000  0.00010   6.03
C02S  2  0.68083  0.72564  0.76817 11.00000  0.04255   6.01
C02T  2  1.02953  0.53738  0.43015 11.00000  0.00010   5.91
C02U  2  1.11250  0.14568  0.44814 11.00000  0.02058   5.75
C02V  2 -0.05970  0.66208  0.61880 11.00000  0.00930   5.67
C02W  2  1.43322  0.35480  0.42764 11.00000  0.04101   5.56
C02X  2  0.75547  0.88427  0.31541 11.00000  0.01783   5.43
C02Y  2  0.51563  0.66504  0.53452 11.00000  0.00010   5.33
C02Z  2  1.36953  0.32955  0.44564 11.00000  0.02820   5.26
C030  2 -0.47369  0.28978  0.71687 11.00000  0.01696   5.25
C031  2  0.49425  0.28623  0.63094 11.00000  0.00598   5.19
N032  3  0.79377  0.11634  0.29829 11.00000  0.05812   5.17
C033  2  0.94319  0.63384  0.25930 11.00000  0.01161   5.16
C034  2  0.88145  0.03993  0.45035 11.00000  0.01356   5.15
C035  2  0.93223  0.25906  0.45914 11.00000  0.02033   5.11
C036  2  1.04211  0.53007  0.48210 11.00000  0.03217   5.05
C037  2  0.42489  0.95338  0.43162 11.00000  0.01794   5.01
C038  2  0.57873  0.62739  0.38231 11.00000  0.00010   4.92
C039  2  0.78476  0.12732  0.27000 11.00000  0.02160   4.86
C03A  2  1.06281  0.50505  0.25634 11.00000  0.00114   4.68
C03B  2  0.47097  0.89561  0.38503 11.00000  0.02623   4.63
C03C  2  1.37245  0.36252  0.30561 11.00000  0.00010   4.62
C03D  2  1.05813  0.08604  0.32224 11.00000  0.00010   4.53
C03E  2  1.44771  0.44799  0.33578 11.00000  0.03811   4.49
C03F  2  0.59552  0.80008  0.51816 11.00000  0.00010   4.40
C03G  2  0.52285  0.62978  0.56100 11.00000  0.01579   4.34
C03H  2  1.01583  0.28446  0.31122 11.00000  0.00920   4.24
C03I  2  0.26080  0.61595  0.62543 11.00000  0.01611   4.24
C03J  2  0.85061  0.36897  0.35379 11.00000  0.02914   4.16
C03K  2  0.33608  0.52822  0.42924 11.00000  0.03699   4.12
C03L  2  1.42462  0.69957  0.30362 11.00000  0.03231   4.11
C03M  2  0.62159  0.12044  0.29389 11.00000  0.07717   4.08
C03N  2  0.85997  0.15131  0.53586 11.00000  0.00010   4.01
O03O  4  0.75021  0.25699  0.48740 11.00000  0.03976   3.96
C03P  2  0.32535  0.13558  0.66055 11.00000  0.00010   3.95
C03Q  2  1.00473  0.41229  0.43620 11.00000  0.00035   3.91
C03R  2  1.03417  0.65680  0.26606 11.00000  0.04690   3.88
C03S  2  0.38366  0.62398  0.47068 11.00000  0.03273   3.84
C03T  2  0.20321  0.89798  0.43359 11.00000  0.02188   3.84
C03U  2  0.64701  0.05565  0.54944 11.00000  0.02968   3.83
C03V  2  0.74945  0.52910  0.34997 11.00000  0.01440   3.56
C03W  2 -0.35551  0.23930  0.70407 11.00000  0.00970   3.55
C03X  2  1.47264  0.09295  0.40594 11.00000  0.00010   3.53
O03Y  4  1.12740  0.55770  0.43896 11.00000  0.01454   3.53
C03Z  2  0.47451  0.42660  0.54536 11.00000  0.04179   3.41
C040  2  0.77368  0.71490  0.44217 11.00000  0.03400   3.39
C041  2  1.03619  0.05399  0.47958 11.00000  0.02286   3.36
C042  2  1.06849  0.48525  0.37340 11.00000  0.03197   3.33
C043  2  0.90403  0.60685  0.52056 11.00000  0.05116   3.22
C044  2 -0.18508  0.72975  0.62678 11.00000  0.02616   3.18
C045  2  0.82998  0.79056  0.38977 11.00000  0.05821   3.17
C046  2  0.65535  0.96007  0.32399 11.00000  0.00245   3.14
C047  2  0.34665  0.54458  0.47197 11.00000  0.02279   3.08
C048  2  0.56743  0.19824  0.31828 11.00000  0.02460   3.02
C049  2  1.12310  0.08846  0.45547 11.00000  0.03512   3.01
HKLF 4
END
