TITL shelx03-merge_expF_0_9_expS_1_5_shelx03-merge_a.res in P1
REM Old TITL 1 in I 1 #-1
REM SHELXT solution in P1: R1 0.753, Rweak 0.505, Alpha 0.000
REM <I/s>   0.000 for    0 systematic absences,  Orientation as input
REM Flack x = -9.990 ( 9.990 ) from   122 Parsons' quotients
REM Formula found by SHELXT:  C61 N15 O11

CELL  0.71073   9.3100  15.1100  30.5000   90.000   90.000   90.000
ZERR   52.000   0.0019   0.0030   0.0061    0.000    0.000    0.000
LATT -2
SFAC H C N O ZR
UNIT 20 20 20 20 20
L.S. 10
BOND
LIST 6
FMAP 2
PLAN 20
O001  4  0.13754  0.82718  0.39494 11.00000  0.02886  12.12
O002  4  0.55882  0.82537  0.39579 11.00000  0.04246  11.72
O003  4  0.44590  0.83954  0.38400 11.00000  0.03906  11.15
O004  4  0.03048  0.85178  0.40249 11.00000  0.01831  10.61
O005  4  0.27287  0.82644  0.39380 11.00000  0.03846  10.20
O006  4  0.16981  0.46970  0.58258 11.00000  0.06464   9.95
O007  4  0.73755  0.80350  0.39569 11.00000  0.03023   9.47
C008  2  0.30065  0.42817  0.59298 11.00000  0.00010   9.26
N009  3  1.13874  0.02958  0.68299 11.00000  0.04921   7.33
N00A  3  0.59781  0.62050  0.68498 11.00000  0.00010   7.22
N00B  3  1.13471  0.09649  0.68923 11.00000  0.00983   6.94
N00C  3  0.55671  0.31395  0.59819 11.00000  0.02790   6.90
C00D  2  0.45463  0.37722  0.58699 11.00000  0.00010   6.64
O00E  4  1.00857  0.63515  0.63950 11.00000  0.00010   6.23
C00F  2  0.37020  0.67580  0.45305 11.00000  0.00549   6.19
C00G  2  0.99115  0.05252  0.66858 11.00000  0.03485   6.04
N00H  3  0.68773  0.14605  0.56489 11.00000  0.03371   5.95
N00I  3  0.57827  0.83982  0.51959 11.00000  0.00414   5.92
C00J  2  0.57936  0.56578  0.66522 11.00000  0.03075   5.89
N00K  3  0.00834  0.84666  0.52044 11.00000  0.00905   5.86
C00L  2  0.55014  0.47290  0.55778 11.00000  0.00010   5.85
C00M  2  1.10299  0.33402  0.67321 11.00000  0.00010   5.76
O00N  4  0.85513  0.36858  0.48666 11.00000  0.06626   5.68
C00O  2  0.66938  0.64195  0.68803 11.00000  0.01005   5.51
C00P  2 -0.04495  0.75938  0.35285 11.00000  0.00642   5.36
C00Q  2  1.11270  0.56873  0.65159 11.00000  0.00408   5.36
C00R  2  0.87262  0.25203  0.68610 11.00000  0.00010   5.23
C00S  2  0.48155  0.81852  0.51918 11.00000  0.00870   5.19
C00T  2 -0.10935  0.89016  0.41238 11.00000  0.00010   5.17
N00U  3  0.92691  0.49915  0.43402 11.00000  0.00184   5.05
C00V  2  0.93077  0.37748  0.68631 11.00000  0.01218   5.04
C00W  2  0.35579  0.23979  0.59234 11.00000  0.00010   5.01
C00X  2  1.09009  0.20417  0.53658 11.00000  0.00010   4.94
C00Y  2  0.95653  0.18397  0.68435 11.00000  0.00260   4.85
C00Z  2  1.12068  0.27179  0.70738 11.00000  0.05441   4.83
C010  2  0.16407  0.80944  0.50600 11.00000  0.02906   4.83
C011  2  0.74550  0.33219  0.61573 11.00000  0.00371   4.80
C012  2  0.46742  0.61361  0.33120 11.00000  0.02854   4.76
N013  3 -0.01603  0.57778  0.53913 11.00000  0.01771   4.73
C014  2  0.54068  0.52514  0.68227 11.00000  0.00767   4.73
C015  2  0.67427  0.82651  0.32751 11.00000  0.00010   4.72
C016  2  1.09084  0.30027  0.64994 11.00000  0.00748   4.52
C017  2  0.16163  0.71949  0.27600 11.00000  0.00692   4.48
C018  2  0.32926  0.32778  0.64104 11.00000  0.00010   4.48
C019  2  1.06309  0.18341  0.68406 11.00000  0.00821   4.44
C01A  2  1.01395 -0.02678  0.66740 11.00000  0.02844   4.29
N01B  3  0.80600  0.30983  0.67942 11.00000  0.04381   4.22
C01C  2  0.46295  0.62290  0.52957 11.00000  0.00010   4.16
C01D  2  0.44085  0.80621  0.65668 11.00000  0.05102   4.15
C01E  2  0.99994  0.42029  0.67437 11.00000  0.00944   4.12
C01F  2  0.89034  0.42353  0.59635 11.00000  0.02256   4.09
C01G  2  1.10107  0.12825  0.67566 11.00000  0.04470   4.06
C01H  2  0.41764  0.84883  0.52552 11.00000  0.01349   4.05
C01I  2  0.78190  0.64397  0.34506 11.00000  0.04700   4.03
C01J  2  0.66897  0.29442  0.60022 11.00000  0.01264   4.03
C01K  2  0.60122  0.18521  0.57740 11.00000  0.00010   3.89
C01L  2  0.84971  0.06446  0.66524 11.00000  0.00010   3.86
C01M  2  0.69988  0.48667  0.56452 11.00000  0.02579   3.80
C01N  2  0.46980  0.67456  0.66715 11.00000  0.00216   3.77
C01O  2  0.65767  0.72125  0.36301 11.00000  0.00010   3.75
O01P  4 -0.13874  0.92311  0.38040 11.00000  0.04493   3.73
N01Q  3  0.44813  1.02678  0.44380 11.00000  0.02679   3.66
C01R  2  0.95348  0.31207  0.63532 11.00000  0.00010   3.64
C01S  2  0.82107  0.81668  0.76844 11.00000  0.01015   3.56
C01T  2  0.21883  0.63092  0.45955 11.00000  0.00962   3.56
C01U  2  0.46523  0.87015  0.32261 11.00000  0.00010   3.54
C01V  2  0.62807  0.86378  0.71995 11.00000  0.01664   3.54
C01W  2  1.06850  0.06394  0.51851 11.00000  0.04156   3.52
C01X  2  0.27632  0.79403  0.65265 11.00000  0.00010   3.51
C01Y  2  0.43273  0.28241  0.59568 11.00000  0.00395   3.48
C01Z  2  0.68998  0.10951  0.60891 11.00000  0.03209   3.47
N020  3  0.75324  0.98849  0.27286 11.00000  0.05000   3.45
C021  2  0.36502  0.62314  0.56088 11.00000  0.00273   3.45
N022  3  0.84160  0.70757  0.27656 11.00000  0.03897   3.44
C023  2  0.71682  0.35954  0.49091 11.00000  0.00834   3.43
C024  2  1.09958  0.15488  0.59535 11.00000  0.03516   3.41
N025  3  0.18641  0.68812  0.73102 11.00000  0.01764   3.39
C026  2  0.24850  0.78474  0.59828 11.00000  0.00859   3.35
C027  2  0.57243  0.59409  0.31587 11.00000  0.01195   3.32
O028  4  0.35071  0.76309  0.45295 11.00000  0.10785   3.31
C029  2  0.06723  0.90322  0.24558 11.00000  0.01197   3.23
N02A  3  0.28802  0.70046  0.32658 11.00000  0.03251   3.20
C02B  2  0.23814  0.71180  0.59608 11.00000  0.02125   3.17
C02C  2  0.49727  0.41582  0.55838 11.00000  0.00010   3.15
C02D  2  0.71039  0.78195  0.74204 11.00000  0.00010   3.14
C02E  2  0.50163  0.04588  0.61905 11.00000  0.02130   3.07
C02F  2  0.03268  0.79757  0.23156 11.00000  0.00495   3.03
HKLF 4
END
