TITL shelx03-merge_expF_1_0_expS_1_0_shelx03-merge_a.res in P1
REM Old TITL 1 in I 1 #-1
REM SHELXT solution in P1: R1 0.691, Rweak 0.126, Alpha 0.000
REM <I/s>   0.000 for    0 systematic absences,  Orientation as input
REM Flack x =  0.366 ( 0.451 ) from   505 Parsons' quotients
REM Formula found by SHELXT:  C69 N37 O43

CELL  0.71073   9.3100  15.1100  30.5000   90.000   90.000   90.000
ZERR   52.000   0.0019   0.0030   0.0061    0.000    0.000    0.000
LATT -2
SFAC H C N O ZR
UNIT 20 20 20 20 20
L.S. 10
BOND
LIST 6
FMAP 2
PLAN 20
ZR01  5  0.46694  0.65233  0.40334 11.00000  0.07120  25.90
ZR02  5 -0.03973  0.65345  0.40531 11.00000  0.07822  24.76
ZR03  5  0.09453  0.64932  0.40340 11.00000  0.06239  24.27
ZR04  5  0.34910  0.65928  0.40289 11.00000  0.07058  24.04
N005  3  0.77394  0.63561  0.40646 11.00000  0.01138  21.79
N006  3  0.60125  0.59366  0.70987 11.00000  0.01605  19.51
N007  3  0.62722  0.67494  0.42322 11.00000  0.04715  19.33
N008  3  0.12463  0.68567  0.28674 11.00000  0.02081  18.99
O009  4  1.16312  0.51396  0.34422 11.00000  0.03103  18.90
N00A  3  0.79239  0.35833  0.64186 11.00000  0.00170  16.08
O00B  4  1.31139  0.48895  0.33916 11.00000  0.00010  15.95
C00C  2  1.11690  0.75726  0.62341 11.00000  0.00010  15.84
O00D  4  0.34715  0.65872  0.28344 11.00000  0.02797  15.34
N00E  3  0.53012  0.58858  0.71188 11.00000  0.01381  15.32
N00F  3  0.66902  0.91819  0.71211 11.00000  0.04320  13.97
O00G  4  0.23331  0.69335  0.40555 11.00000  0.05245  12.97
N00H  3  0.41101  0.67814  0.69076 11.00000  0.00010  12.69
O00I  4  0.27542  0.66177  0.62937 11.00000  0.10847  12.64
O00J  4  1.01103  0.55454  0.33839 11.00000  0.02964  12.48
O00K  4  0.22050  0.37424  0.56278 11.00000  0.00606  12.42
N00L  3  0.81053  0.57079  0.38117 11.00000  0.01263  12.27
O00M  4  0.60445  0.57797  0.37806 11.00000  0.00197  11.56
O00N  4  0.78143  0.30654  0.61298 11.00000  0.01833  11.20
O00O  4  0.55977  0.67403  0.64040 11.00000  0.00010  11.00
O00P  4  0.10546  0.74779  0.29366 11.00000  0.00010  10.96
C00Q  2 -0.53548  0.87819  0.54035 11.00000  0.00010  10.91
O00R  4  1.04989  0.81667  0.62589 11.00000  0.00494  10.91
O00S  4  1.04861  0.47960  0.74825 11.00000  0.06348  10.85
O00T  4  0.61261  0.76526  0.38541 11.00000  0.01045  10.55
O00U  4  0.98199  0.14346  0.39280 11.00000  0.00834  10.51
N00V  3  0.36858  0.87227  0.73093 11.00000  0.08564  10.50
N00W  3  1.11713  0.59562  0.74092 11.00000  0.04921  10.26
O00X  4  0.03421  0.65628  0.27757 11.00000  0.00786  10.09
N00Y  3  0.63493  0.36733  0.44516 11.00000  0.01535  10.05
O00Z  4  0.73730  0.74990  0.65806 11.00000  0.00688  10.02
N010  3  0.81544  0.45008  0.63291 11.00000  0.01607  10.00
N011  3  0.86971  0.71808  0.66090 11.00000  0.00547   9.80
O012  4  0.72385  0.09839  0.47033 11.00000  0.00758   9.52
O013  4  0.26588  0.68017  0.69613 11.00000  0.08757   9.49
O014  4  1.29620  0.38881  0.73570 11.00000  0.05810   9.44
O015  4  1.11438  0.38934  0.75500 11.00000  0.00010   9.10
O016  4 -0.44404  0.66743  0.20490 11.00000  0.04329   8.99
N017  3  0.59062  0.63126  0.65481 11.00000  0.10073   8.97
O018  4  0.85272  0.38810  0.44281 11.00000  0.04699   8.89
O019  4  0.24482  0.64663  0.48538 11.00000  0.11463   8.75
O01A  4  0.26382  0.48943  0.48678 11.00000  0.04100   8.67
N01B  3  1.01660  0.36622  0.38644 11.00000  0.01296   8.54
C01C  2  0.20051  0.49199  0.58971 11.00000  0.00010   8.54
O01D  4  0.68600  0.33225  0.46126 11.00000  0.08557   8.46
N01E  3  0.48274  0.49210  0.68540 11.00000  0.05058   8.33
O01F  4  0.50616  0.35313  0.47634 11.00000  0.00491   8.20
N01G  3  0.48971  0.82172  0.70583 11.00000  0.00973   8.16
O01H  4  0.70774  0.83071  0.70354 11.00000  0.01236   8.15
O01I  4  1.07878  0.40943  0.36010 11.00000  0.01892   8.06
N01J  3  0.47389  0.57433  0.60965 11.00000  0.00014   8.05
N01K  3  0.44730  0.90802  0.70997 11.00000  0.03964   7.97
O01L  4  0.31149  0.27700  0.47667 11.00000  0.03993   7.94
O01M  4  0.29114  0.13789  0.53659 11.00000  0.01550   7.83
O01N  4  0.91406  0.34475  0.37157 11.00000  0.09645   7.61
O01O  4 -0.16395  0.66109  0.30537 11.00000  0.02082   7.53
C01P  2 -0.09185  0.65990  0.58200 11.00000  0.00011   7.49
O01Q  4  0.13719  0.28220  0.54490 11.00000  0.04418   7.45
N01R  3  0.01760  0.77712  0.42708 11.00000  0.04500   7.31
N01S  3  0.48711  0.82533  0.40506 11.00000  0.01711   7.20
O01T  4 -0.29391  0.71455  0.24983 11.00000  0.01028   7.19
C01U  2  0.80457  0.02787  0.62437 11.00000  0.03135   7.19
N01V  3  0.93928  0.67692  0.65686 11.00000  0.00938   7.16
N01W  3  0.34699  0.68668  0.63077 11.00000  0.09270   7.15
C01X  2  0.36979  0.80238  0.74780 11.00000  0.00010   7.14
C01Y  2  0.52750  0.13116  0.58834 11.00000  0.00010   6.98
C01Z  2  0.79471  0.37047  0.44718 11.00000  0.01030   6.92
N020  3  1.03098 -0.05289  0.40156 11.00000  0.00577   6.90
N021  3  0.28156  0.89222  0.68491 11.00000  0.03758   6.69
O022  4  0.55463  0.76261  0.76142 11.00000  0.04948   6.64
O023  4  0.56417  0.17909  0.57629 11.00000  0.02399   6.55
N024  3  0.10357  0.05239  0.55070 11.00000  0.01846   6.55
N025  3  0.83632  0.50278  0.37825 11.00000  0.00899   6.54
O026  4  0.68236  0.68336  0.81145 11.00000  0.10833   6.54
C027  2  0.93967  0.30328  0.68400 11.00000  0.00010   6.45
C028  2  0.30423  0.62932  0.72443 11.00000  0.00650   6.45
O029  4 -0.59947  0.94043  0.54165 11.00000  0.04218   6.41
C02A  2  0.89771  0.63017  0.71674 11.00000  0.00010   6.38
C02B  2  0.32908  0.74166  0.63976 11.00000  0.00010   6.34
C02C  2  0.59885  0.55769  0.76520 11.00000  0.03734   6.24
N02D  3  0.92057  0.29363  0.42102 11.00000  0.01759   6.20
C02E  2  0.34301  0.35599  0.53540 11.00000  0.00010   6.01
C02F  2  0.85461  0.40200  0.71916 11.00000  0.00010   6.00
N02G  3 -0.46315  0.78620  0.51700 11.00000  0.04505   5.98
C02H  2  0.38038  0.24490  0.50869 11.00000  0.00220   5.86
C02I  2 -0.06375  0.76911  0.27306 11.00000  0.00010   5.82
C02J  2  0.75374  0.17599  0.63522 11.00000  0.05690   5.78
C02K  2  0.43239  0.57258  0.73288 11.00000  0.02776   5.77
C02L  2  0.31208  0.59119  0.55230 11.00000  0.01347   5.66
N02M  3 -0.06993  0.62006  0.57793 11.00000  0.04223   5.65
C02N  2  0.93044  0.44234  0.69588 11.00000  0.00010   5.59
C02O  2  0.68047  0.07835  0.63483 11.00000  0.00829   5.59
N02P  3  0.22533  0.46613  0.61805 11.00000  0.00010   5.57
C02Q  2  0.62893  0.52095  0.39694 11.00000  0.05547   5.55
C02R  2  0.53725  0.51553  0.66125 11.00000  0.01433   5.41
N02S  3  0.61965  0.42184  0.43744 11.00000  0.05532   5.39
N02T  3  0.72578  0.63248  0.73610 11.00000  0.02761   5.38
C02U  2  0.21611  0.46726  0.65414 11.00000  0.00874   5.33
C02V  2 -0.40128  0.69279  0.55362 11.00000  0.01780   5.27
C02W  2  0.13022  0.45492  0.53468 11.00000  0.02417   5.25
C02X  2 -0.28605  0.66451  0.17889 11.00000  0.02456   5.20
C02Y  2  0.78759  0.66896  0.72858 11.00000  0.00882   5.18
C02Z  2  0.91876  0.53327  0.72013 11.00000  0.01853   5.17
C030  2  0.94803  0.42709  0.62576 11.00000  0.03532   5.15
C031  2 -0.37444  0.72952  0.52225 11.00000  0.02379   5.09
C032  2  1.00771  0.39360  0.69724 11.00000  0.00010   4.92
N033  3 -0.33091  0.71555  0.56184 11.00000  0.00028   4.90
C034  2  0.96476  0.73565  0.64115 11.00000  0.01367   4.84
C035  2  0.09454  0.55279  0.59461 11.00000  0.00950   4.74
C036  2  1.57066  0.51048  0.29504 11.00000  0.11197   4.59
C037  2  0.65286  0.21297  0.64465 11.00000  0.00169   4.53
C038  2  1.05074  0.04170  0.39552 11.00000  0.00660   4.53
C039  2  1.36734  0.39421  0.31093 11.00000  0.00010   4.52
C03A  2  0.92477  0.15330  0.49490 11.00000  0.01108   4.51
C03B  2 -0.55489  0.73535  0.53278 11.00000  0.03092   4.48
C03C  2  0.59051  0.42195  0.63396 11.00000  0.00134   4.48
C03D  2  0.83406  0.27711  0.69143 11.00000  0.01061   4.47
C03E  2  0.40909  0.57308  0.56197 11.00000  0.00010   4.46
C03F  2  0.57730  0.58045  0.62956 11.00000  0.00010   4.45
O03G  4  1.41690  0.34107  0.30122 11.00000  0.03697   4.33
C03H  2 -0.08738  0.75781  0.45446 11.00000  0.09925   4.30
C03I  2  0.89279  0.09953  0.40806 11.00000  0.00010   4.29
C03J  2  0.39671  0.49673  0.57973 11.00000  0.02137   4.28
C03K  2  0.97662  0.58444  0.79922 11.00000  0.01735   4.23
C03L  2  0.83288  0.36361  0.66148 11.00000  0.01834   4.15
O03M  4  1.59947  0.37587  0.24616 11.00000  0.06978   4.11
C03N  2 -0.13945  0.63261  0.24143 11.00000  0.00123   4.10
C03O  2  0.79836  0.17805  0.44149 11.00000  0.00010   4.00
C03P  2  0.55968  0.12972  0.47266 11.00000  0.00591   3.96
C03Q  2  0.46231  0.88017  0.64619 11.00000  0.02489   3.94
C03R  2  0.32914  0.60567  0.62392 11.00000  0.01777   3.82
C03S  2  0.03670  0.70677  0.50659 11.00000  0.03678   3.75
C03T  2  1.17867  0.40555  0.34387 11.00000  0.09791   3.74
O03U  4 -0.09181  0.76823  0.52950 11.00000  0.04704   3.64
C03V  2  1.50651  0.41825  0.25791 11.00000  0.00993   3.61
C03W  2  0.75761  0.47860  0.43372 11.00000  0.01819   3.57
C03X  2 -0.21116  0.73080  0.58048 11.00000  0.03556   3.56
N03Y  3 -0.25281  0.61953  0.21768 11.00000  0.05698   3.47
C03Z  2  0.27258  0.53501  0.70483 11.00000  0.01700   3.40
C040  2  1.05537  0.39150  0.61603 11.00000  0.00539   3.22
C041  2  0.89896  0.60004  0.82111 11.00000  0.00386   3.21
C042  2 -0.09261  0.71619  0.36929 11.00000  0.01947   3.21
C043  2  0.40415  0.79833  0.31648 11.00000  0.00010   3.18
C044  2  0.88754  0.25735  0.42992 11.00000  0.00010   3.15
C045  2  0.44178  0.11979  0.51375 11.00000  0.00010   3.09
N046  3  0.43558  0.20209  0.55277 11.00000  0.03542   3.09
C047  2  0.88979  0.47902  0.44424 11.00000  0.13430   3.07
O048  4  0.72646  1.05289  0.70341 11.00000  0.05629   3.06
C049  2 -0.56908  0.83253  0.57643 11.00000  0.03912   3.05
HKLF 4
END
