TITL shelx03-merge_expF_1_3_expS_0_8_shelx03-merge_a.res in P1
REM Old TITL 1 in I 1 #-1
REM SHELXT solution in P1: R1 0.872, Rweak 0.282, Alpha 0.000
REM <I/s>   0.000 for    0 systematic absences,  Orientation as input
REM Flack x = -9.990 ( 9.990 ) from   970 Parsons' quotients
REM Formula found by SHELXT:  C30 N11 O11

CELL  0.71073   9.3100  15.1100  30.5000   90.000   90.000   90.000
ZERR   52.000   0.0019   0.0030   0.0061    0.000    0.000    0.000
LATT -2
SFAC H C N O ZR
UNIT 20 20 20 20 20
L.S. 10
BOND
LIST 6
FMAP 2
PLAN 20
O001  4  0.58780  0.19750  0.40739 11.00000  0.00453  13.20
O002  4  0.45843  0.19172  0.41325 11.00000  0.00083  11.79
O003  4  0.18561  0.20132  0.40673 11.00000  0.00423  11.77
O004  4  0.02783  0.20514  0.41707 11.00000  0.04283  11.51
O005  4  0.29206  0.20002  0.40965 11.00000  0.02697  10.72
O006  4  0.70731  0.17644  0.40146 11.00000  0.06199  10.60
O007  4  0.03887  0.19173  0.52755 11.00000  0.01770   8.66
N008  3  0.24001  0.35465  0.46368 11.00000  0.05396   6.96
C009  2  0.63189  0.72512  0.57368 11.00000  0.05925   6.86
O00A  4  0.12233  0.03067  0.53770 11.00000  0.05473   6.75
N00B  3  0.35152  0.36746  0.47315 11.00000  0.04938   6.59
N00C  3  0.81220  0.66899  0.31262 11.00000  0.00010   6.45
C00D  2  1.14204  0.14719  0.27381 11.00000  0.02087   6.34
C00E  2 -0.06893  0.22732  0.53896 11.00000  0.00010   6.31
C00F  2  0.83658  0.84583  0.63335 11.00000  0.03305   6.10
C00G  2  0.32867  0.05387  0.46348 11.00000  0.00286   6.09
C00H  2  0.26781  0.28211  0.45725 11.00000  0.04664   5.92
N00I  3  0.54015  0.70229  0.58878 11.00000  0.00010   5.77
C00J  2  0.90124  0.62436  0.31881 11.00000  0.00074   5.75
C00K  2  1.17368  0.07743  0.27380 11.00000  0.01432   5.65
C00L  2  0.26786  0.20497  0.48148 11.00000  0.00370   5.30
C00M  2  0.12650 -0.02203  0.54147 11.00000  0.01658   5.26
C00N  2  0.85226  0.70347  0.58398 11.00000  0.04261   5.02
C00O  2  0.25060  0.07544  0.46377 11.00000  0.01500   4.94
C00P  2 -0.11525  0.12610  0.53191 11.00000  0.05503   4.90
C00Q  2 -0.10004  0.30828  0.50091 11.00000  0.02582   4.63
N00R  3  0.89136 -0.02755  0.34356 11.00000  0.09233   4.46
C00S  2  0.34222  0.22079  0.59952 11.00000  0.02189   4.44
C00T  2  0.12604  0.31034  0.46941 11.00000  0.03942   4.37
C00U  2  1.33346  0.16785  0.26225 11.00000  0.00593   4.36
C00V  2 -0.07325  0.28547  0.38294 11.00000  0.02322   4.26
N00W  3  1.32623  0.05499  0.27211 11.00000  0.06183   4.21
O00X  4  0.97098  0.72423  0.57425 11.00000  0.02802   4.19
C00Y  2 -0.14153  0.32886  0.32719 11.00000  0.04665   4.18
C00Z  2  1.35441  0.11269  0.26766 11.00000  0.00018   3.98
N010  3  0.66291  0.50334  0.36738 11.00000  0.02825   3.85
C011  2  0.83591  0.66104  0.61936 11.00000  0.00169   3.81
C012  2  0.50388  0.92199  0.60036 11.00000  0.02210   3.64
C013  2  0.69910  0.84442  0.62022 11.00000  0.00010   3.60
N014  3  0.67489 -0.03440  0.41336 11.00000  0.02370   3.46
N015  3  0.39953  0.38242  0.35901 11.00000  0.05671   3.39
O016  4  0.39142  0.50410  0.65844 11.00000  0.05187   3.33
N017  3 -0.35441  0.17066  0.52526 11.00000  0.02949   3.32
C018  2  0.99438  0.59796  0.33389 11.00000  0.02596   3.26
C019  2  0.47007  0.60601  0.56635 11.00000  0.00010   3.26
C01A  2  0.42895  0.12885  0.47223 11.00000  0.02097   3.22
C01B  2  0.23025  0.36004  0.63133 11.00000  0.05275   3.15
C01C  2  0.78311  0.95567  0.63542 11.00000  0.00010   3.12
O01D  4  0.58654  0.56144  0.56325 11.00000  0.03383   3.10
C01E  2  0.35921  0.44534  0.66419 11.00000  0.02668   3.05
N01F  3  0.98245  1.03440  0.73775 11.00000  0.02651   3.03
C01G  2  0.28836  0.67324  0.53581 11.00000  0.03118   3.02
HKLF 4
END
