TITL shelx03-merge_expF_1_4_expS_1_3_shelx03-merge_a.res in P1
REM Old TITL 1 in I 1 #-1
REM SHELXT solution in P1: R1 0.898, Rweak 0.310, Alpha 0.000
REM <I/s>   0.000 for    0 systematic absences,  Orientation as input
REM Flack x = -2.678 ( 0.861 ) from   343 Parsons' quotients
REM Formula found by SHELXT:  C33 N8 O21

CELL  0.71073   9.3100  15.1100  30.5000   90.000   90.000   90.000
ZERR   52.000   0.0019   0.0030   0.0061    0.000    0.000    0.000
LATT -2
SFAC H C N O ZR CL
UNIT 20 20 20 20 20 0
L.S. 10
BOND
LIST 6
FMAP 2
PLAN 20
CL01  6 -0.10003  1.03686  0.62946 11.00000  0.06055  16.91
CL02  6 -0.18406  1.00222  0.63242 11.00000  0.01285  16.31
CL03  6  0.97969  0.42739  0.45081 11.00000  0.06727  15.33
CL04  6  0.35722  0.50868  0.49046 11.00000  0.06803  13.83
CL05  6  0.86898  0.37436  0.44293 11.00000  0.05494  13.81
CL06  6 -0.18853  0.86773  0.68285 11.00000  0.04298  13.80
CL07  6  0.57728  0.48690  0.46114 11.00000  0.01106  13.76
CL08  6  0.50749  0.38550  0.44334 11.00000  0.03365  13.31
CL09  6 -0.46195  0.88866  0.68835 11.00000  0.03562  12.97
CL0A  6  0.06130  1.00380  0.63439 11.00000  0.06973  12.74
CL0B  6 -0.32077  0.86338  0.68064 11.00000  0.06191  12.65
CL0C  6 -0.02387  0.92060  0.64561 11.00000  0.04607  12.60
O00D  4 -0.04798  0.88149  0.64759 11.00000  0.00143  11.33
O00E  4 -0.32103  1.01338  0.63846 11.00000  0.03154  10.88
O00F  4  0.72130  0.34842  0.43851 11.00000  0.02411  10.59
CL0G  6  0.15055  0.86893  0.68063 11.00000  0.01478  10.54
CL0H  6  1.17676  0.60552  0.38876 11.00000  0.04246  10.48
O00I  4  0.87317  0.33684  0.45486 11.00000  0.00052  10.25
O00J  4  0.52843  0.83661  0.55190 11.00000  0.01433  10.25
O00K  4  0.83126  0.31370  0.42567 11.00000  0.00570   9.85
O00L  4  0.38034  0.35666  0.36244 11.00000  0.00010   9.83
O00M  4 -0.04971  0.59973  0.68536 11.00000  0.00791   9.82
C00N  2  0.41102  0.82159  0.51540 11.00000  0.00010   9.62
O00O  4  0.53122  0.39062  0.34078 11.00000  0.02773   9.51
O00P  4  0.39254  0.33529  0.38783 11.00000  0.05676   9.13
O00Q  4  0.81601  0.51415  0.23563 11.00000  0.06911   8.99
O00R  4  0.36463  0.53684  0.30527 11.00000  0.06517   8.87
O00S  4  0.14428  1.04607  0.57682 11.00000  0.01462   8.83
O00T  4  0.23857  0.35202  0.38459 11.00000  0.01604   8.56
O00U  4  0.82997  0.32975  0.25371 11.00000  0.04619   8.09
C00V  2  0.39248  0.37587  0.34405 11.00000  0.00010   7.86
O00W  4  0.94165  0.61519  0.38512 11.00000  0.01131   7.73
C00X  2 -0.07202  0.64946  0.70815 11.00000  0.00135   7.59
C00Y  2  0.89065  0.37491  0.38824 11.00000  0.00010   7.42
N00Z  3  0.49060  1.03436  0.64645 11.00000  0.00010   7.32
O010  4  0.70562  0.89985  0.53679 11.00000  0.03496   7.28
C011  2  0.29007  1.05658  0.61188 11.00000  0.00010   7.20
C012  2  0.97418  0.78315  0.44173 11.00000  0.00010   7.19
N013  3  0.45588  1.02473  0.59740 11.00000  0.03586   6.69
N014  3  0.21466  0.91377  0.55611 11.00000  0.00010   6.63
N015  3  0.65776  0.38929  0.42791 11.00000  0.00010   6.52
C016  2  0.58808  0.21334  0.47210 11.00000  0.00010   6.39
O017  4  0.62707  0.62502  0.48851 11.00000  0.09154   6.30
C018  2  0.94740  0.33832  0.38668 11.00000  0.00527   6.20
C019  2  0.90219 -0.05658  0.27238 11.00000  0.00010   5.88
O01A  4  0.03370  0.70227  0.62627 11.00000  0.03899   5.82
C01B  2 -0.36623  0.52053  0.65468 11.00000  0.01246   5.80
C01C  2  0.99985  0.39744  0.40134 11.00000  0.00010   5.76
N01D  3  0.14437  0.64244  0.68094 11.00000  0.00010   5.65
C01E  2  1.01966  0.20990  0.24274 11.00000  0.00010   5.59
C01F  2  0.13234  0.73915  0.60445 11.00000  0.00010   5.54
C01G  2  1.46195  0.30586  0.59319 11.00000  0.00010   5.45
N01H  3  0.82206  0.79673  0.43613 11.00000  0.00010   5.09
C01I  2  0.73611  0.55661  0.50937 11.00000  0.04331   5.04
N01J  3  0.18982  1.03241  0.63873 11.00000  0.00010   4.61
C01K  2  1.10125  0.73877  0.39331 11.00000  0.00010   4.54
C01L  2  0.07470  0.57492  0.69144 11.00000  0.00010   4.40
C01M  2  1.20308  0.38322  0.58908 11.00000  0.00010   4.38
C01N  2  1.02545  0.86174  0.42925 11.00000  0.00510   4.36
C01O  2  0.91378  0.21692  0.32555 11.00000  0.00010   4.29
O01P  4  0.84756  0.10334  0.29420 11.00000  0.03365   4.26
C01Q  2 -0.13037  0.39332  0.75254 11.00000  0.00829   4.21
C01R  2  0.97345  0.38294  0.59154 11.00000  0.00010   4.20
C01S  2  0.66113  0.23875  0.40660 11.00000  0.00688   4.18
C01T  2  0.52692  0.18947  0.46163 11.00000  0.04813   4.12
C01U  2  1.14616  0.10248  0.33641 11.00000  0.00010   4.12
C01V  2  0.68778  0.73764  0.54034 11.00000  0.01754   4.07
C01W  2  0.07114  0.98236  0.52769 11.00000  0.00010   4.01
N01X  3  0.90845  0.35322  0.57442 11.00000  0.02675   4.00
C01Y  2 -0.10164  0.51439  0.76437 11.00000  0.02479   3.98
C01Z  2  0.29528  0.45098  0.45669 11.00000  0.00647   3.87
C020  2  0.99689  0.49201  0.39272 11.00000  0.00010   3.73
C021  2  0.69817  0.27728  0.33798 11.00000  0.00010   3.72
C022  2  0.91446 -0.00024  0.32220 11.00000  0.00010   3.56
O023  4  1.00377  0.43908  0.33239 11.00000  0.00860   3.45
C024  2  0.94059  0.47059  0.29791 11.00000  0.01029   3.17
HKLF 4
END
