TITL shelx03-merge_expF_0_7_expS_1_2_shelx03-merge_a.res in P1
REM Old TITL 1 in I 1 #-1
REM SHELXT solution in P1: R1 0.764, Rweak 0.082, Alpha 0.000
REM <I/s>   0.000 for    0 systematic absences,  Orientation as input
REM Flack x =  0.359 ( 0.469 ) from   423 Parsons' quotients
REM Formula found by SHELXT:  C87 N17 O15

CELL  0.71073   9.3100  15.1100  30.5000   90.000   90.000   90.000
ZERR   52.000   0.0019   0.0030   0.0061    0.000    0.000    0.000
LATT -2
SFAC H C N O ZR CL
UNIT 20 20 20 20 20 0
L.S. 10
BOND
LIST 6
FMAP 2
PLAN 20
CL01  6 -0.48833  1.02272  0.29339 11.00000  0.06605  15.49
CL02  6 -0.35165  1.00433  0.29422 11.00000  0.04276  15.20
CL03  6  0.18025  1.02479  0.29185 11.00000  0.03740  14.59
CL04  6 -0.07979  1.01710  0.29189 11.00000  0.03725  14.17
CL05  6 -0.08203  1.03388  0.41772 11.00000  0.02569  13.37
CL06  6  0.30917  1.03412  0.28928 11.00000  0.03943  12.93
CL07  6 -0.32090  0.93880  0.30280 11.00000  0.02281  12.60
N008  3  0.04103  0.99829  0.28845 11.00000  0.00010  12.04
O009  4  1.07201  0.58109  0.69199 11.00000  0.00010  10.77
N00A  3 -0.19245  0.99566  0.28771 11.00000  0.00010  10.28
C00B  2 -0.06436  0.95300  0.28055 11.00000  0.08394   9.57
O00C  4  1.03554 -0.00702  0.63988 11.00000  0.10188   9.55
C00D  2 -0.24425  1.09400  0.43452 11.00000  0.00010   9.00
N00E  3  1.40003  0.06731  0.54580 11.00000  0.02279   8.69
N00F  3  1.24149  0.45412  0.57732 11.00000  0.05377   8.49
O00G  4  0.95388  0.86497  0.60081 11.00000  0.07025   7.89
N00H  3  1.22431 -0.07219  0.61424 11.00000  0.01527   7.85
O00I  4  0.29077  0.82965  0.42626 11.00000  0.03917   7.79
O00J  4  0.83041  0.58677  0.49893 11.00000  0.02100   7.73
N00K  3  1.44637  0.53779  0.62499 11.00000  0.04874   7.48
N00L  3  1.52842  0.74456  0.59802 11.00000  0.00010   6.91
N00M  3  1.04420 -0.10666  0.68378 11.00000  0.00010   6.88
N00N  3  1.23549  0.28769  0.52525 11.00000  0.02381   6.82
O00O  4  0.68956  0.88831  0.64764 11.00000  0.06237   6.80
N00P  3  0.35326  0.45892  0.39889 11.00000  0.00010   6.64
N00Q  3  1.29332  0.59962  0.58613 11.00000  0.00042   6.60
N00R  3  0.07154  0.79486  0.23001 11.00000  0.00648   6.57
C00S  2  1.10729  0.53207  0.67798 11.00000  0.00010   6.47
C00T  2  1.46729  0.26712  0.62406 11.00000  0.04515   6.47
C00U  2  1.37862  0.09504  0.63564 11.00000  0.04288   6.46
N00V  3  0.81628  0.47676  0.48161 11.00000  0.01460   6.45
C00W  2  1.30268  0.11699  0.53071 11.00000  0.00010   6.41
C00X  2  0.79565  0.86852  0.66267 11.00000  0.00010   6.41
C00Y  2  1.27476  0.39965  0.58026 11.00000  0.02482   6.38
C00Z  2 -0.45747  0.59119  0.32336 11.00000  0.01137   6.32
O010  4  1.19197  0.75095  0.80062 11.00000  0.03075   6.27
C011  2  0.76682  0.26835  0.46868 11.00000  0.00527   6.25
C012  2  1.02797  0.25136  0.55058 11.00000  0.08958   6.21
C013  2  0.16808  0.88794  0.34261 11.00000  0.00854   6.21
C014  2  0.45675  0.85513  0.49221 11.00000  0.01202   6.12
C015  2  0.91392  0.27099  0.56958 11.00000  0.01270   6.08
C016  2  1.36327  0.75882  0.54871 11.00000  0.00506   6.06
N017  3 -0.04485  0.96741  0.42168 11.00000  0.00010   6.04
C018  2 -0.01996  0.81696  0.34552 11.00000  0.00670   5.92
C019  2 -0.14047  1.11710  0.39838 11.00000  0.07663   5.81
C01A  2  1.20274  0.66685  0.57504 11.00000  0.00010   5.71
O01B  4  0.60914  0.63522  0.46103 11.00000  0.03139   5.68
C01C  2  1.65993  0.75044  0.78967 11.00000  0.00010   5.58
C01D  2  0.37560  0.91931  0.22398 11.00000  0.00462   5.50
C01E  2  0.55906  0.25641  0.50170 11.00000  0.01531   5.50
O01F  4  0.77780  0.04435  0.60004 11.00000  0.03458   5.49
C01G  2  1.11095  0.56260  0.58382 11.00000  0.00010   5.49
O01H  4  0.72147  0.17429  0.66257 11.00000  0.01918   5.44
C01I  2  0.11085  0.74531  0.35482 11.00000  0.05842   5.39
C01J  2  0.26363  0.77898  0.42534 11.00000  0.00010   5.39
C01K  2  0.24939  1.02097  0.17696 11.00000  0.00010   5.34
C01L  2  0.88457  0.74940  0.70483 11.00000  0.00010   5.32
C01M  2  1.53877  0.88954  0.72525 11.00000  0.01900   5.24
N01N  3  1.55099 -0.06396  0.57866 11.00000  0.00743   5.18
C01O  2 -0.47738  0.65568  0.35102 11.00000  0.00010   5.10
C01P  2  1.35928 -0.01734  0.55753 11.00000  0.03038   5.05
C01Q  2  1.29083  0.08392  0.55996 11.00000  0.00010   5.05
C01R  2  0.91535  0.07858  0.61759 11.00000  0.01828   5.04
C01S  2  0.35416  0.75469  0.22729 11.00000  0.00010   4.91
O01T  4 -0.37660  1.00288  0.35903 11.00000  0.00083   4.90
C01U  2  0.61964  0.54236  0.48153 11.00000  0.04665   4.88
C01V  2  1.48586  0.06030  0.71015 11.00000  0.00010   4.88
C01W  2 -0.63419  1.07898  0.34257 11.00000  0.09305   4.84
C01X  2  1.54353  0.73548  0.78999 11.00000  0.01355   4.71
O01Y  4  0.15167  0.55158  0.42780 11.00000  0.02795   4.69
C01Z  2  0.03918  0.89178  0.21089 11.00000  0.00010   4.68
C020  2  0.00758  0.73380  0.41248 11.00000  0.03394   4.64
C021  2 -0.09332  0.94012  0.25005 11.00000  0.08016   4.62
C022  2 -0.65993  1.14156  0.35632 11.00000  0.00010   4.61
C023  2  0.11816  0.60876  0.43401 11.00000  0.00163   4.55
C024  2  1.05119  0.72121  0.62848 11.00000  0.00858   4.49
C025  2  0.22462  0.47009  0.45936 11.00000  0.00010   4.42
C026  2  1.24943  0.81190  0.82162 11.00000  0.00010   4.42
O027  4 -0.18758  1.12132  0.24769 11.00000  0.01401   4.40
C028  2  0.37638  0.95019  0.16396 11.00000  0.01010   4.32
C029  2  0.10882  0.93689  0.35487 11.00000  0.00213   4.27
C02A  2 -0.21820  0.62498  0.29703 11.00000  0.01859   4.24
C02B  2  1.21326  0.64273  0.83604 11.00000  0.00010   4.17
C02C  2  0.49430  0.86043  0.20973 11.00000  0.05900   4.17
C02D  2  1.16620  0.70370  0.62473 11.00000  0.00010   4.15
N02E  3 -0.34252  1.06909  0.45232 11.00000  0.00010   4.07
C02F  2 -0.50286  0.89865  0.36342 11.00000  0.06244   4.07
C02G  2  0.98919  0.39101  0.59434 11.00000  0.00010   4.01
C02H  2  0.28892  0.82191  0.48257 11.00000  0.01557   3.98
C02I  2  0.04765  0.81463  0.25742 11.00000  0.09446   3.97
C02J  2  1.59583  0.59421  0.60515 11.00000  0.00010   3.97
C02K  2  1.58513  0.85065  0.75280 11.00000  0.01445   3.97
C02L  2  0.48151  0.70059  0.48517 11.00000  0.01350   3.96
C02M  2  1.57599  0.53951  0.57183 11.00000  0.04248   3.95
C02N  2  1.12661  0.44781  0.61322 11.00000  0.02708   3.94
C02O  2  0.11476  0.90866  0.26984 11.00000  0.01112   3.93
C02P  2  1.09678  0.24104  0.49110 11.00000  0.03608   3.91
C02Q  2  0.06244  0.87479  0.41897 11.00000  0.00600   3.85
C02R  2 -0.55093  1.00352  0.34605 11.00000  0.00010   3.71
C02S  2 -0.10707  0.73211  0.34589 11.00000  0.04110   3.69
C02T  2  0.77405  0.22529  0.57995 11.00000  0.02154   3.68
C02U  2  0.41570  0.50625  0.44767 11.00000  0.00010   3.68
C02V  2  1.21542 -0.14715  0.62642 11.00000  0.00446   3.67
C02W  2  0.95480  0.48727  0.52758 11.00000  0.03703   3.67
C02X  2  1.19126  0.35249  0.53667 11.00000  0.03195   3.65
C02Y  2  0.73634  0.78171  0.69495 11.00000  0.00629   3.60
C02Z  2 -0.32567  1.14715  0.41354 11.00000  0.00942   3.58
C030  2  1.44286  0.78715  0.65561 11.00000  0.01987   3.56
C031  2  0.94391  0.41892  0.45081 11.00000  0.01163   3.53
C032  2  0.16811  0.88647  0.22042 11.00000  0.00010   3.50
C033  2  0.91922  0.72165  0.57605 11.00000  0.01148   3.50
C034  2  1.06700  0.32875  0.52711 11.00000  0.00010   3.49
N035  3  1.54833  0.80324  0.74708 11.00000  0.08333   3.46
C036  2  0.28245  0.55174  0.35724 11.00000  0.00010   3.43
O037  4  0.15913  0.80611  0.47522 11.00000  0.05551   3.41
C038  2  0.68841  0.36497  0.47858 11.00000  0.04790   3.41
C039  2  0.80530  0.81653  0.58864 11.00000  0.00010   3.40
C03A  2  1.47205  0.77752  0.71441 11.00000  0.00010   3.28
C03B  2  0.67339  0.14466  0.60915 11.00000  0.03983   3.23
C03C  2  0.88770  0.31902  0.47795 11.00000  0.02682   3.18
C03D  2  1.35322  0.81998  0.77485 11.00000  0.00010   3.16
O03E  4 -0.40189  0.52405  0.31454 11.00000  0.02311   3.16
C03F  2  0.03720  0.68158  0.29489 11.00000  0.00084   3.16
C03G  2 -0.01591  1.08115  0.26399 11.00000  0.00010   3.15
C03H  2  1.14715  0.20132  0.73010 11.00000  0.06951   3.15
C03I  2  1.30721  0.18989  0.67587 11.00000  0.00465   3.11
HKLF 4
END
