TITL shelx03-merge_expF_0_8_expS_1_2_shelx03-merge_a.res in P1
REM Old TITL 1 in I 1 #-1
REM SHELXT solution in P1: R1 0.729, Rweak 0.391, Alpha 0.000
REM <I/s>   0.000 for    0 systematic absences,  Orientation as input
REM Flack x = -1.484 ( 0.544 ) from   368 Parsons' quotients
REM Formula found by SHELXT:  C75 N41 O48

CELL  0.71073   9.3100  15.1100  30.5000   90.000   90.000   90.000
ZERR   52.000   0.0019   0.0030   0.0061    0.000    0.000    0.000
LATT -2
SFAC H C N O ZR
UNIT 20 20 20 20 20
L.S. 10
BOND
LIST 6
FMAP 2
PLAN 20
ZR01  5  1.24832  0.17102  0.34996 11.00000  0.04428  32.68
ZR02  5  1.38137  0.15104  0.34432 11.00000  0.06245  29.18
ZR03  5  0.86314  0.16658  0.35147 11.00000  0.02157  28.37
ZR04  5  0.99504  0.16069  0.34895 11.00000  0.05269  26.12
ZR05  5  1.03873  0.13610  0.42199 11.00000  0.02510  24.34
N006  3  1.24855  0.13440  0.36630 11.00000  0.00355  22.15
O007  4  0.56483 -0.24433  0.40030 11.00000  0.00010  21.20
N008  3  0.93310  0.19622  0.35120 11.00000  0.00010  19.21
O009  4  0.40465  0.66600  0.73284 11.00000  0.00010  18.43
O00A  4  0.43940  0.71749  0.72825 11.00000  0.04543  17.93
O00B  4  1.43726  0.18850  0.33658 11.00000  0.02904  17.82
O00C  4  0.70723  0.15295  0.34729 11.00000  0.00725  17.77
O00D  4  1.05756  0.36467  0.41774 11.00000  0.00010  17.71
O00E  4  0.36676  0.29988  0.46028 11.00000  0.04441  16.85
N00F  3 -0.08632  0.67594  0.49282 11.00000  0.03004  16.24
O00G  4  1.07367  0.08027  0.37236 11.00000  0.00952  15.49
O00H  4  0.53752  0.59453  0.61252 11.00000  0.01564  14.23
C00I  2  0.92662  0.39464  0.38823 11.00000  0.00010  13.75
O00J  4  0.74893  0.08760  0.41271 11.00000  0.01918  13.60
N00K  3  0.49465  0.18037  0.47084 11.00000  0.00010  13.52
N00L  3  0.92712  0.17435  0.40816 11.00000  0.00010  13.45
N00M  3  1.10052  1.03163  0.58953 11.00000  0.00708  12.90
O00N  4  0.43605  0.72954  0.52279 11.00000  0.11504  12.78
N00O  3  0.43929 -0.21080  0.38181 11.00000  0.00071  12.69
O00P  4  0.48981  0.29625  0.56684 11.00000  0.05250  12.69
N00Q  3  1.54554  0.06341  0.35133 11.00000  0.05555  12.66
O00R  4  0.98522  0.36420  0.42717 11.00000  0.00010  12.52
N00S  3  0.27131  0.43810  0.56279 11.00000  0.00010  12.49
N00T  3  0.58992  0.11626  0.49540 11.00000  0.11189  12.49
N00U  3  0.66513  0.21656  0.47142 11.00000  0.00010  12.46
C00V  2  0.94240  0.71587  0.58719 11.00000  0.03052  12.01
O00W  4  0.17147  0.84966  0.77219 11.00000  0.00118  11.69
O00X  4  0.94004  1.12846  0.62492 11.00000  0.00010  11.38
N00Y  3  0.84325 -0.09249  0.48062 11.00000  0.00052  11.38
O00Z  4  0.39614 -0.35255  0.37290 11.00000  0.02014  11.11
O010  4  0.46615  0.77459  0.74054 11.00000  0.03309  10.69
O011  4  0.32279  0.19637  0.45326 11.00000  0.00358  10.51
O012  4  0.92016  1.24413  0.53344 11.00000  0.03652  10.23
O013  4  0.37181  0.97610  0.61193 11.00000  0.07876  10.23
N014  3  0.38628  0.04573  0.28939 11.00000  0.05624  10.11
O015  4 -0.22457  0.82505  0.77044 11.00000  0.00010  10.10
N016  3  0.81795  0.99340  0.56646 11.00000  0.14245   9.93
N017  3  0.24003  0.67831  0.52595 11.00000  0.01476   9.73
N018  3  0.45925 -0.13369  0.37743 11.00000  0.01899   9.71
O019  4  0.23979  0.51043  0.50621 11.00000  0.00843   9.68
O01A  4 -0.54554  0.56686  0.46902 11.00000  0.00505   9.65
N01B  3  0.67284  0.59279  0.59531 11.00000  0.00010   9.64
N01C  3  0.24945  0.76692  0.56324 11.00000  0.00531   9.51
N01D  3  1.19864 -0.10971  0.40982 11.00000  0.01912   9.42
O01E  4  0.68746  0.03558  0.40382 11.00000  0.00010   9.31
O01F  4  0.40923  0.62236  0.67913 11.00000  0.01188   9.29
O01G  4  0.13246  0.56750  0.59351 11.00000  0.02359   9.28
O01H  4  0.82182  0.16079  0.45700 11.00000  0.00948   9.25
O01I  4  0.76647  0.04362  0.31452 11.00000  0.00010   9.24
O01J  4  0.48191  1.18300  0.68908 11.00000  0.09486   9.16
N01K  3  0.40670 -0.09204  0.44014 11.00000  0.14745   9.00
O01L  4  0.45533  0.75405  0.57034 11.00000  0.00473   8.97
O01M  4  0.16188  1.06913  0.81424 11.00000  0.05410   8.93
N01N  3  0.71297  0.84583  0.54129 11.00000  0.00010   8.91
O01O  4  0.68902 -0.21825  0.42682 11.00000  0.11183   8.76
N01P  3  1.18211  0.04808  0.38697 11.00000  0.00356   8.73
C01Q  2  0.28457  0.28259  0.56318 11.00000  0.00010   8.63
O01R  4  1.04012  1.19098  0.62651 11.00000  0.03948   8.59
N01S  3  0.15713  0.91367  0.60888 11.00000  0.00010   8.46
O01T  4  0.15018  1.20955  0.77697 11.00000  0.03264   8.31
N01U  3  0.69936  0.09602  0.28791 11.00000  0.00786   8.25
O01V  4  0.96337  1.07735  0.60350 11.00000  0.00010   8.20
O01W  4  1.49041  0.05610  0.36317 11.00000  0.06162   8.16
O01X  4  0.69043 -0.10415  0.42254 11.00000  0.03975   8.14
C01Y  2  0.70160 -0.25930  0.45646 11.00000  0.01595   8.05
O01Z  4  0.83603  0.25193  0.41688 11.00000  0.00010   8.03
O020  4  0.48507  0.54245  0.68404 11.00000  0.05918   8.02
N021  3  0.22551 -0.08362  0.34978 11.00000  0.00010   7.92
O022  4  1.48300  0.10697  0.39030 11.00000  0.01115   7.89
O023  4  0.75260  1.26399  0.57696 11.00000  0.12337   7.84
N024  3  1.13304 -0.01996  0.42878 11.00000  0.00010   7.78
O025  4 -0.12931  0.95368  0.81243 11.00000  0.00010   7.59
N026  3  1.08651  1.08195  0.62184 11.00000  0.00010   7.48
O027  4  0.29970  0.50655  0.58151 11.00000  0.00010   7.34
C028  2  0.56383  0.31009  0.61023 11.00000  0.00611   7.34
N029  3  0.60854 -0.04450  0.48830 11.00000  0.02650   7.30
C02A  2  0.89429  0.39827  0.61484 11.00000  0.00010   7.27
N02B  3  0.54406  0.81575  0.62677 11.00000  0.00010   7.26
C02C  2  0.23973 -0.21112  0.36689 11.00000  0.00010   7.23
C02D  2  0.28662  0.70278  0.50094 11.00000  0.00010   7.18
N02E  3  0.52889 -0.06096  0.34779 11.00000  0.02282   7.17
N02F  3  0.51238  0.53892  0.59208 11.00000  0.00010   7.12
O02G  4  0.24116  0.90232  0.79553 11.00000  0.18008   7.04
N02H  3  0.76374  0.40966  0.59959 11.00000  0.02775   6.95
C02I  2  0.29131  0.93260  0.60782 11.00000  0.00010   6.95
N02J  3  0.06316  0.57456  0.55356 11.00000  0.07745   6.95
N02K  3  0.65982  0.31802  0.39360 11.00000  0.00876   6.94
N02L  3  0.59911  0.78701  0.52428 11.00000  0.00010   6.85
O02M  4  0.54318  1.15010  0.60578 11.00000  0.09826   6.77
N02N  3  0.13821  0.81074  0.52842 11.00000  0.01305   6.75
N02O  3  0.23894 -0.05125  0.20846 11.00000  0.00324   6.55
O02P  4  0.73516  1.14650  0.54846 11.00000  0.10074   6.55
N02Q  3  0.30529  0.26248  0.50930 11.00000  0.00010   6.42
C02R  2  0.28133  0.78745  0.74303 11.00000  0.00010   6.42
C02S  2  0.27566  1.37915  0.74325 11.00000  0.00203   6.40
C02T  2  1.00353  1.33058  0.54911 11.00000  0.00323   6.36
N02U  3  0.09565 -0.20870  0.34959 11.00000  0.00010   6.35
C02V  2  0.18951  0.84778  0.59896 11.00000  0.01496   6.27
C02W  2 -0.11285  0.66761  0.73028 11.00000  0.14234   6.21
C02X  2 -0.44068  0.52243  0.46321 11.00000  0.00010   5.85
N02Y  3  0.56640  0.39677  0.61986 11.00000  0.00010   5.84
C02Z  2  0.28188  0.37573  0.57570 11.00000  0.00343   5.83
C030  2  0.15073 -0.00045  0.26303 11.00000  0.00632   5.83
C031  2  0.77142 -0.37915  0.42906 11.00000  0.01588   5.69
C032  2  0.15686 -0.06351  0.33051 11.00000  0.00010   5.64
C033  2  0.26484  1.15316  0.75560 11.00000  0.00164   5.54
C034  2  0.06815  1.01153  0.71489 11.00000  0.00010   5.52
C035  2  0.63324  0.01390  0.51731 11.00000  0.00292   5.50
C036  2  0.11328  0.87075  0.52450 11.00000  0.00010   5.48
C037  2  0.04802 -0.26365  0.36486 11.00000  0.05984   5.43
C038  2  0.18026  0.43010  0.59919 11.00000  0.00010   5.30
C039  2  0.54199  0.75356  0.68853 11.00000  0.10805   5.24
C03A  2  0.65575  0.80441  0.56839 11.00000  0.00014   5.20
C03B  2  0.60720 -0.06277  0.43596 11.00000  0.11568   5.19
C03C  2  0.81495 -0.04601  0.32999 11.00000  0.00010   5.15
C03D  2  0.86664  1.22004  0.59972 11.00000  0.06230   5.13
C03E  2 -0.13691  0.58641  0.54882 11.00000  0.02006   5.13
C03F  2  0.04170  0.81965  0.74075 11.00000  0.00400   5.08
C03G  2 -0.44236  1.00208  0.80502 11.00000  0.00010   5.08
C03H  2  0.26483  0.90939  0.68272 11.00000  0.06709   5.07
C03I  2 -0.46326  0.46464  0.50644 11.00000  0.00010   5.03
C03J  2  0.48556  0.35679  0.62485 11.00000  0.04578   5.01
C03K  2  0.45904  0.28559  0.40999 11.00000  0.00019   5.01
C03L  2  0.28288  1.03025  0.71664 11.00000  0.00010   4.99
C03M  2 -0.07479  0.79505  0.74436 11.00000  0.04965   4.95
O03N  4  0.86428  1.36136  0.54104 11.00000  0.00010   4.94
C03O  2 -0.03678  0.07299  0.27977 11.00000  0.02938   4.94
C03P  2  0.85517  0.77826  0.53904 11.00000  0.01199   4.86
C03Q  2 -0.23265  0.53740  0.52706 11.00000  0.00010   4.82
C03R  2  1.22682  1.15387  0.64540 11.00000  0.01072   4.65
C03S  2  0.11177 -0.00844  0.26933 11.00000  0.00010   4.46
C03T  2  0.30045  0.75879  0.51029 11.00000  0.04847   4.29
C03U  2  1.01670 -0.17144  0.40894 11.00000  0.01109   4.26
C03V  2  0.62161  0.71792  0.62989 11.00000  0.00010   4.25
C03W  2  0.84381 -0.13707  0.47210 11.00000  0.00010   4.22
C03X  2  0.98164 -0.18994  0.43478 11.00000  0.01500   4.18
N03Y  3  0.38080  0.86835  0.64565 11.00000  0.00010   4.17
C03Z  2  0.79863 -0.15486  0.34993 11.00000  0.00010   4.13
C040  2 -0.27978  0.49199  0.49692 11.00000  0.00010   4.08
C041  2  0.50486  0.42714  0.59257 11.00000  0.01196   4.06
C042  2  0.29057  0.02478  0.30988 11.00000  0.01704   4.03
C043  2 -0.37468  0.44268  0.42665 11.00000  0.04805   4.01
O044  4  0.10340  0.57159  0.43307 11.00000  0.06244   3.97
C045  2  0.81032  0.88646  0.55544 11.00000  0.10729   3.92
C046  2  0.64084  0.16706  0.28298 11.00000  0.06223   3.82
C047  2  0.17018  0.65710  0.45352 11.00000  0.15243   3.79
C048  2  0.46465  1.06305  0.60303 11.00000  0.00010   3.68
C049  2  0.89499 -0.10589  0.37723 11.00000  0.00204   3.66
C04A  2  0.77145  0.56651  0.60992 11.00000  0.00010   3.57
C04B  2  0.70577  1.16848  0.61778 11.00000  0.11747   3.55
C04C  2  0.53222  0.90303  0.55175 11.00000  0.05757   3.51
C04D  2  0.23821  1.24390  0.74326 11.00000  0.13589   3.39
C04E  2  0.07544  1.30658  0.80458 11.00000  0.01951   3.32
C04F  2  0.27694  0.40741  0.49160 11.00000  0.07265   3.31
C04G  2  0.40775 -0.07599  0.34742 11.00000  0.12152   3.31
C04H  2 -0.00217  0.59664  0.48151 11.00000  0.00594   3.19
C04I  2  0.27257 -0.19977  0.18576 11.00000  0.10692   3.19
C04J  2  0.02281  0.53212  0.51309 11.00000  0.01365   3.19
C04K  2  0.86539  1.13193  0.62457 11.00000  0.08764   3.19
C04L  2  0.95958  0.42176  0.61742 11.00000  0.00010   3.16
C04M  2  0.72899 -0.30405  0.37124 11.00000  0.01082   3.13
C04N  2  0.42549  1.31900  0.77642 11.00000  0.02033   3.09
C04O  2  0.75793  0.53801  0.64807 11.00000  0.05983   3.03
C04P  2  0.73957 -0.18306  0.43019 11.00000  0.09303   3.00
HKLF 4
END
