TITL shelx03-merge_expF_1_4_expS_1_2_shelx03-merge_a.res in P1
REM Old TITL 1 in I 1 #-1
REM SHELXT solution in P1: R1 0.891, Rweak 0.519, Alpha 0.000
REM <I/s>   0.000 for    0 systematic absences,  Orientation as input
REM Flack x = -6.269 ( 0.748 ) from   446 Parsons' quotients
REM Formula found by SHELXT:  C31 N12 O23

CELL  0.71073   9.3100  15.1100  30.5000   90.000   90.000   90.000
ZERR   52.000   0.0019   0.0030   0.0061    0.000    0.000    0.000
LATT -2
SFAC H C N O ZR CL
UNIT 20 20 20 20 20 0
L.S. 10
BOND
LIST 6
FMAP 2
PLAN 20
CL01  6  0.71334  0.63623  0.53265 11.00000  0.06023  15.60
CL02  6  1.16753  0.47884  0.45732 11.00000  0.05374  15.22
CL03  6  0.51210  0.60365  0.53782 11.00000  0.02509  14.90
C004  2  0.59763  0.45168  0.60644 11.00000  0.00010  14.52
CL05  6  0.70907  0.18843  0.29977 11.00000  0.05121  14.40
CL06  6  0.88208  0.62490  0.52497 11.00000  0.08901  14.14
CL07  6  0.58038  0.16616  0.29294 11.00000  0.03602  14.01
CL08  6  1.07573  0.71133  0.44562 11.00000  0.01470  13.72
CL09  6  0.39464  0.62101  0.53062 11.00000  0.04368  13.62
CL0A  6  0.07971  0.14892  0.62942 11.00000  0.04976  13.33
CL0B  6  0.96784  0.16874  0.29670 11.00000  0.01542  12.78
CL0C  6  1.08311  0.51266  0.44303 11.00000  0.04548  12.72
CL0D  6  1.07470  0.20519  0.30671 11.00000  0.04629  12.18
O00E  4  0.30001  0.66683  0.54261 11.00000  0.02376  11.89
N00F  3  0.36930  0.58732  0.54598 11.00000  0.04343  11.81
O00G  4  0.83368  0.18784  0.29161 11.00000  0.00638  11.62
O00H  4  1.26483  0.88615  0.38665 11.00000  0.00631  11.48
O00I  4  0.46087  0.52895  0.58783 11.00000  0.00010  11.45
O00J  4  0.98999  0.56863  0.44080 11.00000  0.04290  11.21
O00K  4  0.70686  0.14957  0.61735 11.00000  0.00010  11.14
O00L  4  0.61559  0.46062  0.58130 11.00000  0.00569  10.89
N00M  3  0.22061  0.09324  0.62197 11.00000  0.05738  10.53
O00N  4  0.16420  0.52123  0.56150 11.00000  0.03223  10.24
N00O  3  0.25322  0.55104  0.57509 11.00000  0.00010   9.95
C00P  2  1.35365  0.89893  0.38160 11.00000  0.00010   9.49
O00Q  4  1.02365  0.77813  0.44850 11.00000  0.00010   9.42
O00R  4  0.65878  0.64410  0.33075 11.00000  0.00427   9.32
C00S  2  0.57158  0.18011  0.63440 11.00000  0.00010   9.25
O00T  4  0.64264  0.29398  0.33744 11.00000  0.03719   8.84
O00U  4  0.61919  0.60660  0.46880 11.00000  0.05076   8.81
O00V  4  0.86747  0.67092  0.39765 11.00000  0.04583   8.45
O00W  4  0.07091  0.63617  0.56798 11.00000  0.00010   7.73
N00X  3  0.64511  0.42382  0.33426 11.00000  0.00110   7.69
O00Y  4  1.27808  0.63136  0.40722 11.00000  0.00445   7.69
O00Z  4  0.30037  0.79551  0.53469 11.00000  0.05736   7.52
O010  4  0.89511  0.05729  0.26221 11.00000  0.00424   7.45
O011  4  0.52100  0.49625  0.48618 11.00000  0.00010   7.30
N012  3  0.64811  0.09132  0.72165 11.00000  0.00010   7.30
O013  4  0.44347  0.15364  0.72264 11.00000  0.07458   7.23
C014  2  0.72458  0.45741  0.47915 11.00000  0.00010   7.16
N015  3  1.09052  0.84682  0.46016 11.00000  0.00901   6.91
N016  3  0.61014  0.75388  0.46936 11.00000  0.01219   6.91
N017  3  0.37262  0.20439  0.30245 11.00000  0.00010   6.76
N018  3 -0.25917  0.66546  0.65710 11.00000  0.00010   6.73
N019  3  1.11103  0.21700  0.33806 11.00000  0.04619   6.54
N01A  3  0.46678  0.53795  0.40280 11.00000  0.00010   6.54
C01B  2 -0.22702  0.56025  0.69590 11.00000  0.00010   6.28
C01C  2 -0.03001  0.54632  0.58118 11.00000  0.00010   6.13
C01D  2  0.29781  0.13741  0.64291 11.00000  0.00046   6.09
C01E  2  0.62693  0.34470  0.32933 11.00000  0.00010   6.05
C01F  2  0.13920  0.27699  0.65429 11.00000  0.02356   5.97
C01G  2  0.52941  0.56306  0.45658 11.00000  0.01926   5.94
C01H  2  0.65844  0.46460  0.33239 11.00000  0.00010   5.78
C01I  2  1.27663  0.59309  0.44202 11.00000  0.00697   5.65
C01J  2  0.20665  0.40942  0.62043 11.00000  0.01353   5.62
C01K  2 -0.35365  0.64233  0.66205 11.00000  0.02251   5.43
C01L  2 -0.06080  0.43825  0.70132 11.00000  0.00010   5.42
C01M  2  0.42626  0.78703  0.54422 11.00000  0.00010   5.39
O01N  4  0.69825  0.29109  0.53111 11.00000  0.00010   5.25
C01O  2  0.90286  0.89132  0.38861 11.00000  0.00010   5.12
O01P  4  0.56675  0.89992  0.52491 11.00000  0.00204   4.86
C01Q  2  0.56137  0.61642  0.30102 11.00000  0.02355   4.80
C01R  2  0.31768  0.17084  0.55762 11.00000  0.00010   4.76
C01S  2  0.53054  0.94965  0.53434 11.00000  0.00010   4.69
N01T  3  1.12176  0.90849  0.31811 11.00000  0.08814   4.65
C01U  2  0.17968  0.40341  0.72860 11.00000  0.00010   4.46
C01V  2  0.79001  0.27942  0.31814 11.00000  0.00848   4.24
C01W  2  0.70631  0.33088  0.32897 11.00000  0.01354   4.14
C01X  2  0.91652  0.34877  0.53327 11.00000  0.00010   4.10
C01Y  2  0.34375  0.88607  0.49965 11.00000  0.00818   4.00
C01Z  2  1.10423  0.69302  0.47895 11.00000  0.00205   3.85
C020  2  0.85904  0.54935  0.44843 11.00000  0.03412   3.83
O021  4  0.62629  0.05035  0.72339 11.00000  0.00010   3.80
C022  2  0.44536  0.30456  0.36929 11.00000  0.01860   3.78
C023  2  0.40264  0.27159  0.73779 11.00000  0.00859   3.62
O024  4  0.70963  0.12279  0.72265 11.00000  0.00010   3.61
C025  2  0.97081  0.48211  0.37844 11.00000  0.01825   3.26
C026  2  0.89874  0.34961  0.50351 11.00000  0.00010   3.15
HKLF 4
END
