TITL shelx03-merge_expF_1_5_expS_0_5_shelx03-merge_a.res in P1
REM Old TITL 1 in I 1 #-1
REM SHELXT solution in P1: R1 0.923, Rweak 0.058, Alpha 0.000
REM <I/s>   0.000 for    0 systematic absences,  Orientation as input
REM Flack x = -9.990 ( 0.870 ) from  1218 Parsons' quotients
REM Formula found by SHELXT:  C23 N12 O14

CELL  0.71073   9.3100  15.1100  30.5000   90.000   90.000   90.000
ZERR   52.000   0.0019   0.0030   0.0061    0.000    0.000    0.000
LATT -2
SFAC H C N O ZR CL
UNIT 20 20 20 20 20 0
L.S. 10
BOND
LIST 6
FMAP 2
PLAN 20
CL01  6 -0.34904  0.34768  0.73804 11.00000  0.13828  17.13
CL02  6 -0.24724  0.35551  0.73713 11.00000  0.08469  16.69
CL03  6  0.25333  0.36510  0.73328 11.00000  0.05605  15.33
CL04  6  0.06377  0.37265  0.74506 11.00000  0.07084  14.79
CL05  6  0.16206  0.34985  0.73857 11.00000  0.04577  14.47
CL06  6  0.87976  0.45465  0.44027 11.00000  0.06148  14.11
CL07  6  0.38283  0.36036  0.73575 11.00000  0.05658  13.59
CL08  6  0.75058  0.36423  0.41637 11.00000  0.07567  12.87
CL09  6  1.33369  0.36296  0.39072 11.00000  0.10862  12.80
CL0A  6  1.40705  0.42353  0.32837 11.00000  0.14549  12.79
CL0B  6  0.79396  0.47397  0.46207 11.00000  0.09566  12.52
O00C  4  0.68694  0.44678  0.40222 11.00000  0.02743  12.25
O00D  4  1.18250  0.29739  0.38603 11.00000  0.04891  11.98
N00E  3  0.64123  0.54197  0.47411 11.00000  0.03885  11.21
O00F  4 -0.06305  0.35601  0.73975 11.00000  0.07904  10.83
O00G  4  1.22303  0.35226  0.39742 11.00000  0.07311  10.53
O00H  4  0.75209  0.51653  0.28198 11.00000  0.04902  10.04
CL0I  6  0.72289  0.45745  0.28708 11.00000  0.15217  10.03
C00J  2  0.50321  0.49654  0.49253 11.00000  0.04292   9.75
O00K  4  1.06806  0.41370  0.43526 11.00000  0.04092   9.51
C00L  2  0.00104  0.36387  0.62782 11.00000  0.00010   9.45
O00M  4  0.87257  0.42765  0.27855 11.00000  0.03297   9.06
C00N  2  1.19878  0.66334  0.36575 11.00000  0.02769   8.97
O00O  4  0.65598  0.28546  0.37384 11.00000  0.02903   8.26
O00P  4  0.86102  0.29805  0.45130 11.00000  0.16390   7.62
C00Q  2 -0.25225  0.37339  0.58674 11.00000  0.09592   7.56
O00R  4  0.45072  0.50872  0.68385 11.00000  0.07037   7.46
C00S  2  0.80561  0.58986  0.49749 11.00000  0.01863   7.33
N00T  3  0.99234  0.22729  0.45648 11.00000  0.02756   7.07
N00U  3  0.18240  0.35624  0.62736 11.00000  0.07445   6.96
N00V  3  0.74612  0.56752  0.43192 11.00000  0.05622   6.95
O00W  4  0.85350  0.65124  0.46198 11.00000  0.06820   6.47
C00X  2  1.20004  0.41874  0.16360 11.00000  0.06577   6.41
C00Y  2  1.00988  0.55676  0.55913 11.00000  0.01319   6.26
C00Z  2  1.04364  0.32618  0.38292 11.00000  0.06549   6.24
C010  2  1.30707  0.44236  0.17445 11.00000  0.01586   6.22
O011  4  1.25993  0.63889  0.38736 11.00000  0.07896   6.17
C012  2  1.10101  0.51255  0.39549 11.00000  0.01816   6.10
C013  2  1.09412  0.71355  0.36902 11.00000  0.01841   6.09
O014  4  0.44380  0.56168  0.45851 11.00000  0.05115   5.94
C015  2  1.34482  0.39215  0.16086 11.00000  0.06672   5.92
C016  2  0.30718  0.37051  0.62276 11.00000  0.01013   5.84
C017  2  0.72711  0.56379  0.36539 11.00000  0.05629   5.77
N018  3  1.20868  0.73411  0.55756 11.00000  0.06533   5.76
O019  4  0.58503  0.49501  0.46970 11.00000  0.08779   5.62
N01A  3 -0.29690  0.34207  0.58078 11.00000  0.02502   5.45
N01B  3  0.40108  1.08574  0.51294 11.00000  0.07455   4.69
C01C  2  1.43139  0.68464  0.32070 11.00000  0.05102   4.54
C01D  2  0.45527  0.89935  0.51382 11.00000  0.03433   4.46
C01E  2  0.39911  0.75660  0.45723 11.00000  0.00010   4.32
C01F  2  0.33368  0.32874  0.55482 11.00000  0.09360   4.20
N01G  3  0.86041 -0.08574  0.49653 11.00000  0.06119   3.95
C01H  2  0.89791  0.14641  0.52917 11.00000  0.08701   3.85
C01I  2  1.41400  0.39459  0.40178 11.00000  0.10290   3.77
N01J  3  0.41378  0.18364  0.35509 11.00000  0.04324   3.64
N01K  3  0.55639  0.66346  0.76820 11.00000  0.08112   3.48
N01L  3  0.79564  0.54225  0.65976 11.00000  0.03511   3.41
C01M  2  0.92324  0.62216  0.57902 11.00000  0.03875   3.37
N01N  3 -0.43139  0.43218  0.83914 11.00000  0.13787   3.32
C01O  2  0.21112  0.98025  0.56503 11.00000  0.07852   3.30
C01P  2  0.44294  0.39191  0.48374 11.00000  0.05912   3.26
HKLF 4
END
