TITL shelx03-merge_expF_1_0_expS_1_2_shelx03-merge_a.res in P1
REM Old TITL 1 in I 1 #-1
REM SHELXT solution in P1: R1 0.685, Rweak 0.429, Alpha 0.000
REM <I/s>   0.000 for    0 systematic absences,  Orientation as input
REM Flack x = -1.240 ( 1.024 ) from   430 Parsons' quotients
REM Formula found by SHELXT:  C68 N32 O30

CELL  0.71073   9.3100  15.1100  30.5000   90.000   90.000   90.000
ZERR   52.000   0.0019   0.0030   0.0061    0.000    0.000    0.000
LATT -2
SFAC H C N O ZR CL
UNIT 20 20 20 20 20 0
L.S. 10
BOND
LIST 6
FMAP 2
PLAN 20
CL01  6  0.12836  0.89389  0.52373 11.00000  0.05468  22.01
CL02  6  0.25789  0.88804  0.52146 11.00000  0.05126  21.58
CL03  6 -0.24704  0.90921  0.52921 11.00000  0.07370  21.16
CL04  6 -0.13410  0.88529  0.52435 11.00000  0.03688  21.03
CL05  6 -0.39016  0.90211  0.52988 11.00000  0.06797  19.08
CL06  6  0.37838  0.90223  0.52490 11.00000  0.05797  17.61
CL07  6  0.01220  0.73698  0.57487 11.00000  0.06152  16.43
O008  4  0.40205  0.73759  0.47697 11.00000  0.00010  15.39
CL09  6  0.00835  0.86892  0.52654 11.00000  0.05725  13.12
CL0A  6  0.30206  0.58356  0.52685 11.00000  0.06996  13.11
CL0B  6 -0.24342  0.81212  0.55095 11.00000  0.08270  12.71
CL0C  6 -0.63744  0.49116  0.74891 11.00000  0.06296  12.52
O00D  4  0.35638  0.52910  0.58120 11.00000  0.03868  12.47
O00E  4 -0.22651  0.74148  0.60419 11.00000  0.00032  12.02
N00F  3 -0.01702  0.92821  0.54678 11.00000  0.01869  12.01
N00G  3 -0.72262  0.40404  0.76154 11.00000  0.00010  11.91
N00H  3 -0.08044  0.78078  0.58566 11.00000  0.01689  11.70
O00I  4  0.93511  0.26600  0.32081 11.00000  0.02914  11.64
N00J  3  0.07139  0.82604  0.51951 11.00000  0.00010  11.23
O00K  4  0.18796  0.63280  0.52843 11.00000  0.03973  11.22
O00L  4  0.57234  0.64426  0.48391 11.00000  0.03384  10.87
N00M  3 -0.36778  0.88276  0.67262 11.00000  0.06209  10.83
N00N  3  0.47623  0.69654  0.48348 11.00000  0.01451  10.75
O00O  4  0.76880  0.69884  0.43640 11.00000  0.01753  10.67
O00P  4 -0.68564  0.45874  0.75685 11.00000  0.06448  10.34
C00Q  2 -0.62999  0.21674  0.75107 11.00000  0.00898  10.17
O00R  4  1.72093  0.39046  0.13970 11.00000  0.03538  10.03
O00S  4 -0.21883  0.59643  0.55944 11.00000  0.05345   9.85
N00T  3 -0.72654  0.16611  0.73469 11.00000  0.00642   9.81
C00U  2 -0.52011  0.54414  0.67564 11.00000  0.07962   9.75
O00V  4  1.38825  0.43851  0.32810 11.00000  0.02648   9.61
O00W  4  0.80578  0.92003  0.40187 11.00000  0.02228   9.55
N00X  3 -0.49621  0.48919  0.71024 11.00000  0.00564   9.52
O00Y  4  1.58271  0.50581  0.34585 11.00000  0.00229   9.30
N00Z  3 -0.37596  0.42324  0.70631 11.00000  0.00981   9.28
O010  4  0.22818  0.40883  0.57059 11.00000  0.03717   9.26
O011  4  0.10613  0.69850  0.57375 11.00000  0.02690   9.26
O012  4 -0.34436  0.66532  0.67160 11.00000  0.01005   9.10
C013  2 -0.41446  0.36163  0.68042 11.00000  0.00010   8.69
N014  3  1.17345  0.43865  0.38231 11.00000  0.02911   8.65
N015  3 -0.08192  0.79737  0.55347 11.00000  0.03786   8.57
O016  4 -0.28592  0.39632  0.61850 11.00000  0.04531   8.38
N017  3 -0.60070  0.42116  0.76341 11.00000  0.07621   8.26
N018  3  1.10946  0.37355  0.36967 11.00000  0.02453   8.16
O019  4  1.88031  0.43693  0.14039 11.00000  0.08466   8.09
C01A  2 -0.63498  0.31762  0.74905 11.00000  0.02662   8.03
O01B  4  1.52458  0.39638  0.31047 11.00000  0.08936   7.80
O01C  4 -0.34118  0.76808  0.61112 11.00000  0.02085   7.79
O01D  4  0.40207  0.16397  0.54003 11.00000  0.02542   7.71
O01E  4  1.65948  0.30055  0.14562 11.00000  0.06372   7.66
O01F  4 -0.49265  0.78440  0.64506 11.00000  0.05346   7.57
O01G  4  1.22991  0.43399  0.22997 11.00000  0.11240   7.55
O01H  4  1.22990  0.06839  0.38139 11.00000  0.11400   7.54
C01I  2  1.66478  0.44314  0.34434 11.00000  0.02502   7.41
O01J  4  1.78664  0.42389  0.18913 11.00000  0.12738   7.39
N01K  3  0.43370  0.49927  0.59229 11.00000  0.02773   7.36
N01L  3 -0.28615  0.89087  0.62897 11.00000  0.00583   7.32
N01M  3 -0.54795  0.71900  0.68475 11.00000  0.00010   7.28
N01N  3  0.06814  0.70082  0.51212 11.00000  0.00010   7.24
N01O  3 -0.11256  0.57409  0.56931 11.00000  0.01858   7.22
N01P  3 -0.16027  0.89165  0.59786 11.00000  0.03792   7.16
N01Q  3  1.04462  0.24100  0.32383 11.00000  0.09336   7.14
C01R  2  1.16764  0.11796  0.39366 11.00000  0.01940   6.99
N01S  3  0.27849  0.73605  0.59044 11.00000  0.04251   6.94
C01T  2  0.89539  0.61984  0.43138 11.00000  0.00631   6.88
N01U  3  0.24086  0.74544  0.47726 11.00000  0.07626   6.85
N01V  3 -0.02269  0.40197  0.61740 11.00000  0.07561   6.70
N01W  3 -0.02880  0.76291  0.46281 11.00000  0.00112   6.64
C01X  2  1.01698  0.34734  0.37511 11.00000  0.05027   6.43
N01Y  3 -0.63016  0.26149  0.75112 11.00000  0.00010   6.35
N01Z  3  0.86992  0.69137  0.41869 11.00000  0.00028   6.19
C020  2  1.61280  0.40844  0.14366 11.00000  0.02401   6.11
C021  2  1.49637  0.25556  0.28656 11.00000  0.04288   6.07
C022  2 -0.83596  0.18287  0.71542 11.00000  0.00422   6.02
O023  4  0.95594  0.06147  0.38279 11.00000  0.04631   5.93
C024  2 -0.46051  0.40627  0.75650 11.00000  0.01211   5.88
C025  2 -0.10163  0.48953  0.57245 11.00000  0.02581   5.86
C026  2 -0.67373  0.58676  0.71042 11.00000  0.00146   5.81
C027  2  0.33577  0.44973  0.58755 11.00000  0.00566   5.79
C028  2  1.18295  0.37906  0.44594 11.00000  0.02377   5.66
C029  2  0.46833  0.51079  0.53622 11.00000  0.00781   5.64
C02A  2  0.37291  0.76243  0.57919 11.00000  0.00010   5.56
C02B  2  0.09431  0.44998  0.57567 11.00000  0.03041   5.54
O02C  4  0.64304  0.73558  0.45370 11.00000  0.05889   5.52
C02D  2 -0.24775  0.41171  0.68922 11.00000  0.05084   5.43
N02E  3 -0.87294  0.12200  0.73530 11.00000  0.02273   5.33
C02F  2 -0.39789  0.60882  0.67908 11.00000  0.01266   5.23
C02G  2  1.46718  0.32936  0.30788 11.00000  0.06250   5.18
C02H  2  0.87988  0.82027  0.40472 11.00000  0.01255   5.16
C02I  2 -0.13178  0.23339  0.79352 11.00000  0.00308   5.16
C02J  2 -0.31131  0.12323  0.76907 11.00000  0.00010   5.16
N02K  3  1.47380  0.10383  0.31506 11.00000  0.00876   5.15
C02L  2  1.09018  0.12371  0.32883 11.00000  0.00634   5.12
O02M  4 -0.44944  0.31798  0.68784 11.00000  0.03625   5.12
C02N  2 -0.05157  0.89405  0.59666 11.00000  0.00010   5.09
C02O  2 -0.84774  0.37750  0.71122 11.00000  0.01672   5.07
C02P  2 -0.13230  0.34258  0.63205 11.00000  0.01455   5.04
C02Q  2  1.12331  0.42527  0.26481 11.00000  0.00957   5.03
C02R  2 -0.49857  0.43830  0.83831 11.00000  0.00010   5.01
C02S  2 -0.46295  0.21917  0.75076 11.00000  0.00015   5.00
C02T  2  1.51780  0.37502  0.34598 11.00000  0.00010   4.80
C02U  2  0.01390  0.20671  0.84451 11.00000  0.01005   4.79
C02V  2  0.62497  0.53090  0.43864 11.00000  0.01271   4.78
N02W  3 -0.33199  0.28146  0.81780 11.00000  0.01776   4.75
C02X  2 -0.10019  0.48904  0.63232 11.00000  0.01270   4.65
O02Y  4  1.62922  0.29350  0.27470 11.00000  0.02764   4.61
C02Z  2 -0.09665  0.13436  0.82193 11.00000  0.00010   4.61
C030  2  1.62878  0.39389  0.35754 11.00000  0.02455   4.60
C031  2 -0.84104  0.23439  0.71445 11.00000  0.00010   4.59
C032  2 -0.24851  0.80783  0.68201 11.00000  0.01708   4.51
C033  2  0.89613  0.23516  0.49396 11.00000  0.01887   4.35
N034  3  0.28261  0.78982  0.40536 11.00000  0.03294   4.30
C035  2  0.62460  0.84838  0.39188 11.00000  0.00117   4.29
C036  2  1.70118  0.17343  0.28059 11.00000  0.00524   4.23
C037  2  1.01986  0.47303  0.40229 11.00000  0.01055   4.22
C038  2  1.37597  0.40129  0.23359 11.00000  0.03724   4.16
N039  3  0.20669  0.62192  0.46354 11.00000  0.02893   3.99
C03A  2  0.24921  0.11214  0.53920 11.00000  0.06546   3.93
C03B  2 -0.09755  0.54045  0.65074 11.00000  0.00010   3.92
C03C  2  0.32070  0.82355  0.55650 11.00000  0.00010   3.88
C03D  2  0.13022  0.68023  0.45764 11.00000  0.03985   3.87
C03E  2 -0.38974  0.38882  0.82598 11.00000  0.03710   3.86
C03F  2 -0.88031  0.13192  0.65890 11.00000  0.01166   3.79
C03G  2 -0.47750  0.10090  0.86030 11.00000  0.00528   3.72
C03H  2  0.09715  0.40858  0.59449 11.00000  0.00808   3.71
C03I  2 -0.86914  0.33130  0.68823 11.00000  0.00010   3.61
C03J  2  0.23343  0.25668  0.52504 11.00000  0.03970   3.60
C03K  2  1.48137  0.16385  0.28492 11.00000  0.05447   3.56
C03L  2 -0.30727  0.19538  0.80415 11.00000  0.03831   3.48
C03M  2  1.18702  0.38094  0.31293 11.00000  0.00010   3.47
C03N  2  1.53154  0.40311  0.19283 11.00000  0.02121   3.47
C03O  2  0.84195  0.13614  0.38675 11.00000  0.00397   3.41
C03P  2  0.06634  0.58667  0.65081 11.00000  0.03626   3.39
C03Q  2  0.73053  0.21322  0.47546 11.00000  0.00010   3.37
C03R  2 -0.76395  0.27163  0.73097 11.00000  0.00072   3.34
N03S  3  0.91865  0.53377  0.42986 11.00000  0.00010   3.30
C03T  2 -0.31899  0.09834  0.83612 11.00000  0.00525   3.28
C03U  2  0.05243  0.47248  0.54977 11.00000  0.00079   3.20
C03V  2 -0.19561  0.93853  0.58974 11.00000  0.05568   3.09
C03W  2 -0.34161  0.64546  0.55426 11.00000  0.02535   3.08
C03X  2 -0.35584  0.33266  0.82444 11.00000  0.00314   3.06
HKLF 4
END
