TITL shelx03-merge_expF_0_7_expS_1_4_shelx03-merge_a.res in P1
REM Old TITL 1 in I 1 #-1
REM SHELXT solution in P1: R1 0.727, Rweak 0.138, Alpha 0.000
REM <I/s>   0.000 for    0 systematic absences,  Orientation as input
REM Flack x =  0.196 ( 0.465 ) from   314 Parsons' quotients
REM Formula found by SHELXT:  C81 N21 O35

CELL  0.71073   9.3100  15.1100  30.5000   90.000   90.000   90.000
ZERR   52.000   0.0019   0.0030   0.0061    0.000    0.000    0.000
LATT -2
SFAC H C N O ZR CL
UNIT 20 20 20 20 20 0
L.S. 10
BOND
LIST 6
FMAP 2
PLAN 20
CL01  6  0.71567  0.02913  0.60191 11.00000  0.03887  22.69
CL02  6  0.81334 -0.00246  0.60643 11.00000  0.03018  21.37
CL03  6  0.37796  0.00472  0.60177 11.00000  0.03728  18.24
CL04  6  0.59501  0.03349  0.60480 11.00000  0.02617  16.35
CL05  6  0.49852 -0.04086  0.60051 11.00000  0.04548  15.46
CL06  6  0.21627  0.00676  0.60363 11.00000  0.02201  13.00
N007  3  0.07634  0.01327  0.59949 11.00000  0.00010  12.39
O008  4  0.71487 -0.21628  0.55271 11.00000  0.15512  11.72
O009  4  0.09925 -0.02151  0.47945 11.00000  0.01001  11.43
N00A  3  0.43670 -0.07636  0.60361 11.00000  0.00534  11.37
O00B  4  0.36222  0.01850  0.56440 11.00000  0.00010  10.96
CL0C  6  0.79998  0.36044  0.58401 11.00000  0.09224  10.44
O00D  4  0.69143  0.13943  0.65136 11.00000  0.00010  10.43
N00E  3  0.76003  0.51013  0.52332 11.00000  0.00930  10.06
O00F  4  0.82654  0.02583  0.71333 11.00000  0.00010   9.98
O00G  4  0.28983  0.32569  0.54431 11.00000  0.09123   9.68
O00H  4  1.24757  0.49773  0.43888 11.00000  0.00086   9.48
N00I  3  0.88242  0.48281  0.49181 11.00000  0.01431   9.32
O00J  4  0.08915  0.03902  0.47791 11.00000  0.02958   9.04
O00K  4  0.24018 -0.02474  0.50368 11.00000  0.04764   8.99
O00L  4  0.52363 -0.18246  0.56626 11.00000  0.04878   8.96
O00M  4  0.21209  0.04755  0.54929 11.00000  0.01509   8.69
O00N  4  0.36898 -0.02628  0.73000 11.00000  0.03368   8.43
O00O  4  0.21760 -0.04548  0.61926 11.00000  0.05931   8.22
O00P  4  0.78927  0.10242  0.66061 11.00000  0.00366   8.03
O00Q  4  0.37774  1.23542  0.24018 11.00000  0.05578   7.94
N00R  3  0.67260  0.61392  0.33426 11.00000  0.00735   7.87
O00S  4  0.61873 -0.09753  0.61324 11.00000  0.03936   7.85
O00T  4  0.88144  0.41031  0.48782 11.00000  0.00010   7.76
O00U  4  0.80886  0.81772  0.30605 11.00000  0.00854   7.71
N00V  3  1.08157  0.57069  0.44827 11.00000  0.04227   7.66
O00W  4  1.02700  0.63393  0.43062 11.00000  0.05709   7.57
C00X  2  0.07771 -0.01636  0.62225 11.00000  0.02412   7.44
O00Y  4  0.15630  1.13159  0.28564 11.00000  0.01248   7.44
C00Z  2  0.40696  1.04421  0.39110 11.00000  0.00010   7.40
N010  3  0.22157  0.69759  0.40660 11.00000  0.03112   7.37
O011  4  0.63642  1.16017  0.33074 11.00000  0.10567   7.36
N012  3  0.55501  0.11813  0.60677 11.00000  0.04266   7.35
N013  3  0.16715  0.27796  0.49104 11.00000  0.00168   7.35
C014  2  0.44900  0.36453  0.44019 11.00000  0.04136   7.33
O015  4  0.54425  0.12632  0.57237 11.00000  0.03774   7.32
O016  4  0.24161  0.39883  0.50662 11.00000  0.00275   7.26
O017  4  0.52755 -0.10745  0.81641 11.00000  0.03431   7.22
O018  4 -0.07346 -0.11756  0.53317 11.00000  0.03908   7.04
N019  3  0.92645  0.52102  0.54198 11.00000  0.00010   7.03
N01A  3  0.12701  0.77778  0.34004 11.00000  0.05968   6.98
N01B  3  0.42150  1.02969  0.27351 11.00000  0.01803   6.84
C01C  2  0.22847  0.20133  0.50073 11.00000  0.00010   6.81
N01D  3  0.13970  0.11312  0.63181 11.00000  0.00010   6.75
C01E  2 -0.15839 -0.17778  0.50338 11.00000  0.04807   6.71
N01F  3  1.02065  0.47088  0.50961 11.00000  0.02828   6.60
N01G  3  0.72473  0.96863  0.53378 11.00000  0.00121   6.55
C01H  2  0.55176 -0.19962  0.66279 11.00000  0.00010   6.49
C01I  2  0.90931  0.52145  0.49411 11.00000  0.05635   6.49
N01J  3  0.17394  0.16776  0.50111 11.00000  0.03015   6.35
O01K  4  0.00241 -0.05018  0.58923 11.00000  0.00010   6.34
N01L  3  0.62422  0.74622  0.35423 11.00000  0.01215   6.33
O01M  4  0.43878  0.75751  0.36607 11.00000  0.03573   6.31
C01N  2  0.41036  0.64835  0.42306 11.00000  0.00010   6.26
C01O  2  0.36204  0.18060  0.49776 11.00000  0.01006   6.22
C01P  2  0.53830  0.58274  0.44609 11.00000  0.00010   6.05
C01Q  2  0.70547  0.01503  0.76617 11.00000  0.00010   6.02
N01R  3  1.09131  0.50828  0.46579 11.00000  0.00010   6.01
C01S  2  0.60743  0.29015  0.40073 11.00000  0.00010   5.95
C01T  2  0.21641  0.29750  0.70161 11.00000  0.01940   5.93
C01U  2  0.48995  0.02972  0.78930 11.00000  0.00010   5.88
C01V  2  0.58360  0.37912  0.35299 11.00000  0.00126   5.81
C01W  2  0.84893  0.55692  0.35841 11.00000  0.00413   5.74
C01X  2  0.80588 -0.32734  0.66413 11.00000  0.07559   5.71
C01Y  2  0.26578  0.11998  0.64383 11.00000  0.00010   5.70
C01Z  2  0.66852  1.04469  0.28677 11.00000  0.00010   5.68
C020  2  0.27996  0.31756  0.56824 11.00000  0.00452   5.65
C021  2  0.47566  0.27095  0.44617 11.00000  0.02896   5.61
N022  3  0.66388  0.03708  0.80013 11.00000  0.02460   5.59
O023  4  0.78965  0.52883  0.38947 11.00000  0.01046   5.56
O024  4  0.48927  0.92849  0.49543 11.00000  0.03029   5.56
O025  4  0.90860  1.17582  0.49166 11.00000  0.06640   5.50
C026  2  0.77372 -0.18286  0.61028 11.00000  0.01253   5.48
C027  2  0.49522  0.41383  0.56942 11.00000  0.00010   5.47
O028  4  0.28764  0.97943  0.42780 11.00000  0.00010   5.42
N029  3  1.21891  0.55222  0.43638 11.00000  0.00010   5.38
C02A  2  0.57318  0.61407  0.31569 11.00000  0.00010   5.31
C02B  2  0.81109  0.65681  0.34988 11.00000  0.00010   5.26
C02C  2  1.12326 -0.01191  0.72870 11.00000  0.04355   5.24
C02D  2  0.62806  1.24642  0.29603 11.00000  0.00010   5.17
C02E  2  0.82760  0.98311  0.29848 11.00000  0.00180   5.16
C02F  2  0.60221  0.89902  0.48235 11.00000  0.00010   5.03
C02G  2  0.59420  0.55463  0.51779 11.00000  0.00900   5.02
C02H  2 -0.08446 -0.03591  0.48811 11.00000  0.00131   4.92
C02I  2  0.79998  1.16811  0.43697 11.00000  0.09168   4.89
C02J  2  0.71377  0.88167  0.31797 11.00000  0.01804   4.87
C02K  2  0.51373  0.19812  0.65598 11.00000  0.00010   4.83
C02L  2  0.47911  1.32734  0.18359 11.00000  0.00543   4.81
C02M  2  0.56359  1.01657  0.44552 11.00000  0.01073   4.80
C02N  2  0.50547  0.46530  0.40078 11.00000  0.02154   4.80
C02O  2  0.70237  0.66409  0.34059 11.00000  0.00752   4.76
C02P  2  1.20540  0.55450  0.58399 11.00000  0.00010   4.75
C02Q  2  0.34966  0.36837  0.37344 11.00000  0.00010   4.73
C02R  2  0.93863  0.00031  0.70769 11.00000  0.04737   4.65
C02S  2  0.29593  0.37611  0.58311 11.00000  0.00398   4.64
C02T  2  0.28740  1.08916  0.36641 11.00000  0.03130   4.59
C02U  2  0.71023  1.15191  0.40111 11.00000  0.02311   4.59
C02V  2  0.30666 -0.26379  0.53277 11.00000  0.00010   4.54
C02W  2  0.91945 -0.18513  0.59478 11.00000  0.00010   4.53
C02X  2  0.14504  0.98575  0.34320 11.00000  0.00010   4.53
C02Y  2  0.24140  0.76940  0.43028 11.00000  0.06260   4.49
C02Z  2  0.48745 -0.24342  0.63034 11.00000  0.00588   4.39
O030  4  0.27124  1.32728  0.28210 11.00000  0.09204   4.33
O031  4  0.29232  0.31607  0.44631 11.00000  0.01708   4.33
C032  2  1.07895  0.42838  0.43638 11.00000  0.00010   4.30
C033  2  1.21743  0.59560  0.66134 11.00000  0.01593   4.27
C034  2  0.86892  0.32647  0.51821 11.00000  0.01064   4.26
C035  2  0.62602  0.11002  0.72636 11.00000  0.07019   4.22
C036  2  0.50482 -0.17214  0.81420 11.00000  0.06904   4.22
C037  2 -0.22672  0.95561  0.42109 11.00000  0.03543   4.18
C038  2  0.62481  0.73215  0.30591 11.00000  0.00010   4.04
O039  4  0.84712  0.24293  0.69720 11.00000  0.01625   4.04
C03A  2  0.34449  0.73302  0.35290 11.00000  0.00010   4.04
C03B  2  0.51388  0.71861  0.28819 11.00000  0.00704   4.03
C03C  2  0.37844  1.06824  0.23923 11.00000  0.00010   3.98
C03D  2  0.52953  0.25175  0.72012 11.00000  0.03520   3.98
C03E  2 -0.01104  0.90343  0.34229 11.00000  0.07146   3.95
C03F  2 -0.24757  0.82729  0.40303 11.00000  0.00010   3.93
C03G  2  0.55093  0.63270  0.47709 11.00000  0.02514   3.78
C03H  2  0.23536  0.85815  0.41953 11.00000  0.01320   3.71
C03I  2  0.38242  0.21489  0.70761 11.00000  0.01131   3.67
C03J  2  0.12365  0.16984  0.56219 11.00000  0.01837   3.59
C03K  2  1.04950  0.58698  0.51058 11.00000  0.03750   3.54
O03L  4  0.45143  0.99654  0.36674 11.00000  0.07730   3.53
C03M  2  0.79734 -0.30589  0.58997 11.00000  0.01004   3.52
C03N  2  0.21804  0.81133  0.47971 11.00000  0.00010   3.45
C03O  2  0.29433  0.97160  0.34238 11.00000  0.02431   3.42
C03P  2 -0.09527  0.98393  0.39774 11.00000  0.00715   3.40
C03Q  2  0.71070  0.44742  0.41557 11.00000  0.05847   3.38
C03R  2  0.74034  0.36115  0.66306 11.00000  0.00010   3.37
C03S  2  1.13339 -0.25447  0.60800 11.00000  0.00917   3.37
C03T  2  0.67996  0.21885  0.74967 11.00000  0.07838   3.20
C03U  2  0.41551  0.23898  0.58458 11.00000  0.01067   3.19
C03V  2  0.01490  0.08443  0.64391 11.00000  0.00613   3.19
C03W  2  0.67067  0.57877  0.51882 11.00000  0.02125   3.17
C03X  2  0.16779  1.09188  0.30511 11.00000  0.00548   3.14
N03Y  3  0.10080  0.38863  0.67759 11.00000  0.01355   3.09
C03Z  2  0.60725  0.88450  0.30135 11.00000  0.02415   3.06
C040  2  0.42371 -0.17929  0.57356 11.00000  0.00010   3.04
HKLF 4
END
