TITL shelx03-merge_expF_1_4_expS_1_4_shelx03-merge_a.res in P1
REM Old TITL 1 in I 1 #-1
REM SHELXT solution in P1: R1 0.883, Rweak 0.384, Alpha 0.000
REM <I/s>   0.000 for    0 systematic absences,  Orientation as input
REM Flack x = -9.990 ( 1.060 ) from   283 Parsons' quotients
REM Formula found by SHELXT:  C39 N11 O25

CELL  0.71073   9.3100  15.1100  30.5000   90.000   90.000   90.000
ZERR   52.000   0.0019   0.0030   0.0061    0.000    0.000    0.000
LATT -2
SFAC H C N O ZR CL
UNIT 20 20 20 20 20 0
L.S. 10
BOND
LIST 6
FMAP 2
PLAN 20
CL01  6  0.77904  0.66803  0.49487 11.00000  0.07035  17.03
CL02  6  0.91090  0.53772  0.45860 11.00000  0.06889  15.76
CL03  6  0.74948  0.73995  0.50130 11.00000  0.03062  15.68
CL04  6  0.15879  0.74828  0.39570 11.00000  0.04057  15.20
CL05  6  0.61732  0.73078  0.49714 11.00000  0.10215  14.43
CL06  6  0.82071  0.25730  0.75534 11.00000  0.10480  14.13
O007  4  0.79279  0.25374  0.63801 11.00000  0.06270  13.57
CL08  6  0.57600  0.65427  0.54546 11.00000  0.06061  13.56
CL09  6  1.34378  0.25313  0.75974 11.00000  0.09585  13.26
CL0A  6  1.23034  0.23611  0.76378 11.00000  0.09903  12.92
C00B  2  0.32202  0.66821  0.54335 11.00000  0.00010  12.48
O00C  4  0.54334  0.61893  0.50358 11.00000  0.03469  12.39
O00D  4  0.06145  0.74110  0.52574 11.00000  0.07786  11.86
C00E  2 -0.20723  0.46013  0.29034 11.00000  0.01123  11.67
O00F  4  0.46967  0.63191  0.55320 11.00000  0.00620  11.53
N00G  3  0.78032  0.59461  0.47641 11.00000  0.04853  11.51
O00H  4  0.08107  0.79210  0.40270 11.00000  0.01748  11.24
C00I  2  0.90334  0.25251  0.64569 11.00000  0.00898  11.20
O00J  4  0.08078  0.62336  0.58658 11.00000  0.05564  11.15
O00K  4  0.54799  0.29442  0.74115 11.00000  0.09829  10.94
CL0L  6  0.99214  0.24655  0.75313 11.00000  0.11472  10.69
O00M  4  0.47712  0.67678  0.48595 11.00000  0.00010  10.46
O00N  4  1.44040  0.24305  0.64250 11.00000  0.02951  10.33
O00O  4  0.67659  0.25945  0.76209 11.00000  0.01745  10.32
O00P  4 -0.29109  0.45068  0.30583 11.00000  0.03545  10.20
N00Q  3  0.72736  0.56588  0.48183 11.00000  0.05514  10.09
O00R  4  0.03740  0.69447  0.58818 11.00000  0.01569   9.97
C00S  2  1.30995  0.25484  0.64802 11.00000  0.00010   9.65
O00T  4  0.68936  0.28783  0.56516 11.00000  0.00742   9.64
O00U  4  1.04361  0.27512  0.77270 11.00000  0.01872   9.24
O00V  4  0.13037  0.75782  0.50543 11.00000  0.01627   9.23
C00W  2  0.14769  0.23106  0.35100 11.00000  0.00010   9.11
O00X  4  0.64285  0.12122  0.68456 11.00000  0.00010   8.98
C00Y  2  0.98085  0.11283  0.69442 11.00000  0.00010   8.65
O00Z  4  0.54164  0.30169  0.34059 11.00000  0.04394   8.37
O010  4  0.37124  0.20642  0.31565 11.00000  0.01923   8.30
O011  4  0.23366  0.71838  0.58458 11.00000  0.01795   8.16
O012  4  1.20221  0.23306  0.63726 11.00000  0.03368   8.02
O013  4  0.47105  0.47343  0.48551 11.00000  0.03556   7.95
O014  4  0.13616  0.60087  0.53077 11.00000  0.01511   7.77
N015  3  0.32958  0.23295  0.34327 11.00000  0.04194   7.72
O016  4  1.13164  0.13675  0.70185 11.00000  0.02578   7.53
N017  3 -0.01317  0.82283  0.38363 11.00000  0.07426   7.20
C018  2  0.34986  0.25708  0.30860 11.00000  0.04000   6.96
C019  2  0.55730  0.33673  0.55327 11.00000  0.00010   6.94
O01A  4 -0.20134  0.47548  0.64029 11.00000  0.00010   6.75
C01B  2  0.21515  0.57318  0.38999 11.00000  0.01963   6.72
N01C  3  0.07485  0.60715  0.39866 11.00000  0.00010   6.62
N01D  3  0.42461  0.84624  0.49121 11.00000  0.00010   6.52
C01E  2 -0.26107  0.71518  0.60093 11.00000  0.01808   6.48
C01F  2  0.69416  0.27460  0.34313 11.00000  0.00010   6.45
C01G  2 -0.09375  0.39991  0.30463 11.00000  0.00020   6.24
C01H  2  0.39894  0.49143  0.49961 11.00000  0.00010   6.10
C01I  2  0.27079  0.57130  0.59522 11.00000  0.00010   5.98
C01J  2  0.32819  0.49694  0.42266 11.00000  0.00010   5.89
C01K  2  0.88734  0.08305  0.67618 11.00000  0.01231   5.87
N01L  3  0.45517  0.45190  0.61472 11.00000  0.00010   5.76
C01M  2 -0.32746  0.72125  0.70115 11.00000  0.04555   5.61
C01N  2 -0.01745  0.49807  0.62729 11.00000  0.00010   5.52
C01O  2  0.33467  0.41688  0.28894 11.00000  0.03978   5.20
N01P  3  0.73889  0.03485  0.33087 11.00000  0.00952   4.76
C01Q  2  0.41863  0.37546  0.54969 11.00000  0.02321   4.65
C01R  2  0.44938  0.66342  0.37049 11.00000  0.03985   4.63
C01S  2 -0.31528  0.42455  0.68606 11.00000  0.00010   4.60
C01T  2  0.37024  0.48683  0.60751 11.00000  0.00010   4.55
C01U  2 -0.44040  0.63065  0.71158 11.00000  0.00010   4.40
C01V  2  0.26952  0.46040  0.29339 11.00000  0.01535   4.28
C01W  2  0.92352  0.14646  0.67916 11.00000  0.00010   4.21
C01X  2  0.50810  0.53596  0.41523 11.00000  0.00391   4.03
C01Y  2  0.34361  0.96515  0.46325 11.00000  0.00010   3.99
C01Z  2  0.60320  0.59627  0.54406 11.00000  0.02768   3.94
C020  2  0.03482  0.52487  0.30953 11.00000  0.01845   3.86
C021  2  0.29946  0.51156  0.34803 11.00000  0.06036   3.77
N022  3  0.64872  0.26155  0.22017 11.00000  0.00010   3.77
C023  2  0.26243  0.58282  0.47770 11.00000  0.02699   3.71
O024  4 -0.28087  0.66344  0.67317 11.00000  0.09163   3.52
C025  2  0.79995  0.25274  0.44040 11.00000  0.01524   3.46
C026  2  1.28347  0.14914  0.77983 11.00000  0.00312   3.45
N027  3  0.69526  0.89739  0.55279 11.00000  0.01698   3.34
C028  2  0.77446  0.20007  0.30607 11.00000  0.00315   3.31
C029  2  0.08985  0.85525  0.57552 11.00000  0.00010   3.29
C02A  2  0.85488  0.21014  0.46931 11.00000  0.00966   3.23
C02B  2  0.98233  0.36845  0.42899 11.00000  0.00010   3.04
N02C  3 -0.13224  0.84176  0.64956 11.00000  0.00889   3.03
C02D  2 -0.43409  0.49949  0.70004 11.00000  0.00857   3.02
HKLF 4
END
