TITL shelx03-merge_expF_1_0_expS_1_3_shelx03-merge_a.res in P1
REM Old TITL 1 in I 1 #-1
REM SHELXT solution in P1: R1 0.698, Rweak 0.229, Alpha 0.000
REM <I/s>   0.000 for    0 systematic absences,  Orientation as input
REM Flack x = -5.472 ( 1.563 ) from   323 Parsons' quotients
REM Formula found by SHELXT:  C71 N20 O13

CELL  0.71073   9.3100  15.1100  30.5000   90.000   90.000   90.000
ZERR   52.000   0.0019   0.0030   0.0061    0.000    0.000    0.000
LATT -2
SFAC H C N O ZR CL
UNIT 20 20 20 20 20 0
L.S. 10
BOND
LIST 6
FMAP 2
PLAN 20
CL01  6  0.63583  0.24907  0.51022 11.00000  0.07248  15.96
CL02  6  0.23669  0.25286  0.50823 11.00000  0.04691  15.12
CL03  6  0.50182  0.24807  0.50459 11.00000  0.06019  14.29
CL04  6  0.36369  0.23214  0.50182 11.00000  0.04245  13.27
CL05  6  0.09803  0.23878  0.50626 11.00000  0.06478  13.27
CL06  6  0.76606  0.24304  0.50552 11.00000  0.03819  13.05
O007  4 -0.02498  0.27195  0.51082 11.00000  0.06799  11.48
N008  3  0.23487  0.31174  0.52646 11.00000  0.01678  11.17
N009  3  0.82880  0.64052  0.44509 11.00000  0.00010   9.90
O00A  4  0.08915  0.75124  0.36222 11.00000  0.01099   9.69
N00B  3  0.21612  0.70661  0.35867 11.00000  0.02843   9.68
O00C  4  0.60375  0.55205  0.45820 11.00000  0.01932   9.07
O00D  4  0.11685  0.67164  0.35813 11.00000  0.04869   8.86
C00E  2  0.16109  0.54128  0.51118 11.00000  0.00010   8.55
C00F  2  1.11752  0.77317  0.70979 11.00000  0.00408   8.51
C00G  2  0.70863  0.71041  0.58840 11.00000  0.03090   8.20
N00H  3  0.17225  0.61898  0.48009 11.00000  0.01845   8.06
C00I  2  0.71413  0.74098  0.23801 11.00000  0.01683   7.70
O00J  4  1.17294  0.74153  0.69478 11.00000  0.07285   7.67
N00K  3  0.77813  0.44060  0.57796 11.00000  0.04405   7.18
C00L  2  0.77512  0.73392  0.74912 11.00000  0.00928   7.02
N00M  3  0.83515  0.60648  0.28559 11.00000  0.06845   6.95
N00N  3  0.32099  0.58915  0.49122 11.00000  0.00174   6.93
C00O  2  0.02232  0.59647  0.51659 11.00000  0.00833   6.78
N00P  3  0.05824  0.49302  0.49451 11.00000  0.03806   6.78
N00Q  3  0.15132  0.16327  0.53685 11.00000  0.01634   6.75
O00R  4  0.05444  0.22960  0.63895 11.00000  0.02134   6.37
N00S  3  0.60248  0.84565  0.73824 11.00000  0.00145   6.34
C00T  2  0.59354  0.47818  0.40053 11.00000  0.01801   6.31
C00U  2  0.52216  1.00853  0.27354 11.00000  0.00734   6.27
N00V  3 -0.08364  0.53087  0.46552 11.00000  0.04152   6.25
C00W  2  0.29759  0.74345  0.28829 11.00000  0.01365   6.23
C00X  2  0.46490  0.62412  0.44174 11.00000  0.02332   6.17
C00Y  2  0.23921  0.48326  0.50928 11.00000  0.00188   6.13
C00Z  2  0.22234  0.63164  0.57502 11.00000  0.02745   6.13
N010  3  1.06164  0.83751  0.70619 11.00000  0.00638   6.10
N011  3  0.34283  0.86726  0.31129 11.00000  0.01857   6.07
C012  2  0.52872  0.59286  0.65774 11.00000  0.01126   6.02
C013  2  0.42471  0.66702  0.62397 11.00000  0.00010   5.97
O014  4  0.55614  0.40639  0.55733 11.00000  0.03445   5.96
C015  2  0.70275  0.78099  0.75496 11.00000  0.00010   5.94
C016  2  0.60873  0.48171  0.50789 11.00000  0.01415   5.94
C017  2  0.52174  0.38919  0.61327 11.00000  0.05879   5.93
N018  3  0.78764  0.02199  0.67088 11.00000  0.04888   5.88
C019  2  0.70818  0.68598  0.46596 11.00000  0.00119   5.84
C01A  2  0.60123  0.14861  0.65931 11.00000  0.02768   5.76
O01B  4  0.78957  0.71108  0.23462 11.00000  0.00025   5.58
C01C  2  0.77345  0.73944  0.41640 11.00000  0.00618   5.55
C01D  2 -0.17294  0.47982  0.44893 11.00000  0.00113   5.55
N01E  3  0.87840  0.58219  0.60121 11.00000  0.01532   5.54
C01F  2  0.78137  0.66227  0.58701 11.00000  0.02278   5.49
C01G  2  0.24887  0.49453  0.38627 11.00000  0.01694   5.44
C01H  2  0.33134  0.79107  0.31994 11.00000  0.02085   5.42
C01I  2  0.59673  0.79017  0.25145 11.00000  0.02177   5.17
C01J  2  0.56314  0.59749  0.52538 11.00000  0.00010   5.14
C01K  2  0.55157  0.73395  0.57510 11.00000  0.00010   5.14
C01L  2  0.66758  0.59485  0.46058 11.00000  0.00817   5.14
C01M  2  0.42962  0.83075  0.63607 11.00000  0.03709   5.12
C01N  2  0.58170  0.41619  0.38988 11.00000  0.01490   4.76
N01O  3  0.91730  0.75888  0.74032 11.00000  0.02517   4.73
C01P  2  0.15482  0.33216  0.53072 11.00000  0.00010   4.68
C01Q  2  0.51480  0.55439  0.35602 11.00000  0.01758   4.55
N01R  3  0.73437  1.00782  0.20498 11.00000  0.02288   4.52
C01S  2  0.39378  0.48340  0.53307 11.00000  0.01871   4.52
C01T  2  0.04404  0.80346  0.53422 11.00000  0.04013   4.50
C01U  2  0.81233  0.67326  0.76099 11.00000  0.00010   4.43
C01V  2  0.21265  0.75984  0.52876 11.00000  0.04180   4.40
C01W  2  0.60706  0.54325  0.55156 11.00000  0.02328   4.33
O01X  4  0.38757  0.36689  0.45683 11.00000  0.02086   4.32
C01Y  2  0.10081  0.39160  0.37580 11.00000  0.01697   4.31
C01Z  2  0.49004  0.39833  0.45582 11.00000  0.00010   4.30
C020  2  0.42602  0.12555  0.47415 11.00000  0.01931   4.30
N021  3  0.53534  0.23543  0.40424 11.00000  0.00010   4.27
C022  2  0.33703  0.70273  0.35138 11.00000  0.01787   4.27
O023  4  0.37868 -0.00853  0.45612 11.00000  0.03056   4.24
C024  2  0.14902  0.44130  0.49760 11.00000  0.00010   4.23
C025  2  0.43554  0.58334  0.56998 11.00000  0.00010   4.20
C026  2  0.70257  0.83519  0.27212 11.00000  0.00010   4.08
O027  4  0.72575  0.68982  0.67445 11.00000  0.03596   4.08
C028  2 -0.01701  0.55398  0.48148 11.00000  0.03200   4.04
C029  2  0.52926  0.32121  0.67445 11.00000  0.01668   3.98
C02A  2  0.78185  0.37849  0.38782 11.00000  0.01205   3.93
O02B  4  0.31737  0.89731  0.64211 11.00000  0.01878   3.89
C02C  2  0.32230  0.62034  0.36079 11.00000  0.00841   3.88
C02D  2  0.25471  0.54594  0.31805 11.00000  0.00453   3.87
C02E  2 -0.06111  0.44490  0.51192 11.00000  0.04043   3.83
C02F  2  0.37041  0.64428  0.33870 11.00000  0.03095   3.81
C02G  2  0.60189  0.26748  0.60211 11.00000  0.03357   3.75
N02H  3  0.54121  0.72317  0.80102 11.00000  0.06500   3.73
C02I  2  0.57716  0.82452  0.61914 11.00000  0.04154   3.64
C02J  2  0.44415  0.21911  0.61971 11.00000  0.00261   3.59
C02K  2  0.83368  0.51598  0.24200 11.00000  0.03492   3.56
C02L  2  0.00487  0.21894  0.43768 11.00000  0.01719   3.50
C02M  2  0.20886  0.87167  0.31713 11.00000  0.02260   3.46
C02N  2  0.54116  0.82266  0.74899 11.00000  0.01986   3.41
C02O  2  0.27348  0.83664  0.29916 11.00000  0.01246   3.39
C02P  2  0.45787  0.05439  0.47457 11.00000  0.05563   3.39
C02Q  2  0.43266  0.54268  0.58163 11.00000  0.00010   3.27
N02R  3  0.14111  0.98498  0.39232 11.00000  0.02638   3.22
C02S  2  0.79424  0.56459  0.19898 11.00000  0.02802   3.20
C02T  2  0.88383  0.68198  0.66874 11.00000  0.00010   3.19
C02U  2  0.69241  0.72864  0.69073 11.00000  0.00406   3.18
C02V  2  0.68216  0.26989  0.64837 11.00000  0.03478   3.18
C02W  2  0.04881  0.50507  0.31259 11.00000  0.00010   3.15
C02X  2 -0.02765  0.11823  0.62244 11.00000  0.02103   3.14
C02Y  2  0.00178  0.36195  0.57506 11.00000  0.01036   3.12
C02Z  2  0.57149  0.67943  0.31567 11.00000  0.02425   3.12
C030  2  0.19289  0.24646  0.62615 11.00000  0.00010   3.10
C031  2  0.35595  0.70389  0.52033 11.00000  0.00572   3.06
O032  4  0.64369  0.69651  0.29886 11.00000  0.03810   3.05
HKLF 4
END
