TITL shelx03-merge_expF_0_9_expS_1_4_shelx03-merge_a.res in P1
REM Old TITL 1 in I 1 #-1
REM SHELXT solution in P1: R1 0.694, Rweak 0.279, Alpha 0.000
REM <I/s>   0.000 for    0 systematic absences,  Orientation as input
REM Flack x = -6.171 ( 0.995 ) from   199 Parsons' quotients
REM Formula found by SHELXT:  C77 N22 O25

CELL  0.71073   9.3100  15.1100  30.5000   90.000   90.000   90.000
ZERR   52.000   0.0019   0.0030   0.0061    0.000    0.000    0.000
LATT -2
SFAC H C N O ZR CL
UNIT 20 20 20 20 20 0
L.S. 10
BOND
LIST 6
FMAP 2
PLAN 20
CL01  6  0.98474  0.42402  0.38733 11.00000  0.05128  20.47
CL02  6  1.18448  0.43045  0.38578 11.00000  0.05298  20.41
CL03  6  1.46756  0.41544  0.39159 11.00000  0.08669  18.99
CL04  6  0.85750  0.44080  0.38993 11.00000  0.03997  18.71
CL05  6  1.35743  0.44842  0.38384 11.00000  0.03062  18.54
CL06  6  0.90475  0.44728  0.49817 11.00000  0.05340  17.15
CL07  6  0.66939  0.59529  0.45640 11.00000  0.06294  16.89
CL08  6  1.67158  0.29551  0.44661 11.00000  0.09265  14.52
CL09  6  1.59378  0.41717  0.38076 11.00000  0.03909  13.85
CL0A  6  0.44864  0.44334  0.51097 11.00000  0.05486  13.51
CL0B  6  0.72548  0.45480  0.39342 11.00000  0.04322  13.23
CL0C  6  1.07223  0.44470  0.38287 11.00000  0.03833  12.67
CL0D  6  1.34079  0.51715  0.37373 11.00000  0.04370  12.61
N00E  3  1.01493  0.48824  0.34808 11.00000  0.00010  11.63
O00F  4  1.09877  0.52489  0.35608 11.00000  0.00010  11.03
N00G  3  0.61065  0.52576  0.41095 11.00000  0.00196  10.66
O00H  4  1.11583  0.47927  0.54664 11.00000  0.01708  10.55
C00I  2  1.48738  0.64753  0.24358 11.00000  0.02726  10.28
O00J  4  0.86747 -0.22997  0.33360 11.00000  0.02859  10.19
N00K  3  1.30121  0.38220  0.37117 11.00000  0.00410   9.42
O00L  4  1.77855  0.23989  0.44827 11.00000  0.00494   9.37
O00M  4  0.59738  0.43472  0.49867 11.00000  0.01849   9.31
O00N  4  0.41108  0.84447  0.66866 11.00000  0.08921   9.13
O00O  4  0.04969  0.51947  0.69791 11.00000  0.04832   9.04
O00P  4  1.32446 -0.14771  0.30933 11.00000  0.00010   8.96
N00Q  3  0.76125  0.50563  0.41901 11.00000  0.00010   8.86
O00R  4  1.74077  0.46221  0.30450 11.00000  0.02445   8.70
O00S  4  0.49033  0.65106  0.47134 11.00000  0.02161   8.63
O00T  4 -0.30124  0.93788  0.63104 11.00000  0.00010   8.59
N00U  3  1.37146 -0.09642  0.30266 11.00000  0.04403   8.36
N00V  3 -0.10324  0.68303  0.59784 11.00000  0.00196   8.29
O00W  4  1.10164 -0.07717  0.29230 11.00000  0.02409   8.16
O00X  4  0.74987 -0.21637  0.33853 11.00000  0.10241   8.05
N00Y  3  0.38150  0.49618  0.45407 11.00000  0.00082   7.99
C00Z  2  0.75039  0.40531  0.65265 11.00000  0.00010   7.91
N010  3  1.28663  0.33166  0.34830 11.00000  0.00719   7.85
O011  4  0.34195  0.99575  0.64523 11.00000  0.02537   7.78
O012  4  1.03701  0.66043  0.38410 11.00000  0.03557   7.70
N013  3 -0.15847  0.72684  0.57477 11.00000  0.07039   7.67
C014  2  0.33046  0.55343  0.50553 11.00000  0.00010   7.62
O015  4  0.33564  0.61479  0.50970 11.00000  0.00010   7.53
O016  4  1.07634  0.12798  0.41250 11.00000  0.02401   7.31
N017  3  1.56540  0.35306  0.43900 11.00000  0.00010   7.27
O018  4  1.65996  0.65295  0.23792 11.00000  0.03428   7.26
N019  3  0.82144  0.54849  0.44234 11.00000  0.01493   7.19
C01A  2  0.47058  0.50900  0.50973 11.00000  0.03542   7.06
C01B  2  0.84503  0.44653  0.47115 11.00000  0.06762   6.94
N01C  3  1.52999 -0.07464  0.29343 11.00000  0.00010   6.63
N01D  3  0.60563  0.44082  0.66978 11.00000  0.00010   6.62
N01E  3  1.34691  0.19451  0.32113 11.00000  0.03914   6.57
N01F  3  0.45588  0.67733  0.43532 11.00000  0.04324   6.51
N01G  3 -0.48866  1.15598  0.54911 11.00000  0.01129   6.50
C01H  2  0.50963  0.40906  0.70731 11.00000  0.01402   6.37
C01I  2 -0.54516  1.10324  0.54397 11.00000  0.00631   6.36
C01J  2  0.15599  0.64428  0.54199 11.00000  0.01276   6.31
C01K  2  0.35328  0.40617  0.70613 11.00000  0.00010   6.15
C01L  2  0.95029  0.49783  0.53945 11.00000  0.05600   6.07
C01M  2  0.92115  0.65615  0.40007 11.00000  0.01166   6.04
C01N  2 -0.04457  0.59288  0.59011 11.00000  0.00010   5.97
C01O  2  0.70103 -0.16769  0.35802 11.00000  0.08232   5.88
C01P  2 -0.29161  0.56740  0.64121 11.00000  0.01687   5.86
C01Q  2  1.07200  0.55832  0.42039 11.00000  0.00010   5.86
C01R  2 -0.88858  1.14305  0.55068 11.00000  0.02528   5.78
C01S  2  1.17179 -0.11441  0.30875 11.00000  0.01055   5.72
C01T  2  1.45548  0.31514  0.35931 11.00000  0.00057   5.65
C01U  2 -0.10019  0.90900  0.62434 11.00000  0.00010   5.63
C01V  2  1.34104  0.09012  0.30241 11.00000  0.00010   5.60
C01W  2  1.57595  0.44000  0.32066 11.00000  0.00010   5.58
C01X  2  1.04150  0.89748  0.43889 11.00000  0.00010   5.57
C01Y  2  1.60602  0.37563  0.26473 11.00000  0.00010   5.49
C01Z  2  1.64161  0.52311  0.22852 11.00000  0.01845   5.33
O020  4 -0.43100  0.86259  0.58046 11.00000  0.04224   5.21
C021  2 -0.70236  1.10011  0.52965 11.00000  0.01230   5.16
C022  2 -0.69355  1.17971  0.53413 11.00000  0.04024   5.06
C023  2  1.07915 -0.25344  0.32254 11.00000  0.00010   5.02
C024  2  1.13787 -0.21341  0.27808 11.00000  0.02598   4.99
N025  3  0.14710  0.27531  0.68008 11.00000  0.00010   4.95
C026  2 -0.27483  0.86095  0.63498 11.00000  0.00010   4.78
C027  2 -0.41121  1.13630  0.71126 11.00000  0.01229   4.77
O028  4  1.52708  0.34625  0.27145 11.00000  0.01601   4.77
C029  2  1.55217  0.16160  0.35867 11.00000  0.11088   4.75
C02A  2  0.15319  0.79748  0.57819 11.00000  0.02951   4.73
C02B  2 -0.43582  1.01403  0.53761 11.00000  0.01118   4.67
C02C  2 -0.63324  1.23669  0.54259 11.00000  0.04470   4.65
C02D  2 -0.13047  0.93119  0.55048 11.00000  0.00010   4.47
C02E  2  0.33953  0.46269  0.70338 11.00000  0.01397   4.44
C02F  2  1.26114  0.17820  0.38985 11.00000  0.02474   4.38
C02G  2  0.01688  0.74936  0.55496 11.00000  0.00010   4.36
C02H  2  0.02460  0.79409  0.57851 11.00000  0.00119   4.35
C02I  2  1.88858  0.19453  0.39471 11.00000  0.00050   4.34
O02J  4  0.33799  0.54859  0.75300 11.00000  0.02745   4.33
C02K  2  1.32615  0.39334  0.31843 11.00000  0.00010   4.30
N02L  3  0.12450  0.96754  0.60988 11.00000  0.01424   4.28
C02M  2  1.41691 -0.02720  0.32870 11.00000  0.03213   4.28
C02N  2  0.23564  0.29280  0.64465 11.00000  0.03446   4.25
C02O  2 -0.20792  0.68017  0.55828 11.00000  0.00010   4.22
C02P  2  1.02061  0.55462  0.40968 11.00000  0.03305   4.22
C02Q  2  0.68106  0.55158  0.51427 11.00000  0.00010   4.19
C02R  2  0.49060  0.51354  0.44959 11.00000  0.00010   4.18
C02S  2 -0.40090  0.65023  0.58101 11.00000  0.00010   4.14
C02T  2  0.20892  0.70761  0.60378 11.00000  0.02905   4.13
C02U  2 -0.12265  0.57882  0.61642 11.00000  0.01547   4.03
C02V  2  1.18816  0.70524  0.42680 11.00000  0.02435   4.00
C02W  2  1.35984  0.24386  0.34541 11.00000  0.00563   3.99
C02X  2  0.33103  0.89702  0.66554 11.00000  0.01140   3.99
C02Y  2  0.41027  0.66323  0.66029 11.00000  0.00010   3.90
N02Z  3  1.84018  0.27965  0.53777 11.00000  0.02098   3.88
C030  2  1.46346  0.44871  0.29881 11.00000  0.00010   3.87
O031  4  0.36660  0.73655  0.66285 11.00000  0.00010   3.87
N032  3  0.84762  0.41739  0.66199 11.00000  0.08192   3.86
C033  2  0.20698  0.44799  0.69038 11.00000  0.00010   3.79
C034  2  1.20220  0.88693  0.42901 11.00000  0.00844   3.79
C035  2  0.94975 -0.00238  0.36537 11.00000  0.00295   3.77
C036  2  1.15210  0.17597  0.29348 11.00000  0.00010   3.72
C037  2  0.12327  0.89423  0.59768 11.00000  0.01043   3.71
C038  2  0.65281  0.42102  0.58363 11.00000  0.00010   3.64
O039  4  1.06788  0.94613  0.43416 11.00000  0.01999   3.61
O03A  4 -0.04568  0.97182  0.54514 11.00000  0.00010   3.59
C03B  2  0.38092  0.41330  0.66431 11.00000  0.00252   3.57
C03C  2  1.13816  0.34073  0.50609 11.00000  0.00462   3.57
C03D  2  0.79061 -0.23354  0.38814 11.00000  0.01579   3.49
C03E  2  1.22583  0.11470  0.24792 11.00000  0.04117   3.48
C03F  2  1.31112  0.79203  0.43499 11.00000  0.00010   3.37
C03G  2 -0.26000  1.04708  0.69241 11.00000  0.00010   3.35
C03H  2  1.23577  0.15427  0.35403 11.00000  0.00886   3.34
C03I  2 -0.47823  0.96785  0.54167 11.00000  0.00010   3.33
C03J  2  0.46032  0.52312  0.76018 11.00000  0.01772   3.26
O03K  4 -0.04103  0.53409  0.63541 11.00000  0.01314   3.24
C03L  2 -0.34092  0.83662  0.57329 11.00000  0.02537   3.18
C03M  2 -0.61715  0.82896  0.53497 11.00000  0.00613   3.17
C03N  2  0.31041  0.36226  0.77148 11.00000  0.00010   3.14
C03O  2  0.45687  0.61990  0.68329 11.00000  0.00010   3.10
N03P  3 -0.38488  1.25344  0.61583 11.00000  0.01251   3.09
C03Q  2  0.23710  1.03018  0.62131 11.00000  0.00010   3.09
N03R  3 -0.60682  0.95555  0.55431 11.00000  0.00010   3.08
C03S  2  0.97499  0.10830  0.32671 11.00000  0.00010   3.08
C03T  2  1.27514  0.04564  0.30396 11.00000  0.00010   3.02
HKLF 4
END
