TITL shelx03-merge_expF_1_1_expS_1_0_shelx03-merge_a.res in P1
REM Old TITL 1 in I 1 #-1
REM SHELXT solution in P1: R1 0.769, Rweak 0.347, Alpha 0.000
REM <I/s>   0.000 for    0 systematic absences,  Orientation as input
REM Flack x = -8.476 ( 9.990 ) from   604 Parsons' quotients
REM Formula found by SHELXT:  C50 N18 O10

CELL  0.71073   9.3100  15.1100  30.5000   90.000   90.000   90.000
ZERR   52.000   0.0019   0.0030   0.0061    0.000    0.000    0.000
LATT -2
SFAC H C N O ZR
UNIT 20 20 20 20 20
L.S. 10
BOND
LIST 6
FMAP 2
PLAN 20
O001  4  0.57306  0.82890  0.71669 11.00000  0.03424  12.92
N002  3  0.05163  0.82757  0.71408 11.00000  0.02707  12.84
O003  4 -0.49111  0.80362  0.58689 11.00000  0.12430  12.66
N004  3  0.19483  0.84244  0.71717 11.00000  0.00843  12.45
O005  4  0.45480  0.81481  0.71953 11.00000  0.00375  11.67
N006  3 -0.10349  0.81742  0.72173 11.00000  0.00010  10.87
O007  4  0.31945  0.97895  0.67071 11.00000  0.11097  10.54
O008  4  0.01299  0.30986  0.42833 11.00000  0.02307   9.48
C009  2  0.18822  0.96291  0.66198 11.00000  0.03377   8.36
N00A  3  0.06862  0.50261  0.43959 11.00000  0.03175   8.21
N00B  3 -0.26314  0.82907  0.71693 11.00000  0.04133   8.11
O00C  4 -0.32277  0.94384  0.61659 11.00000  0.03432   8.11
N00D  3  0.18371  0.29255  0.41824 11.00000  0.00088   7.93
C00E  2 -0.37404  0.84444  0.58686 11.00000  0.04630   7.82
C00F  2 -0.02529  0.56128  0.44471 11.00000  0.04135   7.57
N00G  3  0.31836  0.83867  0.72083 11.00000  0.04602   7.56
C00H  2 -0.24951  0.80638  0.57605 11.00000  0.00108   6.93
N00I  3  0.12545  0.43310  0.44274 11.00000  0.03803   6.81
N00J  3 -0.15361  0.92560  0.69912 11.00000  0.02762   6.80
N00K  3 -0.47686  0.84788  0.58188 11.00000  0.02531   6.69
N00L  3 -0.44897  1.02561  0.58783 11.00000  0.02668   6.43
C00M  2  0.16572  0.78410  0.60651 11.00000  0.02536   6.05
C00N  2  0.29537  0.12658  0.37949 11.00000  0.03176   6.03
C00O  2 -0.21455  0.40964  0.50973 11.00000  0.00754   6.00
C00P  2  0.14492  0.37001  0.44183 11.00000  0.01563   5.75
C00Q  2 -0.29966  0.91638  0.72284 11.00000  0.05670   5.54
C00R  2  0.90281  0.07399  0.34596 11.00000  0.01904   5.53
C00S  2  0.22424  0.39395  0.43753 11.00000  0.00010   5.37
C00T  2 -0.12149  0.87903  0.64070 11.00000  0.03104   5.18
C00U  2  0.16424  0.60966  0.46273 11.00000  0.02575   5.17
N00V  3 -0.12311  0.78015  0.56578 11.00000  0.02400   5.10
O00W  4  0.88952 -0.01786  0.29021 11.00000  0.02432   5.00
C00X  2 -0.38133  1.04799  0.57339 11.00000  0.01824   4.94
C00Y  2 -0.09464  0.98190  0.52893 11.00000  0.06040   4.87
C00Z  2 -0.01811  0.94613  0.47924 11.00000  0.10158   4.82
C010  2 -0.32485  0.99776  0.66832 11.00000  0.04628   4.76
C011  2  0.24412  0.08391  0.38568 11.00000  0.01807   4.72
C012  2  0.11573  0.95459  0.48007 11.00000  0.06238   4.71
C013  2  1.05382 -0.09226  0.27608 11.00000  0.04749   4.67
C014  2  0.62439  0.76065  0.65274 11.00000  0.02932   4.61
O015  4 -0.24692  0.46899  0.51502 11.00000  0.04528   4.61
C016  2 -0.22921  0.96108  0.68434 11.00000  0.05755   4.57
C017  2  0.51171  0.68639  0.45394 11.00000  0.01493   4.55
N018  3  0.60357  0.49874  0.34090 11.00000  0.03939   4.54
O019  4  0.51715  0.83740  0.41742 11.00000  0.06321   4.48
C01A  2 -0.18518  0.59903  0.45314 11.00000  0.03285   4.41
C01B  2  1.11137 -0.15180  0.29261 11.00000  0.02551   4.41
C01C  2  1.21938  0.11420  0.21279 11.00000  0.04948   4.32
C01D  2 -0.17588  0.31500  0.49677 11.00000  0.00925   4.20
N01E  3  0.51844  0.10669  0.37907 11.00000  0.07201   4.13
C01F  2  0.75277  0.17649  0.34535 11.00000  0.01906   4.07
C01G  2  0.06200  0.81914  0.61011 11.00000  0.01292   3.97
C01H  2  0.14526  0.83947  0.46855 11.00000  0.01680   3.97
C01I  2  0.44609  0.60730  0.52085 11.00000  0.04070   3.94
O01J  4  0.32673  0.78897  0.52591 11.00000  0.01844   3.93
C01K  2  1.18420 -0.00898  0.27098 11.00000  0.02649   3.92
C01L  2  0.21570  0.25197  0.42666 11.00000  0.00010   3.91
N01M  3  1.09985 -0.04304  0.26857 11.00000  0.04903   3.72
C01N  2  0.31897  0.86070  0.67676 11.00000  0.01225   3.70
N01O  3  0.28719  0.74089  0.59330 11.00000  0.03583   3.66
C01P  2  0.75643  0.28558  0.37240 11.00000  0.00986   3.65
N01Q  3  0.48405  1.15180  0.72013 11.00000  0.13609   3.64
C01R  2  0.27386  0.33419  0.43072 11.00000  0.01959   3.62
C01S  2 -0.16162  1.07364  0.50469 11.00000  0.04651   3.56
C01T  2 -0.12543  1.12809  0.67937 11.00000  0.02739   3.55
C01U  2  0.45917  0.79218  0.40915 11.00000  0.02958   3.49
C01V  2  1.11218  0.11309  0.27733 11.00000  0.04323   3.49
N01W  3  1.49111 -0.09033  0.26052 11.00000  0.01900   3.49
C01X  2 -0.17556  0.89788  0.58760 11.00000  0.03732   3.45
C01Y  2  0.29419  0.71616  0.47586 11.00000  0.02421   3.43
C01Z  2  0.00612  0.75082  0.75241 11.00000  0.01173   3.37
C020  2 -0.39699  0.35288  0.53955 11.00000  0.02699   3.36
C021  2 -0.30270  0.97706  0.78721 11.00000  0.01753   3.29
C022  2  0.22876  1.09179  0.71385 11.00000  0.02904   3.22
C023  2 -0.28347  1.05000  0.53170 11.00000  0.04342   3.22
C024  2 -0.32277  1.14700  0.49968 11.00000  0.11560   3.21
C025  2  0.23743  0.84240  0.53339 11.00000  0.00072   3.19
C026  2  0.74609  0.11706  0.34761 11.00000  0.08128   3.05
HKLF 4
END
