TITL shelx03-merge_expF_1_1_expS_0_8_shelx03-merge_a.res in P1
REM Old TITL 1 in I 1 #-1
REM SHELXT solution in P1: R1 0.758, Rweak 0.307, Alpha 0.000
REM <I/s>   0.000 for    0 systematic absences,  Orientation as input
REM Flack x = -9.990 ( 9.443 ) from  1144 Parsons' quotients
REM Formula found by SHELXT:  C64 N30 O11

CELL  0.71073   9.3100  15.1100  30.5000   90.000   90.000   90.000
ZERR   52.000   0.0019   0.0030   0.0061    0.000    0.000    0.000
LATT -2
SFAC H C N O ZR
UNIT 20 20 20 20 20
L.S. 10
BOND
LIST 6
FMAP 2
PLAN 20
N001  3  0.57540  0.72067  0.58749 11.00000  0.03315  11.80
N002  3  0.51252  0.10585  0.39941 11.00000  0.02013  11.71
N003  3  0.64643  0.10504  0.40258 11.00000  0.02660  10.34
O004  4  0.34535  0.09262  0.40691 11.00000  0.06345  10.15
N005  3  1.05423  0.08575  0.51219 11.00000  0.04118   9.60
N006  3  0.60079  0.62104  0.57375 11.00000  0.02515   9.45
N007  3 -0.00653  0.82866  0.66381 11.00000  0.01006   9.42
O008  4  0.69581  0.71380  0.58107 11.00000  0.01475   9.20
N009  3  0.79599  0.35986  0.33964 11.00000  0.01376   9.10
N00A  3  0.13180  0.62497  0.60104 11.00000  0.06122   9.03
C00B  2  0.89744  0.11544  0.52746 11.00000  0.03943   8.87
C00C  2  1.43616  0.11064  0.50341 11.00000  0.07770   8.86
C00D  2  0.03995  0.58283  0.67189 11.00000  0.00462   8.76
O00E  4  0.54983  0.16731  0.38747 11.00000  0.02951   8.55
O00F  4  0.04142  0.09566  0.40060 11.00000  0.03687   8.53
C00G  2  0.26116  0.84079  0.66764 11.00000  0.01429   8.50
N00H  3 -0.09086  0.80271  0.67368 11.00000  0.04102   8.45
N00I  3  0.00146  0.67737  0.61170 11.00000  0.01313   8.37
N00J  3  0.47622  0.65158  0.58793 11.00000  0.04020   8.32
C00K  2  0.11232  0.76242  0.54504 11.00000  0.02229   8.31
C00L  2  0.19223  0.54412  0.66846 11.00000  0.02573   8.31
O00M  4  0.83110  0.08258  0.32156 11.00000  0.04300   7.97
C00N  2  0.02136  0.73555  0.70786 11.00000  0.00944   7.81
O00O  4 -0.20559  1.12453  0.66637 11.00000  0.06697   7.69
N00P  3  0.26554  0.75239  0.62072 11.00000  0.02181   7.63
O00Q  4  0.13147  0.88037  0.66588 11.00000  0.03415   7.62
O00R  4 -0.14972  0.62385  0.59102 11.00000  0.02095   7.52
C00S  2  0.12400  0.67299  0.61434 11.00000  0.01513   7.39
N00T  3  0.71479  0.54245  0.37440 11.00000  0.01902   7.11
N00U  3  0.36799  0.72414  0.62124 11.00000  0.04464   7.04
N00V  3  0.56660  0.41684  0.36008 11.00000  0.05184   7.02
N00W  3  0.18227  0.19078  0.42224 11.00000  0.01280   7.00
N00X  3  0.27752  0.62851  0.60288 11.00000  0.03058   6.97
N00Y  3  0.17227  0.59076  0.66325 11.00000  0.04462   6.91
N00Z  3  1.07871  0.51593  0.25828 11.00000  0.03287   6.88
C010  2  0.75689  0.12352  0.51376 11.00000  0.02539   6.83
N011  3  0.21240  0.09684  0.40420 11.00000  0.03103   6.75
C012  2 -0.12790  0.86649  0.67691 11.00000  0.06692   6.64
N013  3  0.84359  0.30207  0.33529 11.00000  0.08585   6.64
C014  2  0.48447  0.50921  0.34825 11.00000  0.03920   6.58
C015  2  1.28502  0.08242  0.52389 11.00000  0.00194   6.49
C016  2  0.16935  1.11535  0.66342 11.00000  0.01486   6.41
C017  2 -0.32901  0.80729  0.63749 11.00000  0.02528   6.32
C018  2 -0.25659  0.90574  0.65038 11.00000  0.01158   6.22
N019  3  0.66029  0.07610  0.51581 11.00000  0.02277   6.08
C01A  2  0.90715  0.50326  0.28174 11.00000  0.02676   6.00
N01B  3 -0.03489  0.74973  0.54905 11.00000  0.00543   5.97
C01C  2  1.17304  0.11068  0.52845 11.00000  0.03112   5.96
C01D  2  0.45827  0.76340  0.56770 11.00000  0.02048   5.94
C01E  2  0.28901  0.68605  0.60912 11.00000  0.01510   5.71
C01F  2  0.30146  1.09970  0.66367 11.00000  0.00694   5.69
C01G  2  0.92511  0.15892  0.28834 11.00000  0.08830   5.64
C01H  2  0.58042  0.60723  0.36713 11.00000  0.00010   5.59
N01I  3  0.35557  0.84351  0.66244 11.00000  0.05685   5.47
C01J  2  0.89200  0.38713  0.32104 11.00000  0.02540   5.42
C01K  2  0.47097  0.80703  0.56207 11.00000  0.01806   5.32
C01L  2  1.02771  0.21802  0.27011 11.00000  0.01150   5.29
C01M  2 -0.34006  0.88338  0.63170 11.00000  0.00262   5.29
C01N  2  0.74897  0.17282  0.35390 11.00000  0.00388   5.25
C01O  2  0.69061  0.34333  0.32823 11.00000  0.05517   5.19
C01P  2  0.71096  0.09597  0.32852 11.00000  0.02636   5.18
C01Q  2  0.58443  0.00192  0.44785 11.00000  0.06555   5.10
C01R  2  0.36123  0.74439  0.55383 11.00000  0.02282   5.08
C01S  2  0.67901  0.47474  0.37920 11.00000  0.03284   5.03
O01T  4  0.12091  0.58347  0.49046 11.00000  0.11390   4.98
C01U  2 -0.03889  0.73305  0.61681 11.00000  0.02297   4.98
C01V  2  0.21749  0.25293  0.43338 11.00000  0.04810   4.96
C01W  2  0.72824  0.03307  0.50197 11.00000  0.03997   4.93
C01X  2 -0.14563  0.08817  0.40711 11.00000  0.07452   4.89
C01Y  2  0.26931  0.72641  0.54601 11.00000  0.04143   4.80
C01Z  2  0.31273  0.51241  0.67237 11.00000  0.03002   4.74
N020  3  0.01783  1.01277  0.73849 11.00000  0.02078   4.58
C021  2  0.30656  0.30742  0.44109 11.00000  0.08248   4.53
C022  2 -0.33678  0.60058  0.63902 11.00000  0.04160   4.53
C023  2  0.92618 -0.00586  0.52657 11.00000  0.03773   4.49
C024  2  0.24063  0.43280  0.46463 11.00000  0.00890   4.48
N025  3  0.59190  0.15155  0.52330 11.00000  0.04193   4.36
C026  2 -0.10969  0.61235  0.69096 11.00000  0.04890   4.35
C027  2  0.18050  0.82754  0.60448 11.00000  0.01991   4.32
C028  2  1.06362  0.12133  0.28278 11.00000  0.00354   4.29
N029  3  0.77419  0.25229  0.45435 11.00000  0.02186   4.24
C02A  2  0.69440 -0.13030  0.45274 11.00000  0.00319   4.19
C02B  2 -0.20561  0.80144  0.64333 11.00000  0.02306   4.16
C02C  2  0.09761  1.16929  0.66797 11.00000  0.09694   4.16
C02D  2 -0.29198  0.51275  0.63941 11.00000  0.00010   4.04
C02E  2  0.48588  0.79884  0.65778 11.00000  0.02608   4.04
C02F  2  0.60454  0.29264  0.38598 11.00000  0.03025   4.00
C02G  2  0.18774  0.47976  0.46465 11.00000  0.00639   3.98
C02H  2  0.27347  0.82181  0.69814 11.00000  0.00084   3.95
C02I  2  0.32601  0.61087  0.49505 11.00000  0.00832   3.93
O02J  4  0.10640  0.64627  0.73345 11.00000  0.05724   3.90
C02K  2  0.49046  0.00606  0.56305 11.00000  0.03535   3.78
N02L  3  0.68654  0.74345  0.30717 11.00000  0.02719   3.76
O02M  4  0.45954  0.46413  0.34106 11.00000  0.09301   3.75
C02N  2 -0.13507  0.58109  0.74865 11.00000  0.05163   3.71
C02O  2  0.79856  0.16787  0.48286 11.00000  0.03824   3.70
C02P  2 -0.01838  0.64583  0.58085 11.00000  0.00010   3.69
N02Q  3 -0.43616  1.22515  0.72369 11.00000  0.04703   3.69
C02R  2  0.02695  0.30912  0.45312 11.00000  0.07035   3.60
N02S  3  0.51990  0.67085  0.37112 11.00000  0.04420   3.48
C02T  2 -0.21653  0.53866  0.63145 11.00000  0.03667   3.40
C02U  2  0.28731  1.16627  0.65776 11.00000  0.05280   3.19
C02V  2  1.14740  0.19433  0.25135 11.00000  0.05285   3.17
C02W  2  0.28405  0.49485  0.45026 11.00000  0.02773   3.08
C02X  2  0.54417 -0.22515  0.43800 11.00000  0.00941   3.08
HKLF 4
END
