TITL shelx03-merge_expF_1_0_expS_1_5_shelx03-merge_a.res in P1
REM Old TITL 1 in I 1 #-1
REM SHELXT solution in P1: R1 0.754, Rweak 0.758, Alpha 0.000
REM <I/s>   0.000 for    0 systematic absences,  Orientation as input
REM Flack x = -9.990 ( 9.990 ) from   138 Parsons' quotients
REM Formula found by SHELXT:  C52 N14 O11

CELL  0.71073   9.3100  15.1100  30.5000   90.000   90.000   90.000
ZERR   52.000   0.0019   0.0030   0.0061    0.000    0.000    0.000
LATT -2
SFAC H C N O ZR
UNIT 20 20 20 20 20
L.S. 10
BOND
LIST 6
FMAP 2
PLAN 20
N001  3  0.01112  0.33611  0.65325 11.00000  0.02172  13.86
N002  3  0.24893  0.28886  0.64987 11.00000  0.00175  12.67
N003  3  0.81957  0.32495  0.64680 11.00000  0.00010  12.32
N004  3  0.11984  0.31081  0.65180 11.00000  0.00010  11.93
O005  4  0.64558  0.32334  0.65602 11.00000  0.00010  11.48
O006  4  0.40972  0.32416  0.64758 11.00000  0.00010  11.28
C007  2  0.46179  0.32989  0.77651 11.00000  0.00010   9.90
N008  3  0.55589  0.46442  0.70427 11.00000  0.00010   9.48
C009  2  0.87607  0.33949  0.68818 11.00000  0.09913   8.51
N00A  3  0.11013  0.39908  0.61027 11.00000  0.04591   8.02
O00B  4  0.45660  0.45193  0.71003 11.00000  0.03760   7.85
C00C  2  0.56665  0.41696  0.70422 11.00000  0.00010   7.37
C00D  2  0.32617  0.28094  0.39882 11.00000  0.00010   7.02
C00E  2  0.28762  0.27448  0.75897 11.00000  0.02679   6.34
C00F  2  0.59111  0.45415  0.36836 11.00000  0.02989   6.30
C00G  2  0.51394  0.29810  0.65148 11.00000  0.00010   5.95
C00H  2  0.51247  0.47014  0.50132 11.00000  0.00926   5.86
C00I  2  0.71597  0.30165  0.76271 11.00000  0.00215   5.77
C00J  2  0.64439  0.36230  0.76365 11.00000  0.01438   5.69
O00K  4  0.11395  0.12662  0.35721 11.00000  0.00010   5.65
C00L  2  0.29783  0.37050  0.62889 11.00000  0.00165   5.51
C00M  2  0.46912  0.50598  0.18246 11.00000  0.00282   5.49
C00N  2  0.18708  0.06523  0.34051 11.00000  0.01274   5.48
C00O  2  0.34380  0.49065  0.75988 11.00000  0.06305   5.42
C00P  2 -0.13696  0.30576  0.30188 11.00000  0.01222   5.41
C00Q  2  0.82569  1.03439  0.47341 11.00000  0.00539   5.20
C00R  2  0.41325  0.60616  0.49224 11.00000  0.00010   5.16
C00S  2  0.61598  0.35225  0.35426 11.00000  0.00114   5.05
C00T  2  0.26292  0.04837  0.40705 11.00000  0.06171   4.98
C00U  2  0.70825  0.24593  0.70526 11.00000  0.00577   4.97
C00V  2  0.67949  0.56128  0.51783 11.00000  0.00010   4.90
N00W  3  0.83914  0.78177  0.59153 11.00000  0.00010   4.85
O00X  4 -0.07349  0.46922  0.60684 11.00000  0.04712   4.77
N00Y  3  0.46559  0.38250  0.77880 11.00000  0.01682   4.73
O00Z  4  0.46843  0.31050  0.41829 11.00000  0.05901   4.73
C010  2  0.69672  0.48501  0.31564 11.00000  0.01998   4.71
C011  2  0.05227  0.52914  0.38488 11.00000  0.01071   4.61
N012  3  0.17657  0.30749  0.22946 11.00000  0.02090   4.61
C013  2  0.24132  0.22594  0.58362 11.00000  0.00967   4.49
C014  2  0.33471  0.54343  0.50431 11.00000  0.01506   4.47
C015  2  0.42242  0.40308  0.36399 11.00000  0.01617   4.46
C016  2  0.68295  0.72034  0.42051 11.00000  0.00672   4.39
C017  2  0.33235 -0.03439  0.40237 11.00000  0.02371   4.28
N018  3  0.08599  0.31129  0.82370 11.00000  0.00321   4.28
O019  4  0.70899  0.17651  0.70647 11.00000  0.04143   4.23
C01A  2  0.69839  0.52177  0.69328 11.00000  0.04113   4.23
C01B  2 -0.00786  0.24403  0.61855 11.00000  0.01025   4.17
C01C  2  0.45672  0.29710  0.50788 11.00000  0.01198   4.14
C01D  2  0.03788  0.28582  0.38992 11.00000  0.00079   4.11
C01E  2  0.91480  0.70405  0.42640 11.00000  0.01978   3.99
N01F  3  1.13696  0.78540  0.46759 11.00000  0.00671   3.95
C01G  2  0.84647  0.22324  0.77703 11.00000  0.02585   3.91
N01H  3  0.12084  0.49073  0.45091 11.00000  0.06531   3.87
C01I  2  0.02990  0.48763  0.58793 11.00000  0.03040   3.76
N01J  3  0.26745  0.47223  0.19320 11.00000  0.02966   3.75
C01K  2  0.49060  0.15627  0.75865 11.00000  0.00732   3.71
C01L  2  0.08785  0.29832  0.32000 11.00000  0.07178   3.71
C01M  2  0.73846  0.42796  0.67315 11.00000  0.00010   3.68
C01N  2  0.46138  0.21418  0.56839 11.00000  0.04189   3.68
C01O  2  0.03047  0.48579  0.68642 11.00000  0.00010   3.62
O01P  4  0.17413  0.02813  0.40908 11.00000  0.01701   3.61
C01Q  2  0.04766  0.25908  0.59356 11.00000  0.06553   3.58
C01R  2  0.93327  0.94426  0.47612 11.00000  0.00532   3.55
O01S  4  0.20882  0.26060  0.34480 11.00000  0.02899   3.43
O01T  4  0.59737  0.59486  0.18473 11.00000  0.01323   3.41
N01U  3  0.62968  0.55733  0.34766 11.00000  0.07519   3.37
C01V  2 -0.01661  0.39455  0.34948 11.00000  0.00507   3.32
C01W  2 -0.02481  0.58699  0.65638 11.00000  0.05347   3.30
C01X  2  0.15153  0.53428  0.77759 11.00000  0.00266   3.28
C01Y  2  0.71004  0.56852  0.17630 11.00000  0.04501   3.24
C01Z  2  0.25024  0.34529  0.41541 11.00000  0.01555   3.22
C020  2  0.48335  0.66713  0.58419 11.00000  0.01797   3.21
C021  2  0.61076  0.64780  0.37169 11.00000  0.01925   3.19
O022  4  0.24995  0.38725  0.39296 11.00000  0.07577   3.15
C023  2  0.73204  0.49882  0.74331 11.00000  0.02741   3.12
C024  2 -0.09529  0.54288  0.37166 11.00000  0.03239   3.04
C025  2  0.55592  0.48793  0.31870 11.00000  0.03035   3.04
HKLF 4
END
