TITL shelx03-merge_expF_0_9_expS_1_3_shelx03-merge_a.res in P1
REM Old TITL 1 in I 1 #-1
REM SHELXT solution in P1: R1 0.697, Rweak 0.289, Alpha 0.000
REM <I/s>   0.000 for    0 systematic absences,  Orientation as input
REM Flack x = -2.647 ( 0.723 ) from   279 Parsons' quotients
REM Formula found by SHELXT:  C89 N21 O17

CELL  0.71073   9.3100  15.1100  30.5000   90.000   90.000   90.000
ZERR   52.000   0.0019   0.0030   0.0061    0.000    0.000    0.000
LATT -2
SFAC H C N O ZR CL
UNIT 20 20 20 20 20 0
L.S. 10
BOND
LIST 6
FMAP 2
PLAN 20
CL01  6  0.24949  0.97225  0.38863 11.00000  0.05351  19.06
CL02  6  0.38633  0.96979  0.38841 11.00000  0.04902  18.47
CL03  6  0.62906  0.97380  0.39519 11.00000  0.02108  18.26
CL04  6  0.41107  0.80549  0.34281 11.00000  0.04524  15.24
CL05  6  0.06642  0.50313  0.57173 11.00000  0.05526  14.89
CL06  6  0.53731  0.75770  0.34566 11.00000  0.05220  14.77
CL07  6  0.16307  0.46201  0.57749 11.00000  0.08768  14.61
CL08  6 -0.07088  0.95567  0.42680 11.00000  0.05947  14.45
CL09  6  0.51517  0.96698  0.38776 11.00000  0.03242  13.96
CL0A  6  0.10082  0.97561  0.38998 11.00000  0.08828  13.82
C00B  2  0.44517  0.12197  0.34049 11.00000  0.00010  13.54
CL0C  6  0.14350  0.47634  0.77243 11.00000  0.01529  13.32
CL0D  6  0.28159  0.40753  0.57153 11.00000  0.05474  12.76
O00E  4  0.03461  0.47433  0.78416 11.00000  0.00632  11.99
N00F  3 -0.10817  0.99377  0.39039 11.00000  0.00010  11.73
O00G  4  0.10020  0.44014  0.58352 11.00000  0.00363  11.45
O00H  4  0.02312  0.91256  0.42232 11.00000  0.00503  11.08
N00I  3  0.72063  0.88327  0.41607 11.00000  0.00010  10.89
N00J  3  0.66154  0.51191  0.48329 11.00000  0.00182  10.57
N00K  3  0.71109  0.93558  0.39022 11.00000  0.02359   9.47
C00L  2  0.33695  0.46953  0.76664 11.00000  0.02279   9.46
N00M  3  1.16294  0.24931  0.62504 11.00000  0.00676   9.43
N00N  3  0.73365  0.13720  0.42094 11.00000  0.14265   9.40
O00O  4  0.56171  0.09154  0.33157 11.00000  0.00615   9.20
O00P  4  0.64642  0.46996  0.79035 11.00000  0.01878   8.97
O00Q  4  0.42925  1.00971  0.41511 11.00000  0.00567   8.44
O00R  4  0.49947  0.45722  0.75246 11.00000  0.01597   8.35
O00S  4  0.24551  0.49127  0.43485 11.00000  0.00642   7.84
N00T  3  0.38939  0.36684  0.56110 11.00000  0.02468   7.58
N00U  3  0.25863  0.46582  0.56313 11.00000  0.04895   7.41
N00V  3  0.48329  0.69979  0.34286 11.00000  0.00010   7.34
N00W  3  0.65452  0.84249  0.32932 11.00000  0.01558   7.19
N00X  3  0.74559  0.41345  0.45442 11.00000  0.02844   7.10
N00Y  3  0.44576  0.85019  0.36269 11.00000  0.00010   7.08
N00Z  3  0.41700  0.92444  0.36655 11.00000  0.00064   7.07
N010  3  0.51485  0.83426  0.54254 11.00000  0.00010   6.72
N011  3  0.94311  0.86206  0.33033 11.00000  0.02856   6.67
O012  4  0.83165  0.29389  0.66267 11.00000  0.02261   6.62
C013  2  0.38829  0.13575  0.27559 11.00000  0.00546   6.44
O014  4 -0.26165  0.25515  0.48004 11.00000  0.00960   6.26
C015  2 -0.34446  0.14522  0.51711 11.00000  0.01863   6.23
C016  2  0.61344  0.18967  0.25594 11.00000  0.06401   6.22
C017  2  0.08515  0.62585  0.60762 11.00000  0.03856   6.14
C018  2  0.16626  0.54122  0.59538 11.00000  0.00285   6.13
C019  2  1.29762  0.09259  0.66007 11.00000  0.02683   6.12
C01A  2  1.08361  0.33390  0.65018 11.00000  0.04870   6.06
C01B  2  0.61474  0.18891  0.71229 11.00000  0.02731   5.92
C01C  2  0.87133  0.47289  0.64610 11.00000  0.00010   5.86
C01D  2  1.06181 -0.00739  0.64474 11.00000  0.00010   5.71
C01E  2  0.65318  0.44326  0.57816 11.00000  0.00017   5.68
O01F  4  0.25353  0.47264  0.64844 11.00000  0.00057   5.67
C01G  2  0.54993  0.47725  0.50321 11.00000  0.00010   5.65
C01H  2  1.37349  0.09092  0.66302 11.00000  0.00611   5.57
C01I  2  0.20823  0.58046  0.46696 11.00000  0.00661   5.57
C01J  2  0.31063  1.01585  0.55983 11.00000  0.00010   5.54
O01K  4 -0.07624  0.18778  0.53057 11.00000  0.02258   5.51
O01L  4  0.58806  0.99760  0.55540 11.00000  0.06014   5.48
C01M  2  0.06325  0.17656  0.25501 11.00000  0.00573   5.45
C01N  2  0.62336  0.50074  0.62158 11.00000  0.01243   5.40
C01O  2  0.42223  0.50531  0.63165 11.00000  0.01040   5.34
O01P  4  0.36383  0.74112  0.53298 11.00000  0.02345   5.20
C01Q  2  0.42127  0.19149  0.40346 11.00000  0.03910   5.19
C01R  2  0.63368  0.39408  0.73610 11.00000  0.00010   4.95
C01S  2  0.65620  0.35767  0.22909 11.00000  0.02647   4.93
C01T  2  0.11436  0.75867  0.42508 11.00000  0.00010   4.86
O01U  4 -0.09340  0.30245  0.49294 11.00000  0.00010   4.82
C01V  2  0.68735  0.74553  0.45311 11.00000  0.00010   4.80
O01W  4 -0.42018  0.49984  0.31808 11.00000  0.03204   4.79
C01X  2  0.57180  0.33894  0.22392 11.00000  0.00010   4.73
C01Y  2  0.26596  0.35111  0.39512 11.00000  0.00010   4.64
C01Z  2  0.78783  0.61577  0.45392 11.00000  0.03216   4.63
C020  2 -0.07878  0.44851  0.51176 11.00000  0.02088   4.62
C021  2  0.46775  0.58666  0.47495 11.00000  0.00778   4.62
O022  4  0.52554  0.49588  0.69095 11.00000  0.00010   4.60
C023  2 -0.34634  0.57144  0.26800 11.00000  0.05186   4.59
C024  2  0.38512  0.59423  0.40748 11.00000  0.02706   4.53
C025  2 -0.41265  0.54820  0.31694 11.00000  0.01865   4.48
N026  3  1.16515  0.30937  0.62078 11.00000  0.02990   4.46
C027  2  0.77396  0.50826  0.65508 11.00000  0.00010   4.42
C028  2 -0.01751  0.57295  0.35698 11.00000  0.00010   4.39
C029  2  0.46919  0.81611  0.62080 11.00000  0.00587   4.37
C02A  2  0.35653  0.30413  0.38230 11.00000  0.05531   4.35
C02B  2  0.13820  0.68953  0.42679 11.00000  0.00010   4.35
C02C  2  0.21975  0.89309  0.42112 11.00000  0.01943   4.31
C02D  2  0.37035  0.94260  0.52702 11.00000  0.00010   4.30
C02E  2  0.68686  0.44895  0.53590 11.00000  0.00010   4.22
C02F  2 -0.09448  0.79778  0.42939 11.00000  0.01390   4.20
C02G  2 -0.03587  0.37970  0.76069 11.00000  0.00057   4.20
C02H  2  0.95058  0.03089  0.68182 11.00000  0.00315   4.13
C02I  2  0.35353  0.59672  0.71371 11.00000  0.01180   4.00
C02J  2  0.58532  0.18718  0.40593 11.00000  0.07600   3.95
C02K  2  0.17859  0.80541  0.35342 11.00000  0.01233   3.95
C02L  2  0.10427  0.31082  0.38633 11.00000  0.00010   3.94
C02M  2  0.28296  0.42020  0.41766 11.00000  0.00010   3.92
C02N  2  0.69141  0.44883  0.71448 11.00000  0.03218   3.92
C02O  2  1.02080  0.21508  0.61564 11.00000  0.04237   3.89
C02P  2  0.00560  0.15727  0.51887 11.00000  0.01287   3.88
C02Q  2  0.20272  0.20445  0.28316 11.00000  0.00530   3.86
C02R  2  0.51592  0.75331  0.52134 11.00000  0.01358   3.84
C02S  2  1.34929  0.32873  0.65203 11.00000  0.00107   3.79
C02T  2 -0.02838  0.61402  0.53580 11.00000  0.03725   3.78
C02U  2  0.77507  0.39850  0.78784 11.00000  0.00160   3.76
C02V  2  0.88665  0.41199  0.70273 11.00000  0.00962   3.76
C02W  2  0.29714  0.27542  0.39606 11.00000  0.03777   3.75
N02X  3  0.33856  0.21959  0.39217 11.00000  0.00010   3.74
C02Y  2  0.85740  0.06865  0.73824 11.00000  0.00174   3.69
C02Z  2 -0.11740  0.58503  0.33913 11.00000  0.00484   3.63
C030  2  0.70803  0.09687  0.65257 11.00000  0.03798   3.60
C031  2  1.37921  0.31361  0.62810 11.00000  0.02496   3.57
C032  2  0.51908  0.30091  0.23193 11.00000  0.01273   3.55
C033  2 -0.08721  0.72260  0.51978 11.00000  0.00010   3.52
C034  2  0.48711  0.46395  0.57619 11.00000  0.08678   3.47
C035  2  0.05275  0.52143  0.47324 11.00000  0.04241   3.42
C036  2  0.72634  0.09851  0.43898 11.00000  0.02816   3.41
C037  2  0.61226  0.71390  0.58002 11.00000  0.03112   3.41
C038  2  0.91108  0.75039  0.29562 11.00000  0.00010   3.41
C039  2 -0.02752  0.55849  0.48809 11.00000  0.02326   3.38
N03A  3  0.64357  0.22343  0.62304 11.00000  0.03673   3.34
C03B  2 -0.16982  0.77301  0.57183 11.00000  0.00010   3.30
C03C  2  0.72708  0.16640  0.27262 11.00000  0.00431   3.30
C03D  2  0.28049  0.66444  0.42865 11.00000  0.01793   3.29
C03E  2  0.54721  0.55516  0.60573 11.00000  0.00372   3.28
C03F  2 -0.00034  0.68555  0.51694 11.00000  0.00010   3.27
C03G  2  0.72598  0.62912  0.59586 11.00000  0.02864   3.26
N03H  3  0.56849  0.82813  0.63822 11.00000  0.03343   3.23
C03I  2  1.00145 -0.01585  0.67253 11.00000  0.00010   3.23
C03J  2  0.30295  0.28044  0.53307 11.00000  0.01326   3.22
C03K  2  0.68804  0.74466  0.27245 11.00000  0.00010   3.22
C03L  2  0.97695  0.42797  0.65707 11.00000  0.02394   3.19
C03M  2  0.16146  0.23153  0.34713 11.00000  0.01660   3.18
C03N  2  0.56459  0.19728  0.21065 11.00000  0.00010   3.17
C03O  2 -0.00314  0.32695  0.48861 11.00000  0.00275   3.15
C03P  2  0.81800  0.31484  0.20965 11.00000  0.05463   3.15
C03Q  2  0.73040  0.48086  0.70248 11.00000  0.00010   3.13
C03R  2  1.42018 -0.00541  0.64414 11.00000  0.01877   3.08
C03S  2 -0.16559  0.49513  0.31702 11.00000  0.06490   3.05
N03T  3 -0.01838  0.02649  0.55668 11.00000  0.00828   3.02
N03U  3 -0.01577  0.69965  0.61681 11.00000  0.02663   3.01
C03V  2 -0.07834  0.71169  0.38168 11.00000  0.00010   3.00
HKLF 4
END
