TITL shelx03-merge_expF_1_2_expS_1_5_shelx03-merge_a.res in P1
REM Old TITL 1 in I 1 #-1
REM SHELXT solution in P1: R1 0.809, Rweak 0.246, Alpha 0.000
REM <I/s>   0.000 for    0 systematic absences,  Orientation as input
REM Flack x = -9.990 ( 9.990 ) from   231 Parsons' quotients
REM Formula found by SHELXT:  C40 N14 O17

CELL  0.71073   9.3100  15.1100  30.5000   90.000   90.000   90.000
ZERR   52.000   0.0019   0.0030   0.0061    0.000    0.000    0.000
LATT -2
SFAC H C N O ZR
UNIT 20 20 20 20 20
L.S. 10
BOND
LIST 6
FMAP 2
PLAN 20
O001  4  0.29223  0.49216  0.72601 11.00000  0.01550  14.04
O002  4  0.17885  0.48605  0.72590 11.00000  0.00010  13.18
O003  4  0.29516  0.51108  0.38861 11.00000  0.00631  13.12
O004  4  0.69399  0.49212  0.72372 11.00000  0.06105  12.76
O005  4  0.54140  0.48696  0.73162 11.00000  0.02289  12.17
O006  4  0.81558  0.47379  0.72685 11.00000  0.02152  10.68
N007  3  0.38079  0.56647  0.39758 11.00000  0.00187   9.80
O008  4  0.43420  0.46157  0.72639 11.00000  0.00596   9.71
C009  2  0.15634  0.66460  0.38658 11.00000  0.00010   9.19
N00A  3  0.24725  0.49649  0.60301 11.00000  0.00010   8.30
N00B  3  0.94986  0.38657  0.46867 11.00000  0.02680   8.20
O00C  4  1.02441  0.52763  0.43231 11.00000  0.01594   8.20
O00D  4  0.54424  0.55627  0.39128 11.00000  0.03254   8.13
O00E  4  0.79151  0.46879  0.40788 11.00000  0.03389   7.76
O00F  4  0.84742  0.65582  0.47875 11.00000  0.02032   7.24
O00G  4  0.35596  0.50542  0.60081 11.00000  0.02891   7.24
C00H  2  0.57613  0.48485  0.42329 11.00000  0.03112   7.19
C00I  2  0.08920  0.46719  0.61120 11.00000  0.00010   7.09
N00J  3  0.75296  0.63263  0.28181 11.00000  0.00010   7.03
C00K  2  0.97766  0.62119  0.46511 11.00000  0.02125   6.93
N00L  3  0.93552  0.51176  0.72829 11.00000  0.08248   6.74
N00M  3  0.16163  0.70765  0.38804 11.00000  0.02385   6.46
C00N  2  0.94514  0.38761  0.29527 11.00000  0.04975   6.32
O00O  4  0.28869  0.39384  0.44498 11.00000  0.03085   6.27
C00P  2  0.83212  0.67053  0.26838 11.00000  0.00010   6.26
C00Q  2  0.92470  0.57924  0.43272 11.00000  0.00010   6.03
C00R  2  0.82446  0.42979  0.48115 11.00000  0.00010   5.96
C00S  2  0.30508  0.33839  0.38846 11.00000  0.00010   5.86
C00T  2  0.46222  0.51405  0.32470 11.00000  0.00010   5.85
O00U  4  1.01837  0.50967  0.32543 11.00000  0.02882   5.82
N00V  3  1.03213 -0.00745  0.48696 11.00000  0.01630   5.77
C00W  2  0.03815  0.34570  0.67178 11.00000  0.01727   5.63
C00X  2  1.03616  0.31989  0.47038 11.00000  0.01561   5.49
C00Y  2  0.83429  0.41827  0.30946 11.00000  0.04840   5.39
C00Z  2  1.05210  0.44243  0.30783 11.00000  0.02567   5.36
C010  2  0.49284  0.36821  0.41054 11.00000  0.05634   5.24
C011  2 -0.02154  0.50035  0.59755 11.00000  0.01163   5.11
C012  2  0.91051  0.61158  0.30119 11.00000  0.01136   4.90
C013  2  0.55083  0.35152  0.67614 11.00000  0.00010   4.70
N014  3  0.94273  0.70844  0.66077 11.00000  0.02610   4.65
C015  2  0.40797  0.39221  0.44926 11.00000  0.01241   4.58
N016  3 -0.05762  0.35627  0.66205 11.00000  0.00141   4.53
C017  2  0.33972  0.65419  0.38201 11.00000  0.00010   4.43
C018  2  0.52271  0.32518  0.43519 11.00000  0.00762   4.42
C019  2  0.19649  0.37796  0.66976 11.00000  0.00383   4.39
N01A  3  0.41637  0.33942  0.66155 11.00000  0.01582   4.39
C01B  2  0.88230  0.53388  0.49406 11.00000  0.00010   4.35
C01C  2  0.78174  0.50161  0.48100 11.00000  0.03963   4.34
N01D  3  1.02913  0.35415  0.29358 11.00000  0.02123   4.29
C01E  2  0.51134  0.64152  0.48008 11.00000  0.02615   4.22
C01F  2  1.12953  0.45574  0.48155 11.00000  0.08956   3.87
C01G  2  0.40638  0.70571  0.43732 11.00000  0.04656   3.84
C01H  2  0.66329  0.47264  0.30632 11.00000  0.00091   3.79
C01I  2  0.27020  0.34217  0.67059 11.00000  0.00010   3.75
N01J  3  1.21120  0.74422  0.59113 11.00000  0.04611   3.73
C01K  2  0.90242  0.63161  0.36340 11.00000  0.00010   3.56
C01L  2  0.61770  0.51975  0.52808 11.00000  0.00658   3.55
O01M  4  1.10164  0.20216  0.43383 11.00000  0.01504   3.51
O01N  4 -0.26266  0.89310  0.37466 11.00000  0.06895   3.37
C01O  2 -0.13528  0.88972  0.35588 11.00000  0.02520   3.37
C01P  2  0.63964  0.54853  0.46833 11.00000  0.00010   3.29
C01Q  2  1.26266  0.05930  0.44721 11.00000  0.07362   3.27
C01R  2  1.00404  0.26062  0.53023 11.00000  0.00010   3.24
O01S  4  0.03139  1.00745  0.37522 11.00000  0.06118   3.17
C01T  2  0.57282  0.45940  0.34892 11.00000  0.00010   3.10
C01U  2  1.19802  0.20129  0.42799 11.00000  0.04374   3.08
N01V  3  0.80848  0.75714  0.58569 11.00000  0.03322   3.07
C01W  2  0.09963  0.96200  0.38555 11.00000  0.00902   3.03
C01X  2  1.03324  0.70676  0.31184 11.00000  0.00811   3.03
N01Y  3  0.60343  0.25920  0.32695 11.00000  0.03281   3.03
C01Z  2  0.21700  0.82735  0.43108 11.00000  0.01229   3.01
HKLF 4
END
