TITL shelx03-merge_expF_1_5_expS_1_0_shelx03-merge_a.res in P1
REM Old TITL 1 in I 1 #-1
REM SHELXT solution in P1: R1 0.903, Rweak 0.397, Alpha 0.000
REM <I/s>   0.000 for    0 systematic absences,  Orientation as input
REM Flack x = -5.009 ( 1.593 ) from   615 Parsons' quotients
REM Formula found by SHELXT:  C29 N9 O27

CELL  0.71073   9.3100  15.1100  30.5000   90.000   90.000   90.000
ZERR   52.000   0.0019   0.0030   0.0061    0.000    0.000    0.000
LATT -2
SFAC H C N O ZR
UNIT 20 20 20 20 20
L.S. 10
BOND
LIST 6
FMAP 2
PLAN 20
ZR01  5  0.68674  0.36079  0.60086 11.00000  0.08871  29.91
ZR02  5  0.56226  0.35600  0.60338 11.00000  0.03512  25.90
O003  4  0.87071  0.34648  0.60079 11.00000  0.01112  23.90
O004  4  1.05036  0.37099  0.60704 11.00000  0.00044  20.40
O005  4  0.44164  0.38387  0.61392 11.00000  0.00074  19.16
O006  4  0.93130  0.36769  0.60081 11.00000  0.00109  18.22
O007  4 -0.13118  0.22581  0.54165 11.00000  0.02053  17.90
O008  4  0.14778  0.35412  0.48841 11.00000  0.01092  15.47
O009  4  0.45073  0.26177  0.67585 11.00000  0.00010  11.98
O00A  4  0.60026  0.06218  0.64201 11.00000  0.01706  11.17
O00B  4  0.68612  0.36238  0.48908 11.00000  0.01960  10.52
O00C  4  0.17528  0.77904  0.76139 11.00000  0.04633  10.44
O00D  4  0.48666  0.28702  0.50119 11.00000  0.04147  10.11
O00E  4  0.50017  0.16313  0.64900 11.00000  0.00417   9.90
C00F  2  0.80280  0.76241  0.40724 11.00000  0.01133   9.60
O00G  4  0.85242  0.84074  0.37513 11.00000  0.03622   8.91
O00H  4  0.29801  0.21761  0.65606 11.00000  0.03525   8.63
O00I  4  0.74997  0.02858  0.65303 11.00000  0.00010   8.51
O00J  4  0.58669 -0.09133  0.64532 11.00000  0.02645   8.46
O00K  4  0.04282  0.09484  0.56409 11.00000  0.00010   8.26
O00L  4  0.29754  0.37075  0.66413 11.00000  0.05788   8.06
O00M  4  0.75566  0.79015  0.43480 11.00000  0.05130   7.93
C00N  2  0.53533  0.65183  0.27384 11.00000  0.07093   7.82
O00O  4  0.93631  0.78627  0.37454 11.00000  0.00518   7.81
O00P  4  0.92500  0.62762  0.37230 11.00000  0.03260   7.67
N00Q  3  0.41511  0.31139  0.67980 11.00000  0.00010   7.65
O00R  4  0.82115  1.09133  0.41278 11.00000  0.05445   7.62
O00S  4  0.19450  0.19994  0.56876 11.00000  0.00634   7.62
C00T  2  0.00845  0.07657  0.57392 11.00000  0.00099   7.41
O00U  4  0.09145  0.31673  0.31691 11.00000  0.03308   7.30
O00V  4  0.10342  0.23916  0.54213 11.00000  0.03997   7.27
C00W  2  0.83973  1.01962  0.39740 11.00000  0.00266   7.25
N00X  3  0.54204  0.58578  0.27076 11.00000  0.00010   7.12
O00Y  4  0.14768  0.83640  0.44484 11.00000  0.00697   7.05
C00Z  2  0.56059 -0.09029  0.66652 11.00000  0.00131   6.89
N010  3  0.60425  0.60603  0.46328 11.00000  0.07623   6.66
N011  3  0.42706  0.87022  0.27971 11.00000  0.01510   6.53
N012  3  0.85763  0.54714  0.53731 11.00000  0.01877   6.48
C013  2  0.18641  0.87444  0.43528 11.00000  0.00010   6.36
C014  2  0.38765  0.15409  0.54041 11.00000  0.00010   5.78
C015  2  0.46425  0.76585  0.37304 11.00000  0.03094   5.59
N016  3  0.26904  0.59010  0.67622 11.00000  0.01813   5.56
C017  2  0.28453  0.83919  0.23861 11.00000  0.00010   5.53
C018  2  0.38033  0.29955  0.57264 11.00000  0.06348   5.03
C019  2  0.56016  0.84881  0.42201 11.00000  0.01924   5.01
C01A  2  0.25165  0.47494  0.68703 11.00000  0.00010   4.92
C01B  2  0.13685  0.15733  0.35116 11.00000  0.03606   4.86
C01C  2  0.22289  0.73800  0.45873 11.00000  0.03518   4.82
C01D  2  0.74065  0.13208  0.60591 11.00000  0.00010   4.73
C01E  2  0.11899  0.20424  0.59204 11.00000  0.02660   4.71
C01F  2  0.65047  0.88396  0.34062 11.00000  0.00010   4.42
C01G  2  0.30013  0.73337  0.38664 11.00000  0.00010   4.33
O01H  4  0.15740  0.55109  0.49229 11.00000  0.02241   4.18
C01I  2  0.18659  0.61922  0.46594 11.00000  0.00010   4.09
C01J  2  0.61244  0.66735  0.45949 11.00000  0.02122   4.08
C01K  2  0.29056  0.12257  0.62037 11.00000  0.00418   3.85
C01L  2  0.43895  0.36442  0.44880 11.00000  0.00765   3.74
C01M  2  0.31223  0.35858  0.37907 11.00000  0.00010   3.55
C01N  2  0.37242  0.78864  0.44403 11.00000  0.00010   3.51
C01O  2  0.21696  0.11064  0.35189 11.00000  0.03935   3.50
C01P  2  0.00582  0.20633  0.34826 11.00000  0.03896   3.44
N01Q  3  0.06029  0.87119  0.53791 11.00000  0.00010   3.40
N01R  3  0.62531  0.55928  0.59285 11.00000  0.00479   3.29
C01S  2  0.27859  0.79825  0.24602 11.00000  0.00010   3.15
C01T  2  0.38338  0.34088  0.51748 11.00000  0.01489   3.13
N01U  3  1.13118  0.66476  0.30880 11.00000  0.00443   3.03
C01V  2  0.80504  0.19548  0.65950 11.00000  0.00074   3.01
HKLF 4
END
