TITL shelx03-merge_expF_0_7_expS_1_3_shelx03-merge_a.res in P1
REM Old TITL 1 in I 1 #-1
REM SHELXT solution in P1: R1 0.719, Rweak 0.048, Alpha 0.000
REM <I/s>   0.000 for    0 systematic absences,  Orientation as input
REM Flack x = -0.671 ( 0.451 ) from   385 Parsons' quotients
REM Formula found by SHELXT:  C76 N31 O42

CELL  0.71073   9.3100  15.1100  30.5000   90.000   90.000   90.000
ZERR   52.000   0.0019   0.0030   0.0061    0.000    0.000    0.000
LATT -2
SFAC H C N O ZR CL
UNIT 20 20 20 20 20 0
L.S. 10
BOND
LIST 6
FMAP 2
PLAN 20
CL01  6  1.04527  0.39652  0.32470 11.00000  0.01969  23.54
CL02  6  0.91885  0.39249  0.32029 11.00000  0.02976  23.25
CL03  6  1.49980  0.39675  0.32190 11.00000  0.05115  19.11
CL04  6  1.65462  0.40605  0.32116 11.00000  0.05407  19.10
CL05  6  1.45957  0.33035  0.43913 11.00000  0.09300  18.11
CL06  6  1.17709  0.38624  0.31816 11.00000  0.02184  16.75
CL07  6  0.92598  0.49106  0.30124 11.00000  0.08069  16.53
CL08  6  0.53863  0.00388  0.49171 11.00000  0.03729  16.11
CL09  6  0.79077  0.36491  0.75334 11.00000  0.02356  15.69
CL0A  6  1.30932  0.38955  0.31701 11.00000  0.03934  15.62
CL0B  6  0.53214  0.08461  0.65593 11.00000  0.02008  14.95
CL0C  6  0.49815  0.62709  0.51998 11.00000  0.04453  14.83
CL0D  6  1.64240  0.35635  0.35482 11.00000  0.01150  14.69
CL0E  6  1.57694  0.28453  0.43057 11.00000  0.02860  13.43
CL0F  6  0.44029  0.23071  0.66738 11.00000  0.01243  13.30
CL0G  6  0.42700  0.00548  0.49943 11.00000  0.05148  12.67
O00H  4  1.34096  0.27164  0.37177 11.00000  0.07305  12.28
N00I  3  0.47955  0.44796  0.57750 11.00000  0.00010  12.19
O00J  4 -0.23053  0.25627  0.60061 11.00000  0.00010  12.15
O00K  4  0.33758  0.47242  0.56984 11.00000  0.00010  12.14
N00L  3  0.97077  0.42709  0.47979 11.00000  0.03983  12.04
O00M  4  1.34948  0.42250  0.23769 11.00000  0.00010  12.02
O00N  4  1.66427  0.11053  0.29705 11.00000  0.02779  11.92
N00O  3  1.47144  0.10510  0.29669 11.00000  0.01823  11.74
N00P  3  0.83337  0.35892  0.33161 11.00000  0.00346  11.45
O00Q  4  0.55954  0.23257  0.66148 11.00000  0.02472  11.18
O00R  4  0.93752  0.46899  0.50335 11.00000  0.01160  11.12
O00S  4  1.57044  0.43238  0.43060 11.00000  0.00201  11.12
N00T  3  0.45004  0.15608  0.65175 11.00000  0.00154  11.05
O00U  4  1.33437  0.38857  0.43639 11.00000  0.08144  10.56
O00V  4 -0.46358  0.86749  0.60842 11.00000  0.01850  10.24
O00W  4  1.62586  0.39799  0.19375 11.00000  0.03652  10.14
O00X  4  1.45954  0.18345  0.30011 11.00000  0.00010  10.07
O00Y  4  0.83698  0.40924  0.55120 11.00000  0.00907  10.06
O00Z  4  1.51057  0.06310  0.30588 11.00000  0.00010  10.00
O010  4  1.20583  0.05647  0.30970 11.00000  0.06496   9.99
C011  2  0.11324  0.14856  0.57109 11.00000  0.01173   9.93
O012  4  0.61656  0.17480  0.66125 11.00000  0.07248   9.42
C013  2  1.10059  0.37723  0.46214 11.00000  0.00010   9.33
N014  3  1.54715  0.16960  0.37452 11.00000  0.00555   9.31
O015  4  1.23347  0.26569  0.28404 11.00000  0.00669   9.29
O016  4  1.07425  0.20089  0.31821 11.00000  0.04672   9.22
N017  3 -0.18804  0.77724  0.53142 11.00000  0.00549   9.20
O018  4  1.48931  0.54668  0.24924 11.00000  0.05538   9.06
N019  3  0.57423  0.13443  0.69344 11.00000  0.01035   8.75
O01A  4  1.67993  0.17519  0.38281 11.00000  0.00010   8.68
N01B  3  1.11214  0.41006  0.51077 11.00000  0.05839   8.63
N01C  3  0.12905  0.44003  0.62622 11.00000  0.03686   8.48
O01D  4  0.48199  0.32256  0.61621 11.00000  0.01070   8.43
O01E  4  0.55782  0.42306  0.65590 11.00000  0.00010   8.42
O01F  4  0.54979  0.48824  0.75518 11.00000  0.00010   8.36
N01G  3  0.83842  0.31368  0.34582 11.00000  0.02128   8.28
O01H  4  1.19306 -0.02433  0.32597 11.00000  0.04217   8.27
O01I  4  0.85486  0.16054  0.32587 11.00000  0.00010   8.26
O01J  4  1.73093  0.39207  0.41763 11.00000  0.00639   8.18
O01K  4  0.20165  0.61572  0.54092 11.00000  0.06869   8.09
N01L  3 -0.28339  0.70254  0.56240 11.00000  0.00750   7.96
O01M  4 -0.74902  0.82959  0.57687 11.00000  0.00010   7.81
O01N  4  0.90280  0.36371  0.21615 11.00000  0.07885   7.76
N01O  3  1.23809  0.32391  0.49818 11.00000  0.05873   7.72
O01P  4 -0.03884  0.23782  0.67646 11.00000  0.01748   7.53
O01Q  4  0.36703  0.12511  0.49607 11.00000  0.06208   7.51
O01R  4  0.57191  0.38510  0.53402 11.00000  0.05257   7.42
N01S  3 -0.07475  0.29806  0.57673 11.00000  0.00060   7.42
O01T  4  1.64931  0.00111  0.38191 11.00000  0.02864   7.42
N01U  3  0.46423  0.80093  0.50782 11.00000  0.11788   7.37
N01V  3  0.39381  0.24480  0.60879 11.00000  0.00010   7.33
O01W  4  0.18255  0.17834  0.51158 11.00000  0.00010   7.31
N01X  3  0.88023  0.70432  0.28907 11.00000  0.00010   7.22
N01Y  3 -0.04219  0.30026  0.62855 11.00000  0.00364   7.19
N01Z  3  1.55468  0.31729  0.29152 11.00000  0.00010   7.14
N020  3  0.68620  0.27047  0.72869 11.00000  0.00010   7.13
N021  3  0.46069  0.09580  0.45210 11.00000  0.00010   7.08
N022  3 -0.54981  0.76991  0.59272 11.00000  0.06857   7.08
N023  3  0.76941  0.44643  0.74623 11.00000  0.00010   7.05
O024  4  0.86035  0.22334  0.78779 11.00000  0.00874   6.87
N025  3  0.25304  0.50581  0.58780 11.00000  0.00010   6.76
N026  3  0.11575  0.92880  0.46246 11.00000  0.02771   6.75
O027  4  1.05376  0.27646  0.75242 11.00000  0.00271   6.74
O028  4  0.20655  0.13997  0.58785 11.00000  0.02936   6.71
N029  3  0.27702  0.30986  0.63987 11.00000  0.02955   6.71
C02A  2  1.74902  0.34158  0.42098 11.00000  0.00010   6.68
N02B  3  1.48365  0.40417  0.21193 11.00000  0.00010   6.66
N02C  3  0.65762  0.40041  0.72927 11.00000  0.00116   6.57
C02D  2  1.15924  0.31466  0.37122 11.00000  0.00010   6.46
C02E  2  1.51665  0.21823  0.37398 11.00000  0.00010   6.45
C02F  2  1.63379  0.09386  0.39887 11.00000  0.00010   6.42
C02G  2 -0.11632  0.14018  0.57518 11.00000  0.00010   6.41
C02H  2 -0.02141  0.08997  0.58606 11.00000  0.01818   6.32
C02I  2 -0.14119  0.76345  0.42134 11.00000  0.00010   6.25
C02J  2  1.36217  0.42075  0.48836 11.00000  0.02689   6.22
C02K  2  0.90073  0.36854  0.70083 11.00000  0.00075   6.21
C02L  2  0.87030  0.47983  0.34622 11.00000  0.02680   6.15
C02M  2  1.43881  0.26093  0.18563 11.00000  0.04402   6.07
C02N  2  0.03384  0.76377  0.49863 11.00000  0.00821   5.95
C02O  2  0.05833  0.92176  0.40619 11.00000  0.00010   5.94
C02P  2  0.30374  0.69939  0.52414 11.00000  0.01117   5.92
O02Q  4  0.02538  0.59699  0.67053 11.00000  0.00010   5.88
C02R  2  0.97134  0.55383  0.33555 11.00000  0.01189   5.84
C02S  2  1.30206  0.15288  0.30162 11.00000  0.00868   5.83
C02T  2  1.31792  0.20370  0.24358 11.00000  0.00010   5.81
C02U  2  1.51550  0.47273  0.21903 11.00000  0.03821   5.74
C02V  2  1.26996  0.29579  0.29203 11.00000  0.01567   5.72
C02W  2  0.09628  1.04844  0.48375 11.00000  0.01354   5.68
C02X  2  1.68817  0.29887  0.39444 11.00000  0.00010   5.66
C02Y  2  0.54421  0.47620  0.57457 11.00000  0.05392   5.59
C02Z  2 -0.54810  0.81919  0.61990 11.00000  0.00246   5.57
C030  2  0.74137  0.49256  0.36869 11.00000  0.00010   5.56
C031  2  0.88001  0.21756  0.23812 11.00000  0.04772   5.53
C032  2  0.21812  0.39064  0.72711 11.00000  0.00010   5.29
C033  2  0.29968  0.51579  0.61999 11.00000  0.07593   5.28
C034  2  0.98761  0.24848  0.76957 11.00000  0.03391   5.24
C035  2  0.26942  0.27467  0.70189 11.00000  0.00106   5.20
C036  2  0.98937  0.23874  0.33621 11.00000  0.00010   5.19
C037  2  0.01350  0.25855  0.58469 11.00000  0.03196   5.18
C038  2  1.09712  0.45253  0.51162 11.00000  0.00010   5.13
C039  2 -0.17393  0.68278  0.56284 11.00000  0.00010   5.06
C03A  2  0.07901  0.73453  0.43147 11.00000  0.02102   5.03
C03B  2  0.91853  0.47280  0.60337 11.00000  0.00010   4.98
C03C  2  0.21629  0.80083  0.43644 11.00000  0.00010   4.94
C03D  2  0.48934  0.27888  0.71257 11.00000  0.00010   4.85
C03E  2  0.58953  0.27710  0.77478 11.00000  0.00010   4.85
C03F  2  0.44302  0.74213  0.48446 11.00000  0.00012   4.83
C03G  2  0.74165  0.43171  0.54966 11.00000  0.00010   4.75
C03H  2  0.10667  0.67687  0.53786 11.00000  0.00735   4.75
C03I  2 -0.06092  0.82108  0.61726 11.00000  0.02094   4.69
C03J  2  1.35586 -0.04844  0.32373 11.00000  0.02499   4.69
N03K  3  0.30331  0.09530  0.70588 11.00000  0.00458   4.65
C03L  2  0.77007  0.68012  0.35251 11.00000  0.00010   4.62
C03M  2  0.72737  0.57293  0.43488 11.00000  0.00010   4.60
N03N  3  0.91848  0.59480  0.33348 11.00000  0.03570   4.60
C03O  2  0.63728  0.21854  0.81192 11.00000  0.04240   4.59
C03P  2 -0.19210  0.63245  0.56020 11.00000  0.00010   4.57
C03Q  2  1.31004  0.46178  0.22469 11.00000  0.00711   4.56
O03R  4  0.24895  0.59721  0.63118 11.00000  0.07617   4.55
C03S  2  0.29861  0.41430  0.71097 11.00000  0.01073   4.50
C03T  2 -0.36955  0.66571  0.57756 11.00000  0.00331   4.36
C03U  2 -0.24751  0.83360  0.59175 11.00000  0.00010   4.33
C03V  2  0.03951  0.59062  0.44133 11.00000  0.01214   4.30
C03W  2  1.42136  0.48847  0.29619 11.00000  0.00010   4.21
C03X  2  0.55445  0.10115  0.76028 11.00000  0.03008   4.18
C03Y  2  0.33443  0.73374  0.46379 11.00000  0.00010   4.18
C03Z  2  0.18176  0.04040  0.60767 11.00000  0.00010   4.16
C040  2  0.83622  0.16431  0.81437 11.00000  0.02196   4.13
C041  2  0.65859  0.37885  0.60851 11.00000  0.05298   4.04
C042  2  0.21570  0.45528  0.64685 11.00000  0.03367   4.01
O043  4 -0.11657  0.81914  0.48613 11.00000  0.00010   3.98
C044  2  1.02872  0.33540  0.26011 11.00000  0.00010   3.96
C045  2  0.24849  0.36991  0.60119 11.00000  0.03236   3.85
C046  2  0.22469  0.59565  0.45292 11.00000  0.01156   3.83
C047  2  0.74937  0.34885  0.66117 11.00000  0.00010   3.78
O048  4  0.07601  0.34292  0.65790 11.00000  0.29934   3.74
C049  2 -0.35491  0.92579  0.62045 11.00000  0.02906   3.71
N04A  3  0.38770  0.58601  0.53495 11.00000  0.13203   3.66
C04B  2 -0.12585  0.86846  0.37591 11.00000  0.03861   3.57
C04C  2  1.63551  0.09769  0.36640 11.00000  0.09545   3.51
C04D  2  0.22524  0.36622  0.66599 11.00000  0.03435   3.47
C04E  2  0.92764  0.36698  0.36831 11.00000  0.07033   3.33
C04F  2 -0.48817  0.85004  0.63608 11.00000  0.06806   3.32
C04G  2  0.66406  0.23368  0.21647 11.00000  0.00010   3.31
C04H  2  0.64484  0.54010  0.62344 11.00000  0.13417   3.30
C04I  2  0.62136  0.51051  0.69825 11.00000  0.00118   3.29
C04J  2 -0.16225  0.86322  0.55986 11.00000  0.00010   3.06
O04K  4 -0.30446  0.82021  0.62850 11.00000  0.05712   3.02
C04L  2  0.41709  0.30521  0.58816 11.00000  0.00010   3.01
HKLF 4
END
