TITL shelx03-merge_expF_1_1_expS_1_3_shelx03-merge_a.res in P1
REM Old TITL 1 in I 1 #-1
REM SHELXT solution in P1: R1 0.743, Rweak 0.259, Alpha 0.000
REM <I/s>   0.000 for    0 systematic absences,  Orientation as input
REM Flack x = -3.292 ( 0.352 ) from   420 Parsons' quotients
REM Formula found by SHELXT:  C75 N26 O32

CELL  0.71073   9.3100  15.1100  30.5000   90.000   90.000   90.000
ZERR   52.000   0.0019   0.0030   0.0061    0.000    0.000    0.000
LATT -2
SFAC H C N O ZR
UNIT 20 20 20 20 20
L.S. 10
BOND
LIST 6
FMAP 2
PLAN 20
ZR01  5  0.14093  0.11078  0.31739 11.00000  0.05578  30.31
ZR02  5  0.25988  0.08363  0.31445 11.00000  0.06361  28.75
O003  4  0.50187  0.10690  0.31421 11.00000  0.00010  23.41
O004  4  0.36720  0.13042  0.31607 11.00000  0.00010  23.28
N005  3  0.62175  0.10619  0.32178 11.00000  0.00986  22.18
N006  3 -0.02184  0.09606  0.31501 11.00000  0.00010  21.35
O007  4  0.85179  0.60857  0.57282 11.00000  0.00010  16.05
C008  2  0.89591  0.74714  0.76236 11.00000  0.00010  15.10
O009  4  0.78718  0.11762  0.30954 11.00000  0.00047  13.73
O00A  4  0.60192  0.63218  0.48255 11.00000  0.06258  12.33
O00B  4  0.08596  0.59611  0.53401 11.00000  0.01865  12.29
O00C  4  1.18199  0.63176  0.69761 11.00000  0.00524  12.15
N00D  3  0.47986  0.51252  0.48226 11.00000  0.01235  11.90
N00E  3  0.14799  0.68368  0.51836 11.00000  0.00010  11.56
C00F  2  1.16204  0.86606  0.69453 11.00000  0.01938  11.43
O00G  4  0.54627  0.10550  0.44648 11.00000  0.02708  10.85
N00H  3  0.91159  0.96967  0.73796 11.00000  0.00041  10.79
O00I  4  0.31133  0.26738  0.37824 11.00000  0.06636  10.46
O00J  4  0.36364  0.76884  0.65440 11.00000  0.01222   9.78
O00K  4 -0.01411  0.45782  0.57433 11.00000  0.00010   9.78
O00L  4  0.69284  0.56919  0.49630 11.00000  0.02366   9.76
N00M  3  0.32703  0.74459  0.47596 11.00000  0.01872   9.69
N00N  3  0.78573  0.99362  0.73277 11.00000  0.00393   9.50
O00O  4 -0.26191  0.00100  0.24172 11.00000  0.00643   9.42
O00P  4  0.41310  0.15910  0.43956 11.00000  0.06358   9.22
O00Q  4  0.13895  0.53656  0.53353 11.00000  0.00682   8.92
O00R  4  0.39498  0.30341  0.59804 11.00000  0.07169   8.90
O00S  4  0.03633  0.28835  0.34038 11.00000  0.00481   8.66
O00T  4  0.43644  0.72152  0.48447 11.00000  0.00010   8.38
O00U  4  0.61492  0.02937  0.35287 11.00000  0.00699   8.36
O00V  4 -0.09455 -0.09085  0.24356 11.00000  0.00542   8.34
O00W  4  0.54922  0.57687  0.70266 11.00000  0.05276   8.32
O00X  4 -0.06344  0.05164  0.29251 11.00000  0.04653   8.22
N00Y  3  0.60859  0.41896  0.47585 11.00000  0.00473   7.98
O00Z  4  1.21961  1.08073  0.64765 11.00000  0.05333   7.82
N010  3  0.44186  0.60503  0.68387 11.00000  0.00010   7.46
O011  4  0.73392  0.77574  0.77940 11.00000  0.03008   7.42
O012  4  1.12262  0.88786  0.65744 11.00000  0.00124   7.30
N013  3  0.28494  0.68018  0.53217 11.00000  0.00010   7.22
N014  3  0.11431  0.74073  0.51699 11.00000  0.09816   7.21
N015  3  0.49584  0.59933  0.41833 11.00000  0.00052   7.19
N016  3  0.43011  0.24444  0.37841 11.00000  0.05827   7.16
C017  2 -0.16545 -0.02909  0.25292 11.00000  0.00750   7.09
O018  4  0.63028  0.80472  0.61526 11.00000  0.03702   7.06
N019  3  0.68696  0.39149  0.50009 11.00000  0.00010   7.01
C01A  2  1.08162  0.95344  0.77973 11.00000  0.02563   6.98
N01B  3  0.90224  1.03988  0.75474 11.00000  0.00701   6.97
N01C  3  0.58579  0.62019  0.61966 11.00000  0.00858   6.91
N01D  3  0.39363  0.60147  0.46087 11.00000  0.01964   6.78
N01E  3  0.69602  0.33315  0.49829 11.00000  0.00283   6.78
C01F  2  0.45234  0.47411  0.49389 11.00000  0.02159   6.77
C01G  2  0.48173  0.50437  0.45259 11.00000  0.02078   6.73
O01H  4  0.85215  1.08648  0.62133 11.00000  0.00010   6.66
N01I  3  0.28628  0.95220  0.59907 11.00000  0.00381   6.66
C01J  2  0.69506  0.53662  0.46428 11.00000  0.02231   6.66
C01K  2  0.51693  0.24840  0.43816 11.00000  0.00843   6.65
C01L  2  1.05514  0.61522  0.72445 11.00000  0.02534   6.46
C01M  2  1.15738  0.77235  0.72699 11.00000  0.00958   6.23
C01N  2  0.68240  0.72475  0.58441 11.00000  0.01010   6.08
C01O  2  1.11722  0.70877  0.67043 11.00000  0.00850   6.07
C01P  2 -0.04979  0.79958  0.49889 11.00000  0.00743   6.04
C01Q  2  0.76846  0.80718  0.62320 11.00000  0.01480   6.01
C01R  2  0.38828  0.63113  0.52881 11.00000  0.00010   5.95
C01S  2  0.52679  0.86588  0.33084 11.00000  0.00010   5.94
C01T  2  0.86604  0.62453  0.60561 11.00000  0.00010   5.92
C01U  2  0.04625  0.33453  0.54962 11.00000  0.00220   5.91
N01V  3  0.68136  0.05196  0.41677 11.00000  0.01446   5.89
O01W  4  0.27285  0.80207  0.35153 11.00000  0.00010   5.86
C01X  2  0.33472  0.49647  0.54317 11.00000  0.00010   5.75
C01Y  2  1.32882  1.03907  0.72456 11.00000  0.00010   5.74
C01Z  2  0.89662  1.21582  0.54594 11.00000  0.01066   5.70
N020  3  0.68669  0.62148  0.64545 11.00000  0.00010   5.57
C021  2  0.42625  0.85686  0.62191 11.00000  0.00355   5.51
C022  2  0.30141  0.78379  0.32022 11.00000  0.00010   5.50
C023  2  1.05074  1.01926  0.64617 11.00000  0.00376   5.39
N024  3  0.10660  0.70593  0.44950 11.00000  0.03467   5.37
C025  2 -0.00714  0.39188  0.56598 11.00000  0.00661   5.30
O026  4  0.55537  0.34045  0.41904 11.00000  0.01622   5.29
C027  2  0.91482  1.00039  0.61691 11.00000  0.00010   5.23
C028  2  0.83500  0.01292  0.41645 11.00000  0.02586   5.19
N029  3  0.19818 -0.01051  0.26925 11.00000  0.02580   5.18
N02A  3  0.87711  0.04404  0.38796 11.00000  0.01077   5.10
O02B  4  1.13928  1.00375  0.79315 11.00000  0.04169   4.90
C02C  2  0.69963  0.49482  0.59681 11.00000  0.05432   4.86
C02D  2  0.81227 -0.08138  0.38414 11.00000  0.00209   4.79
C02E  2  0.08710  0.39284  0.61031 11.00000  0.00908   4.77
C02F  2  0.68160  0.66011  0.64095 11.00000  0.00010   4.77
C02G  2 -0.32882  0.88101  0.53174 11.00000  0.03258   4.76
C02H  2  0.78379  0.08768  0.40787 11.00000  0.00036   4.75
N02I  3  0.54708  0.05227  0.65635 11.00000  0.02192   4.73
C02J  2 -0.01326  0.52015  0.37327 11.00000  0.00331   4.69
C02K  2 -0.14127 -0.21582  0.20685 11.00000  0.01197   4.60
C02L  2  0.02848  0.35082  0.33906 11.00000  0.00806   4.52
C02M  2  0.53399  0.75454  0.32230 11.00000  0.00959   4.48
C02N  2  0.01184 -0.03072  0.27863 11.00000  0.00870   4.45
C02O  2  0.19894  0.78194  0.49922 11.00000  0.00214   4.45
C02P  2  0.66281  0.80830  0.35705 11.00000  0.00253   4.44
C02Q  2  0.63787  0.60831  0.65162 11.00000  0.01495   4.36
C02R  2  0.43718  0.16901  0.58981 11.00000  0.01104   4.34
C02S  2  0.00454  0.63253  0.35706 11.00000  0.02213   4.33
C02T  2  0.61150  0.18786  0.37207 11.00000  0.00010   4.30
C02U  2  0.69298  0.76895  0.68823 11.00000  0.03957   4.21
O02V  4  0.21331  0.85835  0.54245 11.00000  0.08676   4.15
C02W  2  1.07865  0.60680  0.64297 11.00000  0.00010   4.14
C02X  2 -0.26120  0.69658  0.41209 11.00000  0.02664   4.14
C02Y  2  1.23019  1.15855  0.76552 11.00000  0.01305   4.09
C02Z  2  0.36859  0.69847  0.51868 11.00000  0.02561   4.08
C030  2  0.42962  0.81319  0.55840 11.00000  0.01654   4.07
C031  2  0.05324  0.41155  0.51444 11.00000  0.00010   4.07
N032  3  0.56689 -0.11378  0.45984 11.00000  0.04061   4.05
C033  2 -0.09977  0.34010  0.59639 11.00000  0.00477   4.04
C034  2  0.01801  0.17415  0.26716 11.00000  0.02266   4.01
C035  2  0.13149  0.71484  0.37815 11.00000  0.04107   4.00
C036  2  0.75703  0.89100  0.75480 11.00000  0.03941   3.99
C037  2  0.09833  0.61480  0.38533 11.00000  0.02289   3.98
O038  4  0.98944 -0.04528  0.43309 11.00000  0.07022   3.97
C039  2  0.37349  0.43761  0.46436 11.00000  0.04462   3.86
C03A  2  0.73797 -0.13025  0.43571 11.00000  0.01523   3.79
C03B  2  0.78956  0.15617  0.47499 11.00000  0.01488   3.73
C03C  2  0.22866 -0.08700  0.27182 11.00000  0.01550   3.50
C03D  2  0.10921  0.67302  0.43537 11.00000  0.00010   3.49
C03E  2  0.08095  0.38475  0.33985 11.00000  0.01211   3.47
C03F  2 -0.19516  0.63429  0.35979 11.00000  0.00925   3.32
C03G  2  0.56723  0.65364  0.67077 11.00000  0.02149   3.32
C03H  2  0.93946  0.77118  0.69272 11.00000  0.01614   3.29
C03I  2  0.24915  0.32719  0.53993 11.00000  0.02716   3.26
C03J  2  0.51103  0.90495  0.59256 11.00000  0.02462   3.25
C03K  2  0.39125  0.96304  0.55505 11.00000  0.00010   3.21
C03L  2  0.95914  0.89599  0.58813 11.00000  0.00138   3.21
C03M  2  0.95652  1.13699  0.57440 11.00000  0.01003   3.19
C03N  2  0.27877  0.91497  0.49336 11.00000  0.02514   3.16
C03O  2  0.41522 -0.15885  0.25552 11.00000  0.00935   3.13
C03P  2 -0.14901  0.37515  0.56829 11.00000  0.01873   3.06
C03Q  2  0.84335  0.70822  0.63273 11.00000  0.02608   3.03
C03R  2 -0.16669  0.77443  0.50755 11.00000  0.02237   3.02
HKLF 4
END
