TITL shelx03-merge_expF_1_1_expS_1_4_shelx03-merge_a.res in P1
REM Old TITL 1 in I 1 #-1
REM SHELXT solution in P1: R1 0.758, Rweak 0.193, Alpha 0.000
REM <I/s>   0.000 for    0 systematic absences,  Orientation as input
REM Flack x = -7.857 ( 1.034 ) from   301 Parsons' quotients
REM Formula found by SHELXT:  C50 N27 O11

CELL  0.71073   9.3100  15.1100  30.5000   90.000   90.000   90.000
ZERR   52.000   0.0019   0.0030   0.0061    0.000    0.000    0.000
LATT -2
SFAC H C N O ZR CL
UNIT 20 20 20 20 20 0
L.S. 10
BOND
LIST 6
FMAP 2
PLAN 20
CL01  6  0.58966  1.01663  0.40548 11.00000  0.04006  16.47
CL02  6  0.69933  0.99689  0.40599 11.00000  0.03098  15.39
CL03  6  0.33149  0.99515  0.40641 11.00000  0.03152  13.13
O004  4  0.04131  1.00474  0.40465 11.00000  0.00791  12.25
O005  4  0.18770  1.03524  0.40094 11.00000  0.03697  11.90
O006  4  0.39091  1.02417  0.40911 11.00000  0.03812  11.08
O007  4  0.77550  1.02568  0.39994 11.00000  0.01359   9.11
O008  4  0.72988  1.18937  0.36300 11.00000  0.00010   8.57
C009  2  0.41007  0.98444  0.27707 11.00000  0.01627   8.29
C00A  2  0.91161  1.04081  0.30393 11.00000  0.01531   8.24
N00B  3  0.15317  1.03748  0.24379 11.00000  0.08903   8.24
N00C  3  0.48483  0.42095  0.65073 11.00000  0.00534   7.84
N00D  3  0.37943  0.35669  0.63564 11.00000  0.02430   7.67
N00E  3  0.21712  1.09704  0.27707 11.00000  0.03749   7.46
N00F  3  0.83463  0.41712  0.58074 11.00000  0.04121   7.34
C00G  2  0.57497  0.23583  0.65851 11.00000  0.04171   7.29
N00H  3  0.72852  0.56827  0.56150 11.00000  0.02638   7.07
N00I  3  0.10202  0.97715  0.29192 11.00000  0.00486   7.01
N00J  3  0.84293  1.16355  0.35429 11.00000  0.00010   6.95
C00K  2  0.77515  0.35893  0.58223 11.00000  0.02144   6.90
O00L  4 -0.02956  0.59324  0.50151 11.00000  0.02774   6.86
N00M  3  0.35184  0.40845  0.46418 11.00000  0.02057   6.79
N00N  3  0.35760  0.61673  0.44657 11.00000  0.10172   6.75
C00O  2  0.52852  0.34608  0.64902 11.00000  0.00010   6.64
N00P  3  0.43517  0.55722  0.47463 11.00000  0.01239   6.62
C00Q  2  0.50711  0.18030  0.63277 11.00000  0.03196   6.60
N00R  3  0.77985  0.27782  0.71363 11.00000  0.01929   6.56
C00S  2  0.61400  0.17602  0.63600 11.00000  0.02433   6.40
N00T  3  0.28225  1.00467  0.28480 11.00000  0.02478   6.17
C00U  2  0.76027  0.87989  0.37875 11.00000  0.00010   6.15
C00V  2  0.32715  0.75513  0.40047 11.00000  0.01169   6.14
C00W  2  0.34628  0.46030  0.65578 11.00000  0.04039   6.00
N00X  3  0.03980 -0.18937  0.63009 11.00000  0.00010   5.78
C00Y  2  0.09213  0.95276  0.34710 11.00000  0.00010   5.76
C00Z  2  0.28505  0.94342  0.27580 11.00000  0.01786   5.68
C010  2  0.84284  0.47967  0.58271 11.00000  0.00010   5.68
C011  2  0.30081  0.44822  0.47184 11.00000  0.00010   5.68
N012  3  0.78049  0.66577  0.57814 11.00000  0.01293   5.65
C013  2  0.16888  0.48382  0.45170 11.00000  0.03295   5.59
O014  4  1.21193  0.53924  0.58689 11.00000  0.01536   5.49
C015  2  0.90931  0.80758  0.36164 11.00000  0.01560   5.42
O016  4  0.95396  0.63857  0.31688 11.00000  0.02462   5.35
N017  3  0.81597  1.09765  0.39537 11.00000  0.01146   5.34
C018  2  0.21198  0.69100  0.45372 11.00000  0.00010   5.33
C019  2  0.80899  0.61872  0.58486 11.00000  0.04950   5.26
N01A  3  0.39998  0.71325  0.39456 11.00000  0.00010   5.17
N01B  3  0.86271  0.23423  0.56382 11.00000  0.00010   5.16
N01C  3  0.74792  0.77179  0.43362 11.00000  0.08535   5.07
C01D  2  0.48208  1.15316  0.35466 11.00000  0.00010   5.02
C01E  2 -0.00896  0.65001  0.50537 11.00000  0.02073   5.00
N01F  3  0.74509  1.12030  0.34106 11.00000  0.02630   4.99
C01G  2  0.58822  0.57166  0.57965 11.00000  0.04152   4.98
C01H  2  0.17832  0.79411  0.40448 11.00000  0.00010   4.84
N01I  3  0.30576  0.53643  0.67261 11.00000  0.14909   4.79
C01J  2  0.70383  0.97934  0.29692 11.00000  0.03470   4.66
O01K  4  0.85087  1.01007  0.32066 11.00000  0.05423   4.65
C01L  2 -0.07073  0.03634  0.64611 11.00000  0.01907   4.61
N01M  3 -0.24790  0.05699  0.58580 11.00000  0.00424   4.58
C01N  2  0.39780  0.08799  0.68456 11.00000  0.00594   4.55
C01O  2  0.54168  0.57249  0.46421 11.00000  0.03825   4.47
C01P  2  0.08089  0.01500  0.69551 11.00000  0.02654   4.43
C01Q  2  0.80527  0.52137  0.57391 11.00000  0.00010   4.42
C01R  2  1.24790  0.47128  0.57574 11.00000  0.04840   4.37
C01S  2  0.59603  1.05773  0.23805 11.00000  0.01154   4.36
C01T  2  0.46689  0.64482  0.54863 11.00000  0.00010   4.34
N01U  3  0.66055  0.94491  0.36266 11.00000  0.07070   4.33
C01V  2  0.83806  0.28709  0.57548 11.00000  0.07732   4.31
O01W  4  0.35608  0.15216  0.64218 11.00000  0.03557   4.20
C01X  2  0.40951  0.30002  0.68962 11.00000  0.01183   4.19
C01Y  2  0.33017 -0.02146  0.68325 11.00000  0.01426   4.18
C01Z  2  0.52272  0.90257  0.28520 11.00000  0.00136   4.09
C020  2  1.05381  0.47284  0.57235 11.00000  0.00155   4.09
N021  3  0.60600  0.75009  0.56350 11.00000  0.01946   4.07
O022  4  0.17944  0.89055  0.35193 11.00000  0.01957   3.91
C023  2  0.41295  0.59645  0.60011 11.00000  0.00262   3.86
N024  3  0.36607  1.14948  0.34712 11.00000  0.02622   3.77
C025  2  0.46140 -0.01064  0.69316 11.00000  0.00010   3.76
C026  2  0.33817  0.69166  0.52900 11.00000  0.00367   3.63
C027  2  0.15778 -0.04091  0.67807 11.00000  0.01022   3.58
N028  3  0.95020  0.17067  0.77916 11.00000  0.01828   3.53
N029  3  0.62065  0.81791  0.22084 11.00000  0.01822   3.51
C02A  2  0.82049  0.71135  0.32197 11.00000  0.00010   3.50
C02B  2  0.45779  0.70581  0.60533 11.00000  0.01147   3.50
C02C  2  0.32127 -0.11591  0.72751 11.00000  0.05902   3.36
C02D  2  0.82324  0.88648  0.29847 11.00000  0.03940   3.34
C02E  2  0.65515  0.63642  0.58652 11.00000  0.00010   3.15
C02F  2  0.60331  0.70530  0.58986 11.00000  0.05108   3.10
C02G  2  0.86289  1.16873  0.47137 11.00000  0.05289   3.04
C02H  2 -0.22656  0.00675  0.70054 11.00000  0.03124   3.04
C02I  2  0.72484  0.67402  0.59490 11.00000  0.02155   3.03
C02J  2  0.53590  0.30869  0.71103 11.00000  0.01416   3.01
HKLF 4
END
