TITL shelx03-merge_expF_0_6_expS_1_2_shelx03-merge_a.res in P1
REM Old TITL 1 in I 1 #-1
REM SHELXT solution in P1: R1 0.741, Rweak 0.111, Alpha 0.000
REM <I/s>   0.000 for    0 systematic absences,  Orientation as input
REM Flack x =  0.324 ( 0.190 ) from   549 Parsons' quotients
REM Formula found by SHELXT:  C64 N45 O59

CELL  0.71073   9.3100  15.1100  30.5000   90.000   90.000   90.000
ZERR   52.000   0.0019   0.0030   0.0061    0.000    0.000    0.000
LATT -2
SFAC H C N O ZR
UNIT 20 20 20 20 20
L.S. 10
BOND
LIST 6
FMAP 2
PLAN 20
ZR01  5  0.40675  0.26527  0.54801 11.00000  0.04045  25.26
ZR02  5  0.18600  0.27019  0.55322 11.00000  0.04235  25.12
ZR03  5  0.53211  0.25946  0.54683 11.00000  0.02726  24.64
N004  3  0.02663  0.27751  0.53642 11.00000  0.01850  22.08
O005  4 -0.11305  0.27858  0.55503 11.00000  0.00010  22.01
O006  4  0.29433  0.64428  0.55277 11.00000  0.01320  21.90
N007  3 -0.20633  0.26543  0.55214 11.00000  0.00010  20.82
O008  4  0.65719  0.53386  0.64018 11.00000  0.00010  17.47
O009  4  0.72000 -0.06819  0.25112 11.00000  0.00010  16.77
O00A  4 -0.18753  0.26898  0.67288 11.00000  0.00010  15.70
O00B  4  0.13386  0.37609  0.55076 11.00000  0.00081  15.50
O00C  4  1.03662  0.78383  0.52868 11.00000  0.04878  15.11
C00D  2 -0.13002  0.15091  0.59839 11.00000  0.01625  14.35
O00E  4  0.93184  0.60312  0.54477 11.00000  0.04329  13.74
O00F  4 -0.29203  0.22087  0.52740 11.00000  0.00010  13.43
O00G  4  0.43007  0.39389  0.58675 11.00000  0.05166  13.20
N00H  3  0.17053  0.49295  0.53777 11.00000  0.00010  13.14
O00I  4  0.19254  0.66626  0.52250 11.00000  0.06387  13.11
N00J  3  0.92941  0.41851  0.41850 11.00000  0.01557  12.78
O00K  4 -0.33153  0.28739  0.66847 11.00000  0.04903  12.75
O00L  4  0.06504  0.51085  0.56276 11.00000  0.00010  12.60
O00M  4  1.26509  0.49961  0.40854 11.00000  0.04836  12.49
N00N  3  0.28451  0.45066  0.53849 11.00000  0.01130  12.08
O00O  4  1.01047  0.46811  0.49361 11.00000  0.00010  12.00
O00P  4  0.64808  0.80742  0.47026 11.00000  0.03619  11.98
C00Q  2 -0.03975  0.40695  0.62684 11.00000  0.00802  11.95
N00R  3  0.32916  0.34281  0.58957 11.00000  0.00010  11.95
N00S  3  0.43371  0.63360  0.53254 11.00000  0.00010  11.94
O00T  4  0.81565  0.62378  0.54602 11.00000  0.01258  11.91
N00U  3  0.31044  0.42022  0.58724 11.00000  0.00010  11.78
O00V  4  0.10133  0.26500  0.70012 11.00000  0.03445  11.64
O00W  4  0.49046  0.84238  0.39557 11.00000  0.05137  11.44
O00X  4  0.92680  0.51863  0.49340 11.00000  0.01597  11.09
O00Y  4 -0.00172  0.31065  0.66459 11.00000  0.00550  10.72
O00Z  4  0.82409  0.78124  0.35727 11.00000  0.04908  10.71
C010  2  1.32264  0.36786  0.38924 11.00000  0.01998  10.66
O011  4  0.80703  0.97519  0.57080 11.00000  0.00010  10.63
O012  4  0.21247  0.26919  0.68943 11.00000  0.00221  10.49
O013  4  0.80822  0.66157  0.49385 11.00000  0.00010  10.45
C014  2  0.42023  0.90392  0.46400 11.00000  0.00416  10.28
O015  4  0.20733  0.85373  0.59029 11.00000  0.00010  10.06
C016  2  0.71983  0.60598  0.65705 11.00000  0.00912  10.06
C017  2  1.09730  0.65533  0.35511 11.00000  0.00010   9.94
O018  4  0.28112  0.31076  0.73011 11.00000  0.00010   9.84
O019  4  0.58637  1.02461  0.50674 11.00000  0.07305   9.78
C01A  2  0.83178  0.63036  0.43377 11.00000  0.00010   9.75
O01B  4  0.61605  0.31507  0.59816 11.00000  0.00010   9.68
N01C  3  1.00141  0.22258  0.28007 11.00000  0.00762   9.56
O01D  4 -0.38040  0.23911  0.48130 11.00000  0.12522   9.50
N01E  3  0.37211  0.65336  0.48077 11.00000  0.07057   9.39
O01F  4 -0.46830  0.15237  0.50949 11.00000  0.01965   9.38
O01G  4  1.23776  0.44629  0.22624 11.00000  0.02065   9.35
C01H  2  0.78341  0.10740  0.25666 11.00000  0.00301   9.33
C01I  2 -0.00205  0.12441  0.62234 11.00000  0.00010   9.26
N01J  3  0.56642  0.38224  0.25416 11.00000  0.00242   9.24
C01K  2  0.63549  0.77294  0.67466 11.00000  0.00010   9.22
O01L  4  0.31610  0.96514  0.47480 11.00000  0.00010   9.09
O01M  4  0.71162  0.20452  0.26083 11.00000  0.13798   9.09
N01N  3  0.12910  0.23728  0.52054 11.00000  0.00010   9.07
N01O  3  1.18452  0.27127  0.29409 11.00000  0.07657   9.00
N01P  3  0.58114  0.55816  0.48775 11.00000  0.00340   8.97
O01Q  4  0.22680  0.15670  0.49852 11.00000  0.03588   8.87
O01R  4  1.34506  0.42913  0.41780 11.00000  0.00280   8.87
O01S  4  0.78798  0.38358  0.30658 11.00000  0.09812   8.82
C01T  2  0.58607  1.02216  0.55125 11.00000  0.01977   8.67
O01U  4  0.25269  0.17966  0.72145 11.00000  0.06258   8.66
O01V  4  1.11340  0.29387  0.39099 11.00000  0.02224   8.61
N01W  3  1.02208  0.52851  0.41731 11.00000  0.04840   8.55
O01X  4  0.57755  0.46276  0.62205 11.00000  0.00010   8.47
O01Y  4  0.91129  0.63573  0.61447 11.00000  0.00010   8.27
O01Z  4  0.94170  0.66417  0.36445 11.00000  0.00010   8.14
O020  4  0.27548  0.19723  0.59501 11.00000  0.00010   8.14
O021  4  1.04647  0.12967  0.43206 11.00000  0.00010   8.14
O022  4  0.51612  0.48951  0.27285 11.00000  0.00010   8.09
O023  4  0.87329  0.01751  0.25736 11.00000  0.00010   8.03
O024  4 -0.25183  0.13405  0.61409 11.00000  0.00238   8.01
N025  3  0.37220  0.23117  0.51591 11.00000  0.00010   7.95
O026  4  0.24523  0.62940  0.61071 11.00000  0.04997   7.77
N027  3  0.97240  0.43939  0.38115 11.00000  0.01065   7.76
N028  3  1.19789  0.25738  0.24504 11.00000  0.00287   7.67
O029  4  0.63073  0.70715  0.65252 11.00000  0.01529   7.63
N02A  3  0.47486  0.77275  0.39585 11.00000  0.00010   7.59
N02B  3  0.50210  0.84710  0.47552 11.00000  0.00010   7.57
O02C  4  0.84540  0.50673  0.40625 11.00000  0.00372   7.54
O02D  4  0.58799  0.27910  0.26578 11.00000  0.00412   7.53
N02E  3 -0.19696  0.18328  0.52078 11.00000  0.02116   7.34
N02F  3  0.67830  0.74037  0.41285 11.00000  0.04558   7.31
O02G  4  0.90111 -0.03634  0.36465 11.00000  0.00542   7.26
N02H  3  0.75449  0.87233  0.40916 11.00000  0.00010   7.17
N02I  3  0.93586  0.18524  0.41679 11.00000  0.00545   7.16
C02J  2  0.26566  0.72419  0.55598 11.00000  0.00994   7.14
N02K  3  0.34327  0.80815  0.45731 11.00000  0.00010   7.14
N02L  3  0.48636  0.62218  0.47374 11.00000  0.01565   7.14
N02M  3  0.29399  0.52646  0.63562 11.00000  0.04989   7.09
N02N  3  0.72342  0.37630  0.44418 11.00000  0.00010   7.03
N02O  3  0.36667  0.35460  0.63549 11.00000  0.02418   6.98
N02P  3  0.07009  0.44765  0.67538 11.00000  0.02760   6.91
N02Q  3  0.57701  0.24706  0.21572 11.00000  0.02292   6.83
N02R  3  0.73069  0.43173  0.49614 11.00000  0.01014   6.78
N02S  3  0.33806  0.45941  0.64752 11.00000  0.00010   6.73
N02T  3  0.80940  0.27421  0.22579 11.00000  0.02588   6.71
N02U  3  0.96512  0.05760  0.44374 11.00000  0.00973   6.70
C02V  2  1.17514  0.36146  0.25979 11.00000  0.00975   6.69
O02W  4  0.29845  0.37341  0.49470 11.00000  0.01998   6.67
N02X  3  0.12083  0.03789  0.49964 11.00000  0.04470   6.66
N02Y  3 -0.06778  0.18466  0.66020 11.00000  0.01683   6.59
C02Z  2  1.10732  0.42122  0.36858 11.00000  0.00010   6.48
C030  2  0.64940  0.63858  0.47596 11.00000  0.00468   6.44
C031  2  0.59877  1.05665  0.42758 11.00000  0.00230   6.41
C032  2  0.53063  0.38951  0.32508 11.00000  0.00010   6.37
O033  4  0.60482  0.91848  0.52900 11.00000  0.00010   6.34
C034  2  0.55889  0.66214  0.43492 11.00000  0.01014   6.11
C035  2  0.89797  0.06527  0.48872 11.00000  0.01059   6.09
C036  2  1.48125  0.04014  0.30596 11.00000  0.03610   6.02
C037  2  0.18157  0.68074  0.61778 11.00000  0.02459   5.99
C038  2  0.32248  0.58521  0.46572 11.00000  0.00010   5.96
C039  2  0.71022  1.06819  0.38704 11.00000  0.00010   5.92
N03A  3  0.87603  0.39602  0.45732 11.00000  0.00010   5.90
O03B  4  0.06604  0.18566  0.64998 11.00000  0.08151   5.87
N03C  3  0.51287  0.77175  0.66413 11.00000  0.00160   5.87
O03D  4  0.80356  0.92358  0.50369 11.00000  0.03092   5.86
N03E  3  0.29320  0.87851  0.41209 11.00000  0.09782   5.82
C03F  2  0.89157  0.51458  0.51412 11.00000  0.02184   5.72
C03G  2  0.26918  0.07085  0.72527 11.00000  0.02651   5.65
C03H  2  0.09059 -0.06508  0.47114 11.00000  0.00127   5.60
C03I  2  1.11304  0.64433  0.30762 11.00000  0.02180   5.59
C03J  2  0.14306  0.75409  0.64027 11.00000  0.00556   5.49
C03K  2  0.07976  0.37257  0.65763 11.00000  0.02658   5.41
C03L  2  0.43153  0.25319  0.78428 11.00000  0.03968   5.37
C03M  2  1.12335  0.60050  0.39476 11.00000  0.03619   5.18
C03N  2  0.61007  0.25820  0.34763 11.00000  0.05644   5.17
C03O  2  0.04018  0.48127  0.63119 11.00000  0.00010   5.16
C03P  2  0.57769  0.86148  0.59748 11.00000  0.02172   5.16
C03Q  2  0.30478  0.70678  0.47303 11.00000  0.05805   5.11
C03R  2  1.25023  0.77918  0.31351 11.00000  0.03046   5.07
C03S  2  0.39386  0.73798  0.44755 11.00000  0.03050   5.07
C03T  2  0.85542  0.50647  0.28972 11.00000  0.04106   5.05
N03U  3 -0.18693  0.40986  0.61586 11.00000  0.00773   5.03
C03V  2  0.90602  0.22693  0.27181 11.00000  0.10785   4.75
C03W  2 -0.48125  0.24965  0.66939 11.00000  0.00460   4.75
C03X  2  0.08248  0.26200  0.78311 11.00000  0.00010   4.66
C03Y  2  0.49574  0.70861  0.42321 11.00000  0.00132   4.34
C03Z  2  0.33416  0.15289  0.50325 11.00000  0.02008   4.31
C040  2  0.60594  0.94146  0.50093 11.00000  0.00010   4.23
N041  3  0.30609  0.80980  0.44207 11.00000  0.04391   4.22
C042  2  0.90957  0.23552  0.40386 11.00000  0.01968   4.20
C043  2  0.85073  0.26069  0.43771 11.00000  0.00010   3.99
C044  2  1.00084  0.14724  0.28160 11.00000  0.09423   3.98
N045  3  0.76286  0.16391  0.25840 11.00000  0.05349   3.97
O046  4  0.66630  0.64992  0.42054 11.00000  0.00031   3.94
C047  2  1.19665  0.27028  0.24620 11.00000  0.01068   3.94
C048  2  0.72116  0.36091  0.38693 11.00000  0.03766   3.79
C049  2  1.32349  0.12858  0.26353 11.00000  0.13855   3.70
C04A  2  0.83751  0.27830  0.28569 11.00000  0.02577   3.69
C04B  2  0.50925  0.81771  0.69534 11.00000  0.02004   3.66
C04C  2  0.18115  0.93666  0.39373 11.00000  0.11648   3.57
C04D  2  1.23749  0.21583  0.36879 11.00000  0.00320   3.53
O04E  4  0.86618 -0.00228  0.32359 11.00000  0.15173   3.52
C04F  2  0.05468  0.52045  0.60486 11.00000  0.02812   3.48
C04G  2  0.17263  0.97469  0.34034 11.00000  0.10112   3.35
C04H  2  0.95576  0.75943  0.46041 11.00000  0.11934   3.28
C04I  2  0.57341  0.45880  0.57957 11.00000  0.04389   3.24
C04J  2  0.15473  1.04301  0.31416 11.00000  0.04920   3.21
C04K  2  0.38093  0.34913  0.51798 11.00000  0.03799   3.16
N04L  3  1.44342  0.16992  0.30709 11.00000  0.02781   3.13
C04M  2  0.28783  0.80077  0.64733 11.00000  0.01489   3.13
O04N  4  0.76635  0.26873  0.29463 11.00000  0.07678   3.11
N04O  3  0.78472  0.47890  0.35143 11.00000  0.09150   3.11
C04P  2  0.00521  0.28343  0.57368 11.00000  0.12582   3.09
C04Q  2  1.02733  0.55597  0.28025 11.00000  0.00949   3.09
C04R  2  0.07194  0.01932  0.67615 11.00000  0.00010   3.02
HKLF 4
END
