TITL shelx03-merge_expF_1_2_expS_1_0_shelx03-merge_a.res in P1
REM Old TITL 1 in I 1 #-1
REM SHELXT solution in P1: R1 0.798, Rweak 0.149, Alpha 0.000
REM <I/s>   0.000 for    0 systematic absences,  Orientation as input
REM Flack x = -0.820 ( 1.195 ) from   725 Parsons' quotients
REM Formula found by SHELXT:  C63 N30 O17

CELL  0.71073   9.3100  15.1100  30.5000   90.000   90.000   90.000
ZERR   52.000   0.0019   0.0030   0.0061    0.000    0.000    0.000
LATT -2
SFAC H C N O ZR CL
UNIT 20 20 20 20 20 0
L.S. 10
BOND
LIST 6
FMAP 2
PLAN 20
CL01  6  0.50576  0.77831  0.30558 11.00000  0.05378  17.89
CL02  6  0.29057  0.62904  0.34624 11.00000  0.08845  15.02
CL03  6  0.16044  0.79973  0.36630 11.00000  0.08250  14.99
CL04  6  1.07854  0.58112  0.63891 11.00000  0.06952  14.66
CL05  6  0.39879  0.61590  0.34597 11.00000  0.06120  14.27
CL06  6 -0.06631  0.60009  0.76930 11.00000  0.05862  13.83
CL07  6  0.15856  0.71888  0.37810 11.00000  0.16064  13.28
CL08  6  0.09548  0.76466  0.29874 11.00000  0.05205  13.02
CL09  6  0.38588  0.76343  0.31053 11.00000  0.11143  12.78
CL0A  6  0.93515  0.60981  0.64347 11.00000  0.03096  12.62
O00B  4  0.76363  0.56136  0.64901 11.00000  0.07193  11.98
N00C  3  0.04309  0.61289  0.39457 11.00000  0.11007  11.65
N00D  3 -0.01573  0.63440  0.76564 11.00000  0.00010  11.32
N00E  3  0.58880  0.66132  0.33709 11.00000  0.01052  10.87
N00F  3  0.31982  0.71484  0.36248 11.00000  0.00929  10.71
N00G  3  0.63106  0.78658  0.32093 11.00000  0.01913  10.22
N00H  3  0.61888  0.72449  0.27239 11.00000  0.00010  10.13
N00I  3  0.18147  0.77544  0.38303 11.00000  0.00927  10.12
O00J  4  0.74083  0.62985  0.35084 11.00000  0.01697   9.74
C00K  2  0.79131  0.79935  0.45029 11.00000  0.00010   9.73
O00L  4  0.46259  0.57026  0.52085 11.00000  0.00930   9.51
C00M  2 -0.01479  0.78892  0.31456 11.00000  0.00010   9.48
C00N  2  0.88054  0.61440  0.23485 11.00000  0.00010   9.35
O00O  4  0.27281  0.70490  0.30449 11.00000  0.01141   9.27
O00P  4  0.85279  0.66824  0.50463 11.00000  0.06834   9.20
C00Q  2  0.42769  0.37916  0.36359 11.00000  0.02974   9.06
N00R  3  0.54595  0.54562  0.33242 11.00000  0.00463   8.97
O00S  4  0.74800  0.58545  0.45589 11.00000  0.03147   8.93
C00T  2  0.22519  0.75749  0.30455 11.00000  0.03144   8.92
O00U  4  0.24388  0.62094  0.67549 11.00000  0.09774   8.76
N00V  3  0.95488  0.60378  0.23449 11.00000  0.01753   8.46
N00W  3  0.65940  0.41429  0.36325 11.00000  0.02022   8.24
C00X  2  0.40711  0.80770  0.52978 11.00000  0.00010   8.18
N00Y  3  0.19954  0.61963  0.76806 11.00000  0.00010   8.04
N00Z  3  0.67355  0.63672  0.63885 11.00000  0.02547   7.96
O010  4  1.25666  0.63699  0.23467 11.00000  0.00639   7.94
N011  3  0.08062  0.72964  0.77487 11.00000  0.03683   7.92
O012  4  0.91008  0.49954  0.29979 11.00000  0.08348   7.81
N013  3  0.70284  0.38338  0.37264 11.00000  0.02412   7.76
C014  2  1.06890  0.69893  0.24042 11.00000  0.01106   7.64
C015  2  1.01995  0.55174  0.31775 11.00000  0.00136   7.47
N016  3  0.79377  0.62361  0.21016 11.00000  0.02978   7.42
O017  4  0.26387  0.40136  0.37696 11.00000  0.00261   7.40
C018  2  0.41293  0.61974  0.64567 11.00000  0.00129   7.31
N019  3  0.51930  0.62183  0.65717 11.00000  0.00010   7.28
C01A  2  0.49640  0.44910  0.30697 11.00000  0.02089   7.24
C01B  2  0.20186  0.66127  0.76374 11.00000  0.00108   7.24
N01C  3  1.02790  0.68428  0.45466 11.00000  0.01942   7.22
N01D  3  0.02967  0.86030  0.37758 11.00000  0.04121   7.10
N01E  3  0.39930  0.77618  0.53917 11.00000  0.00010   7.06
N01F  3  1.05552  0.69371  0.66906 11.00000  0.00942   6.93
C01G  2  0.34121  0.26151  0.53188 11.00000  0.05965   6.88
N01H  3  0.70442  0.64965  0.67770 11.00000  0.03804   6.82
C01I  2  1.01970  0.76705  0.63413 11.00000  0.00644   6.69
C01J  2  0.22165  0.95064  0.58757 11.00000  0.00010   6.61
N01K  3  0.66053  0.21590  0.53335 11.00000  0.00010   6.45
C01L  2 -0.25666  0.63088  0.78984 11.00000  0.01645   6.40
C01M  2  0.83100  0.76530  0.44039 11.00000  0.03834   6.36
C01N  2  0.37482  0.08675  0.45437 11.00000  0.00010   6.28
C01O  2  0.46811  0.58617  0.63326 11.00000  0.00010   6.27
C01P  2  0.82235  0.70595  0.43814 11.00000  0.00010   6.20
C01Q  2  0.65308  0.71469  0.43038 11.00000  0.02378   6.17
C01R  2  0.35315  0.59450  0.71814 11.00000  0.03734   6.11
N01S  3  0.25033  0.20584  0.53022 11.00000  0.01369   6.08
C01T  2  0.93454  0.63770  0.23040 11.00000  0.01059   5.95
N01U  3  0.58018  0.42177  0.30492 11.00000  0.01799   5.93
C01V  2  0.02632  1.01441  0.60772 11.00000  0.02355   5.93
C01W  2  0.71579  0.15073  0.52813 11.00000  0.00010   5.90
C01X  2  0.59270  0.61713  0.37899 11.00000  0.02054   5.68
O01Y  4  0.83918  0.78696  0.63954 11.00000  0.04047   5.66
N01Z  3  0.65560  0.76373  0.37121 11.00000  0.00784   5.63
C020  2 -0.08433  0.72670  0.27288 11.00000  0.00095   5.61
C021  2  1.14228  0.56357  0.52063 11.00000  0.04815   5.52
C022  2  0.61877  0.40420  0.58171 11.00000  0.00010   5.45
N023  3  0.63391  0.88049  0.47730 11.00000  0.01546   5.38
O024  4  0.94502  0.32269  0.60101 11.00000  0.06173   5.36
C025  2  0.62027  0.65353  0.51706 11.00000  0.00010   5.35
C026  2  0.03070  0.40110  0.36969 11.00000  0.06518   5.27
C027  2  0.61114  0.25454  0.55696 11.00000  0.00961   5.24
C028  2  0.21553  0.87040  0.53736 11.00000  0.01839   5.17
O029  4  0.19624  0.48619  0.75451 11.00000  0.19876   5.08
C02A  2  0.37834  0.86115  0.50176 11.00000  0.01620   5.06
C02B  2  0.26989  0.39658  0.69938 11.00000  0.01742   4.98
C02C  2  1.02325  0.44978  0.50462 11.00000  0.09278   4.97
C02D  2  0.72952  0.42184  0.26060 11.00000  0.02966   4.97
C02E  2  0.79023  0.85068  0.63801 11.00000  0.02272   4.96
C02F  2  0.68717  0.64095  0.23374 11.00000  0.00335   4.95
C02G  2  0.82412  0.64449  0.30177 11.00000  0.05035   4.94
C02H  2 -0.04912  0.85040  0.28213 11.00000  0.03837   4.92
C02I  2  0.50864  0.65120  0.25456 11.00000  0.04708   4.91
C02J  2  0.86306  0.80885  0.62435 11.00000  0.04502   4.90
C02K  2  0.20518  1.03719  0.59759 11.00000  0.01345   4.78
N02L  3  0.33853  0.12965  0.38982 11.00000  0.05554   4.52
C02M  2  1.22536  0.65594  0.60389 11.00000  0.02302   4.38
O02N  4  0.32904  0.99387  0.60273 11.00000  0.04448   4.30
C02O  2  0.94257  0.74062  0.44632 11.00000  0.00994   4.27
C02P  2 -0.19262  0.87369  0.30693 11.00000  0.02384   4.23
C02Q  2  0.77732  0.43506  0.60116 11.00000  0.01960   4.12
O02R  4  0.64208  0.34222  0.21590 11.00000  0.04707   4.06
C02S  2  0.26794  0.42007  0.57836 11.00000  0.00010   4.03
C02T  2  0.89760  0.37101  0.57947 11.00000  0.00010   4.01
O02U  4  0.96059  0.81444  0.63607 11.00000  0.05045   3.99
N02V  3  0.79023  0.20349  0.50150 11.00000  0.07007   3.97
C02W  2  0.65039  0.03932  0.56974 11.00000  0.05941   3.93
C02X  2  0.68858  0.47884  0.59771 11.00000  0.02103   3.82
C02Y  2  0.46712  0.65807  0.38457 11.00000  0.01588   3.72
C02Z  2 -0.03197  0.75839  0.34088 11.00000  0.03047   3.65
N030  3  0.67751  0.69877  0.36596 11.00000  0.07966   3.63
C031  2  0.45393  0.36673  0.39830 11.00000  0.00981   3.61
C032  2  0.63299  0.59492  0.51561 11.00000  0.00010   3.57
C033  2  0.85802  0.33641  0.22081 11.00000  0.06378   3.55
N034  3  0.32374 -0.03719  0.41471 11.00000  0.10138   3.51
C035  2 -0.12121  0.71267  0.36527 11.00000  0.03240   3.43
C036  2  0.58159  0.13049  0.52127 11.00000  0.04586   3.42
C037  2  0.27342  0.48940  0.29287 11.00000  0.04150   3.39
O038  4  0.96932  0.08805  0.51277 11.00000  0.07790   3.38
C039  2  0.41748  0.26223  0.49051 11.00000  0.02425   3.33
C03A  2  0.97669 -0.02892  0.45259 11.00000  0.03100   3.22
C03B  2  0.50166  0.45982  0.53553 11.00000  0.06078   3.12
C03C  2  0.58770  0.41566  0.57271 11.00000  0.06571   3.07
HKLF 4
END
