TITL shelx03-merge_expF_1_3_expS_1_4_shelx03-merge_a.res in P1
REM Old TITL 1 in I 1 #-1
REM SHELXT solution in P1: R1 0.852, Rweak 0.285, Alpha 0.000
REM <I/s>   0.000 for    0 systematic absences,  Orientation as input
REM Flack x = -3.743 ( 0.221 ) from   337 Parsons' quotients
REM Formula found by SHELXT:  C44 N18 O20

CELL  0.71073   9.3100  15.1100  30.5000   90.000   90.000   90.000
ZERR   52.000   0.0019   0.0030   0.0061    0.000    0.000    0.000
LATT -2
SFAC H C N O ZR CL
UNIT 20 20 20 20 20 0
L.S. 10
BOND
LIST 6
FMAP 2
PLAN 20
CL01  6  0.64301  0.32913  0.58437 11.00000  0.00114  19.11
CL02  6  0.30930  0.32499  0.58353 11.00000  0.02925  18.10
CL03  6  1.18919  0.35373  0.25476 11.00000  0.03702  17.99
CL04  6  1.18268  0.43713  0.25677 11.00000  0.06792  16.95
CL05  6  0.78496  0.30232  0.58108 11.00000  0.03815  16.94
CL06  6  0.68800  0.34372  0.37203 11.00000  0.06878  15.13
CL07  6  1.29287  0.32080  0.26595 11.00000  0.05478  14.85
CL08  6 -0.27505  0.33682  0.69957 11.00000  0.06253  14.24
CL09  6  1.24606  0.48126  0.25054 11.00000  0.04229  13.78
CL0A  6  0.43551  0.31534  0.59007 11.00000  0.02903  13.71
CL0B  6  1.38692  0.46772  0.25453 11.00000  0.08226  13.35
C00C  2  0.74352  0.51866  0.37035 11.00000  0.00010  12.74
CL0D  6  0.15444  0.32737  0.59100 11.00000  0.04663  12.64
CL0E  6 -0.08100  0.33638  0.70914 11.00000  0.03228  12.63
N00F  3  0.61638  0.50526  0.60069 11.00000  0.00010  12.29
O00G  4 -0.16393  0.31794  0.68124 11.00000  0.01725  11.80
N00H  3  0.64875  0.42076  0.35337 11.00000  0.00134  11.14
O00I  4  0.53157  0.47361  0.34425 11.00000  0.02485  10.86
O00J  4  0.65944  0.56126  0.36975 11.00000  0.00919  10.65
N00K  3  0.34814  0.30647  0.71368 11.00000  0.00010  10.35
O00L  4  0.10779  0.34206  0.68244 11.00000  0.03884  10.18
O00M  4  0.46390  0.40568  0.59200 11.00000  0.00010   9.82
O00N  4  0.90009  0.29172  0.36408 11.00000  0.00644   9.47
O00O  4  1.04004  0.43093  0.23904 11.00000  0.01847   9.31
O00P  4 -0.04620  0.43889  0.64457 11.00000  0.06673   9.30
O00Q  4 -0.27402  0.14839  0.69053 11.00000  0.04423   8.84
C00R  2  0.21371  0.35383  0.71325 11.00000  0.00010   8.54
O00S  4  0.96490  0.43303  0.28999 11.00000  0.02251   8.49
N00T  3  0.72981  0.45344  0.31301 11.00000  0.00010   8.47
C00U  2  0.23985  0.28483  0.40546 11.00000  0.00010   8.30
N00V  3  0.08570  0.45786  0.65089 11.00000  0.02052   8.11
O00W  4  0.59517  0.31077  0.29342 11.00000  0.01542   7.99
O00X  4  0.76056  0.50039  0.34511 11.00000  0.01904   7.89
N00Y  3  0.42202  0.29036  0.38990 11.00000  0.00010   7.82
O00Z  4  0.98897  0.47470  0.32501 11.00000  0.00010   7.60
O010  4  0.93094  0.54754  0.29505 11.00000  0.07795   7.51
N011  3 -0.05062  0.29165  0.52280 11.00000  0.03094   7.39
N012  3  0.51234  0.53651  0.30585 11.00000  0.00917   7.34
N013  3  0.66461  0.62516  0.54056 11.00000  0.00595   7.28
C014  2  0.90114  0.40169  0.28357 11.00000  0.00010   7.23
N015  3  0.45078  0.33793  0.42238 11.00000  0.00010   7.09
N016  3  0.59193  0.28664  0.40459 11.00000  0.00010   6.90
O017  4  0.53082  0.15980  0.44391 11.00000  0.00152   6.87
C018  2  0.24721  0.52462  0.60895 11.00000  0.00010   6.63
N019  3  0.35398  0.57940  0.64396 11.00000  0.02678   6.63
N01A  3 -0.13148  0.49450  0.63983 11.00000  0.00010   6.57
C01B  2  0.01548  0.63369  0.43607 11.00000  0.01834   6.26
N01C  3  0.66386  0.52861  0.28092 11.00000  0.00461   6.25
O01D  4  0.23055  0.78136  0.66830 11.00000  0.00439   6.16
C01E  2  0.03127  0.87388  0.47919 11.00000  0.01236   6.15
C01F  2  0.60869  0.38748  0.64396 11.00000  0.00010   6.12
C01G  2  1.06874  0.15541  0.32095 11.00000  0.01562   5.91
C01H  2  0.60336  0.35563  0.50985 11.00000  0.00010   5.88
N01I  3  0.62974  0.09518  0.29993 11.00000  0.03051   5.81
O01J  4  0.18545  0.50903  0.37663 11.00000  0.03581   5.78
C01K  2  0.58395  0.56099  0.57687 11.00000  0.00010   5.71
O01L  4  0.46914  0.33334  0.73467 11.00000  0.09012   5.64
C01M  2  0.43736  0.20627  0.65672 11.00000  0.00940   5.61
C01N  2 -0.08257  0.11801  0.70100 11.00000  0.00010   5.58
C01O  2  0.80305  0.60209  0.22752 11.00000  0.00010   5.52
C01P  2  0.02226  0.56226  0.44424 11.00000  0.00010   5.31
C01Q  2  0.31075  0.18469  0.44721 11.00000  0.04926   5.15
C01R  2  0.21167  0.82499  0.66672 11.00000  0.00010   5.08
N01S  3  0.11611  0.39522  0.42023 11.00000  0.02819   4.97
C01T  2  0.02084  0.65737  0.47289 11.00000  0.00700   4.93
C01U  2  0.76182  0.17337  0.34999 11.00000  0.00010   4.88
C01V  2  1.10155  0.13433  0.22991 11.00000  0.00599   4.88
C01W  2  0.48139  0.32989  0.65690 11.00000  0.00010   4.87
C01X  2  0.02440  0.44125  0.48586 11.00000  0.04798   4.86
C01Y  2  0.15385  0.58007  0.46779 11.00000  0.00010   4.82
C01Z  2  0.09354  0.33690  0.51100 11.00000  0.00010   4.80
C020  2  1.25356  0.08447  0.31052 11.00000  0.00338   4.77
C021  2  0.38034  0.47983  0.59230 11.00000  0.00010   4.60
C022  2 -0.35832  0.07512  0.60438 11.00000  0.00010   4.48
C023  2  0.83598  0.07430  0.35305 11.00000  0.00010   4.43
C024  2  1.06327  0.21720  0.28184 11.00000  0.00010   4.39
O025  4  0.47926  0.61926  0.56081 11.00000  0.00010   4.38
C026  2  1.11626  0.10176  0.33500 11.00000  0.00090   4.36
C027  2  0.54433  0.29476  0.77248 11.00000  0.03665   4.21
C028  2  0.18274  0.50953  0.61902 11.00000  0.02413   4.20
O029  4 -0.24111  0.86965  0.42851 11.00000  0.03911   4.05
C02A  2 -0.09769  0.54288  0.44072 11.00000  0.01794   3.93
C02B  2  0.58115  0.72539  0.61192 11.00000  0.00010   3.92
C02C  2  0.05153  0.31099  0.52989 11.00000  0.00575   3.88
C02D  2  0.59376  0.61046  0.59400 11.00000  0.02411   3.87
C02E  2  0.17640  0.58847  0.34871 11.00000  0.01512   3.86
C02F  2 -0.38692  0.92570  0.39498 11.00000  0.00821   3.85
N02G  3  0.47504  0.80100  0.63675 11.00000  0.00028   3.81
C02H  2  0.69106  0.69809  0.61788 11.00000  0.01218   3.75
C02I  2  0.33074  0.25068  0.47939 11.00000  0.02045   3.73
C02J  2  0.35412  0.50724  0.37059 11.00000  0.00010   3.71
C02K  2  1.36623  0.20181  0.30827 11.00000  0.02319   3.60
C02L  2  0.84484  0.47944  0.25842 11.00000  0.00010   3.57
C02M  2  0.32072  0.48510  0.46204 11.00000  0.00014   3.53
N02N  3  0.37826  0.69383  0.36126 11.00000  0.01608   3.16
HKLF 4
END
