TITL shelx03-merge_expF_0_5_expS_1_4_shelx03-merge_a.res in P1
REM Old TITL 1 in I 1 #-1
REM SHELXT solution in P1: R1 0.697, Rweak 0.081, Alpha 0.000
REM <I/s>   0.000 for    0 systematic absences,  Orientation as input
REM Flack x =  0.210 ( 0.269 ) from   420 Parsons' quotients
REM Formula found by SHELXT:  C73 N37 O48

CELL  0.71073   9.3100  15.1100  30.5000   90.000   90.000   90.000
ZERR   52.000   0.0019   0.0030   0.0061    0.000    0.000    0.000
LATT -2
SFAC H C N O ZR CL
UNIT 20 20 20 20 20 0
L.S. 10
BOND
LIST 6
FMAP 2
PLAN 20
CL01  6  0.94154  0.48909  0.44884 11.00000  0.05678  16.95
CL02  6  0.50762  0.07612  0.74561 11.00000  0.06966  16.92
CL03  6  0.81460  0.70359  0.63192 11.00000  0.04855  15.58
CL04  6  0.22633  0.88587  0.41205 11.00000  0.07593  14.78
CL05  6  1.05817  0.51956  0.45572 11.00000  0.01484  14.49
CL06  6  0.55415  0.72013  0.35344 11.00000  0.03880  14.45
C007  2  0.96536  0.68296  0.62322 11.00000  0.00138  14.36
CL08  6  0.92226 -0.02933  0.71907 11.00000  0.05603  14.25
C009  2  0.71428  0.01230  0.49038 11.00000  0.00010  14.19
CL0A  6  0.68697  0.70255  0.63655 11.00000  0.03309  13.94
C00B  2  0.95272  0.37848  0.57365 11.00000  0.00010  13.21
CL0C  6  0.82909  0.26940  0.70281 11.00000  0.05928  13.18
CL0D  6  0.43931  0.74195  0.34877 11.00000  0.04033  13.16
CL0E  6  0.26237  0.49082  0.58373 11.00000  0.03494  12.55
O00F  4  0.45448  0.43239  0.57560 11.00000  0.00163  12.02
O00G  4  0.09843  0.75235  0.34748 11.00000  0.00010  11.77
O00H  4  0.82689  0.02292  0.72824 11.00000  0.04147  11.05
O00I  4  0.19227  0.71934  0.34483 11.00000  0.02714  10.82
N00J  3  0.89025  0.55610  0.44864 11.00000  0.02457  10.76
N00K  3  0.65299  0.07119  0.74214 11.00000  0.00708  10.61
O00L  4 -0.26637  0.58642  0.32465 11.00000  0.00010  10.56
N00M  3  0.47266  0.02626  0.62725 11.00000  0.01244  10.45
O00N  4  0.34849  0.26817  0.77961 11.00000  0.05947  10.29
O00O  4  1.10415  0.08214  0.66086 11.00000  0.00195  10.29
O00P  4  0.33271  0.73641  0.64563 11.00000  0.00047  10.28
O00Q  4  0.37167 -0.01735  0.60954 11.00000  0.02193  10.09
O00R  4  0.18733  0.74523  0.45707 11.00000  0.00134  10.08
O00S  4  0.91391 -0.09419  0.70614 11.00000  0.00378  10.07
N00T  3  0.19414  0.61676  0.50531 11.00000  0.00591  10.05
O00U  4  0.40520  0.98957  0.30152 11.00000  0.02031   9.94
O00V  4  1.02405  0.43361  0.64099 11.00000  0.00010   9.83
C00W  2  1.00695  0.36646  0.40751 11.00000  0.00010   9.80
O00X  4  1.06954  0.71090  0.63784 11.00000  0.00010   9.68
N00Y  3  0.54452  0.60141  0.55079 11.00000  0.04341   9.65
N00Z  3  0.51652  0.95873  0.32148 11.00000  0.00010   9.52
O010  4  0.54955  0.83330  0.32927 11.00000  0.02830   9.28
O011  4  0.68757  0.02732  0.61639 11.00000  0.01142   9.16
N012  3  0.23761  0.43283  0.60119 11.00000  0.00045   9.15
N013  3  0.01357  0.14070  0.59662 11.00000  0.03498   9.00
O014  4  1.39506  0.22145  0.49460 11.00000  0.04500   8.99
O015  4  0.39107  0.21304  0.61132 11.00000  0.01710   8.94
O016  4  0.33060  0.25352  0.69523 11.00000  0.03482   8.93
O017  4  0.70206  0.79290  0.36870 11.00000  0.02712   8.85
O018  4  0.94775  1.00222  0.24345 11.00000  0.00010   8.79
O019  4  0.05488  0.59978  0.51350 11.00000  0.00010   8.74
O01A  4  0.16425  0.95997  0.33375 11.00000  0.02220   8.62
N01B  3  0.68459  0.97670  0.28498 11.00000  0.00010   8.61
O01C  4  0.81203  0.05491  0.50044 11.00000  0.02256   8.54
N01D  3  0.26138  0.78389  0.36365 11.00000  0.00904   8.47
O01E  4  0.29681  0.82169  0.33753 11.00000  0.03491   8.43
O01F  4  0.84666  0.44423  0.59652 11.00000  0.06880   8.38
O01G  4  0.85348  0.90015  0.27337 11.00000  0.00010   8.38
N01H  3  0.35737  0.62855  0.57238 11.00000  0.02809   8.37
O01I  4  0.57143  0.51811  0.58510 11.00000  0.00010   8.35
N01J  3  0.58437  0.06225  0.56666 11.00000  0.00637   8.34
O01K  4  0.69643  0.53525  0.66829 11.00000  0.00010   8.28
O01L  4  0.34392 -0.01880  0.72931 11.00000  0.06415   8.25
O01M  4  0.35242  0.18076  0.74366 11.00000  0.03215   8.24
O01N  4  0.87791  0.39611  0.40200 11.00000  0.00536   8.23
O01O  4 -0.45423  0.32370  0.33093 11.00000  0.01642   8.21
O01P  4  0.66450  0.66449  0.60548 11.00000  0.03041   8.21
N01Q  3 -0.02131  0.22618  0.58561 11.00000  0.00010   8.20
O01R  4  0.57462  0.11840  0.56530 11.00000  0.03996   8.08
O01S  4  0.65665  0.49694  0.64171 11.00000  0.01158   8.02
C01T  2  1.12963  0.50694  0.44037 11.00000  0.00010   8.01
O01U  4  1.14015  0.37773  0.30732 11.00000  0.02797   7.96
N01V  3 -0.13323  0.60399  0.31546 11.00000  0.00010   7.92
N01W  3  0.73949  0.90580  0.32025 11.00000  0.00010   7.92
N01X  3 -0.27097  0.53736  0.32541 11.00000  0.00010   7.87
O01Y  4  0.14066  0.09964  0.50508 11.00000  0.01410   7.87
C01Z  2  1.28840  0.26017  0.49188 11.00000  0.00010   7.75
O020  4  0.46098  0.37140  0.62249 11.00000  0.02394   7.67
N021  3  0.11279  0.69358  0.48730 11.00000  0.00010   7.64
O022  4  0.07665  0.23536  0.70401 11.00000  0.02181   7.60
O023  4  0.83819  0.76841  0.62027 11.00000  0.00010   7.52
N024  3  0.87933  0.78450  0.37915 11.00000  0.00292   7.43
O025  4  1.13712  0.37681  0.22039 11.00000  0.01403   7.40
C026  2  0.93893  0.08204  0.64463 11.00000  0.00051   7.40
N027  3  0.28596  0.18310  0.56703 11.00000  0.02195   7.35
N028  3 -0.04744  0.17015  0.52975 11.00000  0.00010   7.32
O029  4 -0.10100  0.73963  0.46922 11.00000  0.01711   7.28
O02A  4 -0.10229  0.61205  0.56425 11.00000  0.06674   7.26
N02B  3  0.06808  0.80879  0.29158 11.00000  0.01062   7.24
N02C  3  0.50488  0.13690  0.74122 11.00000  0.00010   7.23
N02D  3  0.81233  1.02111  0.28837 11.00000  0.01122   7.23
N02E  3  0.70193  0.17817  0.48101 11.00000  0.02281   7.20
N02F  3  0.06574  0.22857  0.52891 11.00000  0.00010   7.18
N02G  3  0.34818  0.58022  0.40357 11.00000  0.02170   6.98
N02H  3  0.68919 -0.00235  0.53813 11.00000  0.00010   6.98
N02I  3  0.24372  0.24973  0.58802 11.00000  0.00057   6.95
N02J  3  0.14949  0.11743  0.59055 11.00000  0.01089   6.94
O02K  4  0.90497  0.18572  0.65209 11.00000  0.00010   6.89
N02L  3  0.57449  0.62838  0.36415 11.00000  0.01374   6.83
N02M  3  0.43120  0.25366  0.58600 11.00000  0.01807   6.81
N02N  3 -0.23896  0.72540  0.52600 11.00000  0.02012   6.76
N02O  3  0.40788  0.02894  0.67814 11.00000  0.00010   6.73
N02P  3  0.30470  0.74117  0.52482 11.00000  0.00010   6.62
C02Q  2  0.17596  0.78402  0.40911 11.00000  0.01842   6.49
C02R  2  0.11776  0.70339  0.52369 11.00000  0.00010   6.47
C02S  2  0.60046  0.59910  0.43145 11.00000  0.00010   6.39
C02T  2  0.66895  0.64198  0.65966 11.00000  0.00010   6.23
C02U  2  1.17683  0.43747  0.27175 11.00000  0.01255   6.15
C02V  2  0.95472 -0.18716  0.67321 11.00000  0.00010   6.13
C02W  2  1.31522  0.36634  0.52047 11.00000  0.00010   6.10
C02X  2  0.49769  0.75563  0.61862 11.00000  0.02647   6.06
C02Y  2  0.93987  1.07927  0.39641 11.00000  0.00993   5.98
C02Z  2 -0.21474  0.61358  0.35757 11.00000  0.03375   5.96
C030  2  1.45423  0.34397  0.43470 11.00000  0.02428   5.83
N031  3  0.90324  0.02768  0.59430 11.00000  0.00010   5.73
N032  3  1.16412  0.35955  0.40477 11.00000  0.04338   5.71
C033  2  1.12872  0.45465  0.34632 11.00000  0.01624   5.65
C034  2 -0.39175  0.27365  0.26802 11.00000  0.00010   5.61
C035  2  0.53519  0.56863  0.56272 11.00000  0.02016   5.57
C036  2  0.37628  0.67808  0.52177 11.00000  0.00010   5.57
C037  2  0.79485  0.01809  0.58308 11.00000  0.09023   5.54
C038  2  0.00809  0.79116  0.44290 11.00000  0.01957   5.47
C039  2  1.07378  0.35395  0.29589 11.00000  0.01897   5.45
C03A  2  0.84834 -0.07663  0.54024 11.00000  0.02546   5.40
C03B  2  0.66211  0.13099  0.63183 11.00000  0.00010   5.38
O03C  4  0.33773  0.01741  0.54844 11.00000  0.00010   5.32
C03D  2  0.38006  0.03714  0.62098 11.00000  0.01678   5.18
C03E  2  0.08754 -0.09473  0.48249 11.00000  0.01216   5.08
C03F  2  0.65985  0.12333  0.44181 11.00000  0.00010   5.06
C03G  2  0.24297  0.03462  0.43269 11.00000  0.00574   5.04
C03H  2  0.17965  0.29651  0.65609 11.00000  0.00010   5.04
C03I  2  0.72514 -0.04314  0.66573 11.00000  0.01889   5.02
C03J  2  1.11102  0.93444  0.25949 11.00000  0.00010   4.98
C03K  2  0.74656  0.08179  0.72367 11.00000  0.02470   4.82
C03L  2  0.25542 -0.15965  0.71003 11.00000  0.11099   4.77
C03M  2 -0.16739  0.85261  0.44460 11.00000  0.03314   4.70
C03N  2  0.20862  0.35603  0.60182 11.00000  0.00010   4.67
C03O  2  0.66946  0.42513  0.52785 11.00000  0.00142   4.66
C03P  2  0.71798  0.64225  0.45884 11.00000  0.00151   4.64
C03Q  2  0.40189  0.12233  0.62796 11.00000  0.00010   4.61
C03R  2  0.63465  0.10138  0.76423 11.00000  0.02756   4.60
C03S  2  0.71086  1.14999  0.32657 11.00000  0.00010   4.58
C03T  2  0.42777  0.08866  0.59354 11.00000  0.04440   4.54
C03U  2  0.74561  0.27391  0.58699 11.00000  0.00010   4.48
C03V  2 -0.41662  0.44614  0.31147 11.00000  0.00100   4.41
C03W  2  1.26074  0.43020  0.47142 11.00000  0.01436   4.34
C03X  2  0.73195  0.36761  0.64434 11.00000  0.00010   4.24
C03Y  2 -0.09160  0.66890  0.32006 11.00000  0.02328   4.17
C03Z  2  0.74022  1.05674  0.34459 11.00000  0.02243   4.10
C040  2  0.70493  0.15717  0.68930 11.00000  0.00010   4.09
C041  2  0.37771  0.61515  0.68649 11.00000  0.00035   4.05
C042  2  0.10094  0.66990  0.32021 11.00000  0.00530   3.98
O043  4  0.95202  0.21079  0.34346 11.00000  0.00010   3.94
C044  2 -0.11372  0.67110  0.35384 11.00000  0.00010   3.91
C045  2  0.98196  1.18716  0.43338 11.00000  0.00010   3.89
C046  2  0.37977  0.50219  0.64878 11.00000  0.00074   3.85
C047  2  0.03211  0.10183  0.53505 11.00000  0.01664   3.72
C048  2  0.30979  0.89029  0.34640 11.00000  0.06451   3.72
C049  2  0.27686  0.54053  0.56697 11.00000  0.00010   3.70
C04A  2  0.34742  0.39576  0.68467 11.00000  0.00234   3.65
O04B  4  0.24133  0.08046  0.44392 11.00000  0.00010   3.64
C04C  2  0.60930  0.37729  0.50051 11.00000  0.11461   3.62
C04D  2 -0.25687  0.51809  0.33447 11.00000  0.03155   3.56
C04E  2  0.85268  0.43280  0.62927 11.00000  0.00199   3.54
C04F  2  0.63293 -0.13034  0.62484 11.00000  0.00010   3.51
C04G  2  0.97309  0.36303  0.34301 11.00000  0.01919   3.50
C04H  2  0.11657  0.04646  0.47286 11.00000  0.00010   3.41
C04I  2  0.99070  0.31659  0.31883 11.00000  0.01751   3.36
C04J  2  1.01951  0.63794  0.65478 11.00000  0.02657   3.29
C04K  2  0.84004  0.99877  0.36753 11.00000  0.00010   3.26
C04L  2  0.15670  0.17145  0.58049 11.00000  0.05139   3.12
C04M  2  0.26646  1.04166  0.31840 11.00000  0.02960   3.12
C04N  2 -0.27912  0.83963  0.48138 11.00000  0.06509   3.07
C04O  2  0.11930  0.66826  0.38228 11.00000  0.04843   3.07
N04P  3  0.28342  0.89431  0.37718 11.00000  0.00105   3.05
HKLF 4
END
