TITL shelx03-merge_expF_1_2_expS_0_7_shelx03-merge_a.res in P1
REM Old TITL 1 in I 1 #-1
REM SHELXT solution in P1: R1 0.821, Rweak 0.016, Alpha 0.000
REM <I/s>   0.000 for    0 systematic absences,  Orientation as input
REM Flack x = -7.387 ( 1.205 ) from  1132 Parsons' quotients
REM Formula found by SHELXT:  C52 N20 O29

CELL  0.71073   9.3100  15.1100  30.5000   90.000   90.000   90.000
ZERR   52.000   0.0019   0.0030   0.0061    0.000    0.000    0.000
LATT -2
SFAC H C N O ZR CL
UNIT 20 20 20 20 20 0
L.S. 10
BOND
LIST 6
FMAP 2
PLAN 20
CL01  6  0.07850  1.13716  0.41750 11.00000  0.05028  21.44
CL02  6 -0.03889  1.13634  0.41941 11.00000  0.06876  20.68
CL03  6 -0.18058  1.14244  0.41988 11.00000  0.03891  19.96
CL04  6  0.22641  1.14329  0.41683 11.00000  0.06079  19.48
C005  2  1.04043  0.16180  0.58466 11.00000  0.00205  16.03
CL06  6  0.58585  0.13984  0.70063 11.00000  0.06183  15.03
CL07  6  0.45166  0.16383  0.70419 11.00000  0.04069  13.79
CL08  6 -0.30873  1.13533  0.41836 11.00000  0.04958  13.54
CL09  6  1.17554  0.03460  0.62217 11.00000  0.07848  13.53
CL0A  6  0.74163  0.11008  0.30372 11.00000  0.05155  13.30
O00B  4  0.41352  1.14380  0.41362 11.00000  0.01715  12.42
O00C  4  0.90088 -0.02637  0.71282 11.00000  0.02544  12.35
O00D  4  1.38224 -0.01617  0.75248 11.00000  0.04302  11.99
O00E  4  0.01355  0.98461  0.37267 11.00000  0.00665  11.44
N00F  3  0.70628  0.14749  0.66045 11.00000  0.08584  11.03
C00G  2  0.40148  0.13885  0.29644 11.00000  0.02878  10.91
O00H  4  0.62311  0.15369  0.28977 11.00000  0.06260  10.83
N00I  3  0.71653  0.11403  0.70511 11.00000  0.02182  10.14
O00J  4  0.11709  0.92625  0.36351 11.00000  0.03885   9.88
O00K  4  0.68728  0.06241  0.70774 11.00000  0.01470   9.76
O00L  4  0.84226  0.08447  0.30304 11.00000  0.01670   9.69
O00M  4  0.33822  0.15416  0.62056 11.00000  0.00475   9.43
N00N  3  0.26839  0.12435  0.74963 11.00000  0.01796   9.26
O00O  4 -0.12233  0.74300  0.49065 11.00000  0.02959   9.11
O00P  4  1.10328  0.10906  0.56393 11.00000  0.04806   9.04
O00Q  4  1.05968  0.06136  0.63548 11.00000  0.04334   9.04
O00R  4  1.56276 -0.06100  0.56581 11.00000  0.00495   9.02
N00S  3  1.21783  0.00728  0.76020 11.00000  0.02705   8.68
N00T  3  0.17147  0.19549  0.74228 11.00000  0.00781   8.57
O00U  4  0.84764  0.18279  0.59761 11.00000  0.03395   8.55
O00V  4  0.18276  0.06419  0.29774 11.00000  0.03654   8.48
O00W  4  0.93543 -0.09587  0.66460 11.00000  0.07815   8.43
N00X  3  0.84403  0.04122  0.70161 11.00000  0.08884   8.43
O00Y  4  0.29145  0.15490  0.75811 11.00000  0.01574   8.42
N00Z  3  0.78372  0.23287  0.65414 11.00000  0.02833   8.37
O010  4  1.60200 -0.08370  0.74838 11.00000  0.00010   7.92
O011  4  1.32949 -0.15330  0.62148 11.00000  0.05424   7.77
O012  4  0.60070  0.04012  0.71880 11.00000  0.13452   7.65
N013  3  1.29992  0.00027  0.63370 11.00000  0.00786   7.65
O014  4  0.72797  0.29056  0.65186 11.00000  0.01173   7.56
C015  2  0.26370  0.52090  0.37704 11.00000  0.10786   7.48
N016  3  0.51544  0.16764  0.28777 11.00000  0.02282   7.37
N017  3  0.77495  0.04998  0.65101 11.00000  0.10641   7.33
C018  2  1.30574 -0.07417  0.62386 11.00000  0.00010   7.20
O019  4 -0.18539  0.48724  0.46408 11.00000  0.01934   7.20
N01A  3  1.40570 -0.01601  0.56247 11.00000  0.05229   7.20
O01B  4  0.99875  0.16985  0.25161 11.00000  0.00833   7.05
C01C  2  0.05322  0.89240  0.42449 11.00000  0.04994   6.99
C01D  2  1.09542  0.17200  0.23980 11.00000  0.03499   6.71
O01E  4  1.80500 -0.02911  0.53201 11.00000  0.07216   6.52
C01F  2  0.44316  0.22775  0.67056 11.00000  0.02680   6.48
C01G  2  0.84727 -0.00801  0.61406 11.00000  0.00226   6.22
C01H  2  0.40072  0.23586  0.56019 11.00000  0.04790   6.09
C01I  2  0.31686  0.67628  0.33712 11.00000  0.01739   6.08
C01J  2  0.53686  0.19118  0.65504 11.00000  0.02566   6.07
C01K  2  0.66370 -0.01955  0.62194 11.00000  0.00362   5.84
N01L  3  0.26242  0.61686  0.37373 11.00000  0.10801   5.82
C01M  2  0.34302  0.30891  0.53497 11.00000  0.05496   5.79
C01N  2 -0.18815  0.67284  0.45302 11.00000  0.04711   5.75
N01O  3  1.43983 -0.01853  0.75159 11.00000  0.07844   5.68
C01P  2  1.28518 -0.08797  0.56679 11.00000  0.00711   5.63
N01Q  3  1.01807  0.09006  0.71980 11.00000  0.02019   5.56
C01R  2  1.04273 -0.04852  0.61583 11.00000  0.04002   5.41
N01S  3  0.07904  0.43968  0.43124 11.00000  0.03615   5.40
C01T  2  0.40326  0.73206  0.32803 11.00000  0.02558   5.37
C01U  2  0.32127  0.44054  0.35947 11.00000  0.00455   5.34
C01V  2 -0.75572  0.71216  0.49218 11.00000  0.08105   5.31
C01W  2  0.35028  0.13501  0.50190 11.00000  0.02668   5.29
C01X  2  0.99306  0.11737  0.66679 11.00000  0.04764   5.27
N01Y  3 -0.22454  0.79876  0.45213 11.00000  0.00177   5.22
O01Z  4  1.17218 -0.04139  0.56419 11.00000  0.02649   5.19
O020  4 -0.13150  0.62243  0.45433 11.00000  0.01482   5.08
C021  2  1.04470 -0.19536  0.66725 11.00000  0.03224   5.07
C022  2  1.72198 -0.05753  0.55083 11.00000  0.03323   5.06
O023  4  0.27507  0.27195  0.68699 11.00000  0.04099   5.04
C024  2  0.25957  0.29314  0.47481 11.00000  0.01544   5.02
C025  2  0.95359  0.12942  0.70385 11.00000  0.00010   4.99
C026  2  0.97111  0.21397  0.66932 11.00000  0.01282   4.90
C027  2  0.19571  0.39702  0.50120 11.00000  0.01394   4.75
C028  2  0.11983  0.59062  0.37199 11.00000  0.05442   4.60
C029  2  1.16242 -0.24121  0.67481 11.00000  0.01261   4.57
N02A  3 -0.08692  1.24121  0.35866 11.00000  0.04403   4.53
N02B  3  0.17607  0.90594  0.42670 11.00000  0.00287   4.53
N02C  3  0.36026  0.32065  0.35716 11.00000  0.05396   4.39
C02D  2  0.54944  0.14956  0.62838 11.00000  0.00010   4.37
C02E  2  0.49620  0.29824  0.34322 11.00000  0.00010   4.30
C02F  2  0.07491  0.73298  0.41047 11.00000  0.01639   4.29
C02G  2  1.13382  0.05570  0.72207 11.00000  0.04395   4.28
C02H  2  1.27471 -0.05010  0.74892 11.00000  0.10889   4.22
C02I  2  0.46982  0.87276  0.40358 11.00000  0.08368   4.01
O02J  4 -0.32171  0.61445  0.48571 11.00000  0.08507   3.97
C02K  2 -0.77958  0.63891  0.49155 11.00000  0.00271   3.94
C02L  2  1.58851  0.01257  0.49723 11.00000  0.03774   3.63
C02M  2  0.31694  0.46542  0.67388 11.00000  0.02247   3.61
O02N  4  0.52530  0.43185  0.67628 11.00000  0.01178   3.61
C02O  2  1.36723 -0.10191  0.61896 11.00000  0.00010   3.61
C02P  2  0.37188  0.70148  0.37728 11.00000  0.13027   3.60
C02Q  2 -0.80500  0.57041  0.54964 11.00000  0.06326   3.59
C02R  2  0.13533  0.25085  0.72701 11.00000  0.07500   3.53
C02S  2  0.71721  0.04999  0.58899 11.00000  0.00342   3.48
C02T  2  0.59243  0.11519  0.56020 11.00000  0.00691   3.47
C02U  2 -0.53227  0.62872  0.54694 11.00000  0.01367   3.41
N02V  3  0.03125  0.44397  0.75694 11.00000  0.05428   3.32
C02W  2 -0.13100  0.84857  0.42919 11.00000  0.00010   3.27
C02X  2  0.86337  0.34743  0.61968 11.00000  0.10309   3.25
C02Y  2  0.43466  0.38060  0.68566 11.00000  0.03913   3.15
C02Z  2  0.64106  0.30804  0.33132 11.00000  0.00720   3.12
C030  2 -0.29694  0.47113  0.47583 11.00000  0.01170   3.11
C031  2 -0.43284  0.71951  0.56664 11.00000  0.02362   3.09
C032  2  0.33619  0.03254  0.33723 11.00000  0.05326   3.05
HKLF 4
END
