TITL shelx03-merge_expF_1_5_expS_0_7_shelx03-merge_a.res in P1
REM Old TITL 1 in I 1 #-1
REM SHELXT solution in P1: R1 0.926, Rweak 0.506, Alpha 0.000
REM <I/s>   0.000 for    0 systematic absences,  Orientation as input
REM Flack x = -0.149 ( 0.742 ) from  1048 Parsons' quotients
REM Formula found by SHELXT:  C35 N7 O17

CELL  0.71073   9.3100  15.1100  30.5000   90.000   90.000   90.000
ZERR   52.000   0.0019   0.0030   0.0061    0.000    0.000    0.000
LATT -2
SFAC H C N O ZR CL
UNIT 20 20 20 20 20 0
L.S. 10
BOND
LIST 6
FMAP 2
PLAN 20
CL01  6  0.25147  0.20334  0.36362 11.00000  0.06851  18.69
CL02  6  0.09208  0.19917  0.36160 11.00000  0.02458  17.63
CL03  6  0.34914  0.20598  0.35979 11.00000  0.03725  16.40
CL04  6  0.74125  0.20892  0.36623 11.00000  0.02400  15.33
CL05  6  0.63014  0.22075  0.37188 11.00000  0.06231  15.20
O006  4 -0.02794 -0.04388  0.44172 11.00000  0.13460  14.49
CL07  6  0.72934  0.19437  0.47918 11.00000  0.03896  14.41
CL08  6  0.69890  0.66854  0.65036 11.00000  0.07684  13.97
CL09  6  0.70226  0.60958  0.64458 11.00000  0.04688  12.88
CL0A  6  0.60588  0.21975  0.48886 11.00000  0.11107  12.52
CL0B  6  0.86345  0.22041  0.36810 11.00000  0.03211  12.51
O00C  4  0.43795  0.22331  0.36956 11.00000  0.02476  12.09
CL0D  6  0.47225  0.68951  0.71768 11.00000  0.04786  10.94
O00E  4  0.76606  0.55891  0.63681 11.00000  0.06513  10.89
C00F  2 -0.17214  0.05502  0.41953 11.00000  0.01987  10.66
CL0G  6  0.69287  0.61186  0.31203 11.00000  0.08191   9.97
C00H  2  0.31625  0.16658  0.49750 11.00000  0.10641   9.84
O00I  4  0.33904  0.55338  0.76802 11.00000  0.14387   9.45
O00J  4  1.18785  0.70788  0.56743 11.00000  0.03488   9.13
O00K  4  0.91754  0.60081  0.64862 11.00000  0.01207   8.91
O00L  4  0.49983 -0.05524  0.31999 11.00000  0.01121   8.15
O00M  4  0.58406 -0.10371  0.33136 11.00000  0.03066   7.99
O00N  4  0.52703  0.19249  0.28505 11.00000  0.04405   7.75
O00O  4  0.41115  0.35442  0.23198 11.00000  0.06749   7.64
O00P  4  0.58702  0.08975  0.46338 11.00000  0.00735   7.03
O00Q  4  0.99036  0.25778  0.47678 11.00000  0.02422   6.85
C00R  2  0.50952  0.60534  0.63016 11.00000  0.15498   6.82
O00S  4  0.94419  0.70761  0.60212 11.00000  0.08515   6.77
N00T  3  0.48920  0.48286  0.57914 11.00000  0.00010   6.76
N00U  3  0.96134  0.49519  0.59345 11.00000  0.05735   6.68
C00V  2  0.55740  0.15001  0.46394 11.00000  0.00010   6.49
C00W  2  0.42331  0.77726  0.56411 11.00000  0.04862   6.45
C00X  2  0.96867  0.51897  0.63047 11.00000  0.17378   6.44
C00Y  2  1.17119  0.49467  0.67535 11.00000  0.03511   6.31
C00Z  2  0.32861 -0.00875  0.42187 11.00000  0.05827   6.29
O010  4  0.85259  0.35769  0.42796 11.00000  0.03142   6.18
C011  2  0.68277 -0.14242  0.32624 11.00000  0.04044   6.13
C012  2  1.05622  0.45075  0.59191 11.00000  0.11666   5.97
C013  2  0.82846  0.76216  0.58489 11.00000  0.05772   5.96
C014  2  0.41186  0.12893  0.39145 11.00000  0.02507   5.61
C015  2  0.22097  0.11692  0.49620 11.00000  0.01562   5.57
C016  2  0.59166  0.18754  0.27877 11.00000  0.05264   5.55
C017  2  0.99012  0.78966  0.56768 11.00000  0.05795   5.47
C018  2  0.43925  0.72424  0.58125 11.00000  0.03889   5.32
C019  2  0.59719  0.78529  0.56553 11.00000  0.00010   5.29
C01A  2 -0.21307 -0.02599  0.50374 11.00000  0.02600   5.18
C01B  2  0.73336  0.38768  0.28367 11.00000  0.04698   5.12
C01C  2  0.23167  0.05621  0.40789 11.00000  0.00010   5.12
C01D  2  0.49551  0.34190  0.24073 11.00000  0.03461   5.08
O01E  4  0.52542  0.04404  0.41931 11.00000  0.00347   4.88
C01F  2  0.66922  1.18843  0.69104 11.00000  0.06053   4.86
C01G  2  0.91043  0.37034  0.60689 11.00000  0.03878   4.50
C01H  2  1.10151  0.47740  0.58282 11.00000  0.00256   4.42
C01I  2  0.07922 -0.03806  0.49853 11.00000  0.03811   4.42
C01J  2  0.73598  0.39642  0.39590 11.00000  0.06583   4.39
C01K  2 -0.12243 -0.20507  0.44995 11.00000  0.02614   4.25
C01L  2  1.21307  0.63322  0.58218 11.00000  0.03820   4.13
C01M  2  0.92129  0.92700  0.60347 11.00000  0.03802   4.09
C01N  2  0.01406  0.01752  0.52912 11.00000  0.02846   4.00
N01O  3  0.24228 -0.13800  0.46296 11.00000  0.08443   3.95
N01P  3  0.50708  0.87634  0.65339 11.00000  0.11303   3.94
N01Q  3  0.54526  1.23006  0.69683 11.00000  0.17276   3.94
N01R  3  1.05460  0.62832  0.35063 11.00000  0.03678   3.61
C01S  2  0.67278  0.34185  0.53848 11.00000  0.02488   3.56
O01T  4  0.35772 -0.09350  0.40001 11.00000  0.06481   3.55
C01U  2  0.05874 -0.28880  0.47042 11.00000  0.07966   3.54
O01V  4  0.56616  1.07500  0.68099 11.00000  0.03286   3.47
C01W  2 -0.03672 -0.16544  0.40680 11.00000  0.06280   3.46
N01X  3  0.84569  0.22929  0.56349 11.00000  0.01320   3.44
C01Y  2  0.39024 -0.04936  0.41391 11.00000  0.10189   3.23
C01Z  2  0.51651  1.28880  0.74239 11.00000  0.13813   3.12
HKLF 4
END
