TITL shelx03-merge_expF_0_7_expS_1_5_shelx03-merge_a.res in P1
REM Old TITL 1 in I 1 #-1
REM SHELXT solution in P1: R1 0.736, Rweak 0.358, Alpha 0.000
REM <I/s>   0.000 for    0 systematic absences,  Orientation as input
REM Flack x = -3.665 ( 0.532 ) from   209 Parsons' quotients
REM Formula found by SHELXT:  C88 N38 O35

CELL  0.71073   9.3100  15.1100  30.5000   90.000   90.000   90.000
ZERR   52.000   0.0019   0.0030   0.0061    0.000    0.000    0.000
LATT -2
SFAC H C N O ZR
UNIT 20 20 20 20 20
L.S. 10
BOND
LIST 6
FMAP 2
PLAN 20
ZR01  5 -0.16269  0.39331  0.62605 11.00000  0.03176  24.08
N002  3 -0.69170  0.36977  0.62434 11.00000  0.00010  22.08
O003  4 -0.30573  0.38721  0.63105 11.00000  0.00010  20.07
O004  4 -0.46574  0.38757  0.62353 11.00000  0.03150  19.27
O005  4 -0.03840  0.39340  0.62929 11.00000  0.03650  18.60
N006  3 -0.80283  0.39771  0.62667 11.00000  0.01039  18.59
N007  3 -0.68790  0.41915  0.66198 11.00000  0.00253  17.23
O008  4 -0.37617  0.54707  0.55117 11.00000  0.00010  15.90
N009  3  1.51855  0.63512  0.27696 11.00000  0.01318  14.06
N00A  3  1.37193  0.69103  0.28077 11.00000  0.03696  13.92
N00B  3 -0.11403  0.40548  0.49094 11.00000  0.01240  13.64
N00C  3 -0.15676  0.45592  0.58880 11.00000  0.00010  12.53
N00D  3 -1.08912  0.82390  0.66203 11.00000  0.00010  12.06
O00E  4 -1.03953  0.25893  0.56932 11.00000  0.00010  11.40
O00F  4  1.29388  0.75984  0.27387 11.00000  0.00010  11.34
N00G  3  1.63777  0.68256  0.27230 11.00000  0.00010  11.13
O00H  4  0.36614  0.36942  0.49193 11.00000  0.04032  10.94
O00I  4  1.38063  0.46774  0.27986 11.00000  0.04001  10.83
N00J  3  0.51855  0.40571  0.44981 11.00000  0.00055  10.71
O00K  4 -0.18674  0.41793  0.52553 11.00000  0.01452  10.70
N00L  3 -0.38152  0.47051  0.55439 11.00000  0.07370  10.62
N00M  3 -0.60764  0.40006  0.63991 11.00000  0.00010  10.61
O00N  4 -0.82711  0.33579  0.59849 11.00000  0.03380  10.56
O00O  4 -0.94662  0.55621  0.68620 11.00000  0.00334  10.25
O00P  4  0.22320  0.15742  0.43169 11.00000  0.03541  10.13
O00Q  4 -1.29652  0.91840  0.58517 11.00000  0.03031   9.91
O00R  4  1.39706  1.15277  0.35472 11.00000  0.00010   9.51
O00S  4 -1.21828  0.97054  0.64688 11.00000  0.01238   9.44
N00T  3  1.50790  0.70787  0.27279 11.00000  0.00974   9.38
O00U  4  1.04824  0.35418  0.26941 11.00000  0.02641   9.33
N00V  3 -0.94918  0.02662  0.70421 11.00000  0.00963   9.18
O00W  4 -0.64039  0.61784  0.62570 11.00000  0.00010   9.14
O00X  4 -0.06777  0.51311  0.51336 11.00000  0.01726   8.96
C00Y  2 -0.62938  0.01859  0.67019 11.00000  0.01325   8.91
O00Z  4 -0.49050  0.48245  0.65708 11.00000  0.00010   8.68
O010  4  0.28390  0.05923  0.44304 11.00000  0.06604   8.65
O011  4  1.68159  0.75849  0.29362 11.00000  0.04408   8.63
C012  2 -0.80239  0.45653  0.63997 11.00000  0.00010   8.58
O013  4 -0.93023  0.34941  0.58204 11.00000  0.00010   8.57
N014  3 -0.94090  0.28331  0.54779 11.00000  0.00010   8.51
N015  3 -0.17593  0.27444  0.68487 11.00000  0.02259   8.49
O016  4 -1.03107  0.88306  0.52496 11.00000  0.00019   8.38
O017  4  1.74574  0.65011  0.26574 11.00000  0.03913   8.32
N018  3  0.89758  0.41376  0.37452 11.00000  0.00611   8.31
C019  2  0.44560  0.20773  0.49309 11.00000  0.00010   8.26
C01A  2 -1.11020  0.64831  0.68843 11.00000  0.00010   8.23
O01B  4 -0.58385  0.29323  0.63669 11.00000  0.03186   8.14
O01C  4 -0.36436  0.76952  0.59246 11.00000  0.04906   8.03
O01D  4  1.27682  1.05447  0.35260 11.00000  0.00778   7.92
N01E  3 -0.30577  0.51306  0.57586 11.00000  0.00914   7.85
N01F  3 -0.36226  0.71008  0.60189 11.00000  0.01589   7.85
O01G  4  0.16669  0.47597  0.51826 11.00000  0.05190   7.73
N01H  3  1.30074  0.84357  0.32418 11.00000  0.00010   7.48
N01I  3 -0.27172  0.06937  0.67933 11.00000  0.01195   7.43
O01J  4  1.98193  0.77115  0.38039 11.00000  0.04147   7.41
C01K  2  0.61016  0.41449  0.34031 11.00000  0.00843   7.27
N01L  3  1.01702  0.34809  0.37495 11.00000  0.01104   7.12
N01M  3 -0.84487 -0.04364  0.69063 11.00000  0.00010   7.10
N01N  3  0.95242  0.27740  0.38161 11.00000  0.00667   7.03
N01O  3 -1.05235  0.86565  0.65126 11.00000  0.00010   6.97
N01P  3  1.33441  1.08172  0.33687 11.00000  0.04949   6.96
N01Q  3  1.83903  0.79441  0.27948 11.00000  0.01550   6.85
N01R  3 -0.88049  0.68165  0.72010 11.00000  0.00010   6.78
N01S  3 -1.10139  0.65894  0.65815 11.00000  0.00010   6.74
N01T  3 -0.86642  0.63395  0.69592 11.00000  0.01750   6.74
O01U  4 -1.28046  0.66721  0.70083 11.00000  0.01657   6.71
C01V  2 -1.18254  0.88261  0.64093 11.00000  0.03972   6.64
N01W  3 -0.51204  0.18475  0.67823 11.00000  0.02340   6.51
C01X  2  2.14775  0.73607  0.46794 11.00000  0.00887   6.48
C01Y  2 -1.01694  0.70883  0.64219 11.00000  0.05049   6.44
C01Z  2  0.33622  0.43211  0.50750 11.00000  0.00010   6.40
C020  2  0.03755  0.30531  0.64547 11.00000  0.00010   6.39
O021  4  1.73452  0.77116  0.24897 11.00000  0.05704   6.35
C022  2 -0.72604  0.47456  0.72432 11.00000  0.01033   6.35
C023  2 -0.01010  0.57282  0.56863 11.00000  0.00010   6.32
C024  2 -0.80483  0.23969  0.55714 11.00000  0.00210   6.31
N025  3 -0.69559 -0.09375  0.68481 11.00000  0.00010   6.29
C026  2  1.14252  0.29330  0.27235 11.00000  0.02084   6.25
C027  2 -0.68015  0.54000  0.65722 11.00000  0.05452   6.13
N028  3  1.90273  0.70625  0.31260 11.00000  0.10829   6.08
C029  2  1.24039  0.63612  0.27725 11.00000  0.00010   6.00
C02A  2 -1.18810  0.85343  0.58496 11.00000  0.02392   5.98
C02B  2  1.79858  0.83139  0.22491 11.00000  0.00831   5.93
C02C  2 -0.69891  0.70219  0.68095 11.00000  0.06965   5.92
C02D  2  1.95122  0.65701  0.31924 11.00000  0.01277   5.89
C02E  2  2.29652  0.84129  0.52735 11.00000  0.00010   5.85
C02F  2 -0.18110  0.37537  0.51175 11.00000  0.00010   5.83
C02G  2 -0.16870  0.62914  0.55601 11.00000  0.05441   5.80
C02H  2 -1.13538  0.71571  0.64262 11.00000  0.02294   5.65
C02I  2 -0.68851 -0.10033  0.77841 11.00000  0.03251   5.51
N02J  3 -0.57184  0.12415  0.65400 11.00000  0.00556   5.48
C02K  2 -0.55290  0.64662  0.54548 11.00000  0.00460   5.46
N02L  3  2.17780  0.99770  0.56966 11.00000  0.01365   5.44
C02M  2 -0.47337  0.72684  0.60352 11.00000  0.00010   5.41
O02N  4 -0.01583  0.52558  0.75768 11.00000  0.00115   5.29
C02O  2  1.35066  0.40124  0.27532 11.00000  0.04053   5.29
C02P  2 -0.40820  0.23416  0.68038 11.00000  0.00010   5.23
C02Q  2  1.04307  0.26220  0.25618 11.00000  0.00205   5.22
C02R  2 -0.43447  0.83244  0.58292 11.00000  0.00214   5.18
N02S  3  1.09518  0.52410  0.25979 11.00000  0.02239   5.17
C02T  2  0.39617  0.49820  0.55874 11.00000  0.00010   5.17
C02U  2  0.57055  0.36250  0.48749 11.00000  0.00010   5.16
C02V  2 -0.00816  0.34689  0.69860 11.00000  0.00010   5.13
C02W  2  0.80978  0.42445  0.41932 11.00000  0.05044   5.01
C02X  2 -0.04125  0.42787  0.70359 11.00000  0.00010   5.00
C02Y  2 -0.32664  0.58031  0.60118 11.00000  0.02831   5.00
C02Z  2 -0.78796 -0.03813  0.72256 11.00000  0.02532   4.93
C030  2 -0.02864  0.27900  0.70561 11.00000  0.02715   4.92
C031  2  0.02977  0.33151  0.48771 11.00000  0.00492   4.88
C032  2  1.46452  0.76441  0.33082 11.00000  0.00010   4.82
C033  2  1.20307  0.96230  0.29079 11.00000  0.00010   4.81
C034  2  0.31927  0.29111  0.50496 11.00000  0.06615   4.80
C035  2  0.58741  0.28828  0.45530 11.00000  0.01313   4.76
C036  2  0.73453  0.24012  0.41913 11.00000  0.05653   4.72
C037  2  1.26972  0.31975  0.30317 11.00000  0.04087   4.71
N038  3  0.28619  0.10680  0.47730 11.00000  0.04145   4.67
C039  2  2.01655  0.87117  0.24459 11.00000  0.00010   4.60
C03A  2  0.16074  0.40485  0.46888 11.00000  0.00010   4.57
C03B  2 -0.56543  0.16473  0.60392 11.00000  0.01229   4.56
C03C  2  1.42588  0.85243  0.31047 11.00000  0.00456   4.46
C03D  2  0.61341  0.05514  0.46562 11.00000  0.00481   4.44
C03E  2  2.19169  0.67606  0.42257 11.00000  0.00010   4.42
O03F  4  0.48211  0.41171  0.36603 11.00000  0.00010   4.37
O03G  4 -0.27299  0.48092  0.70179 11.00000  0.00010   4.36
C03H  2 -0.83424  0.62658  0.62826 11.00000  0.02059   4.35
C03I  2  0.47945  0.26797  0.47294 11.00000  0.01259   4.31
C03J  2 -1.10732  0.74480  0.66399 11.00000  0.00010   4.31
C03K  2 -0.23003  0.16212  0.68289 11.00000  0.04462   4.10
C03L  2  2.13367  0.90741  0.38376 11.00000  0.00010   4.02
C03M  2  2.24679  0.94251  0.54714 11.00000  0.00275   3.98
C03N  2  0.85204  0.48753  0.38015 11.00000  0.01641   3.97
C03O  2  0.02626  0.46651  0.43075 11.00000  0.00010   3.96
C03P  2 -0.94868  0.64400  0.62683 11.00000  0.00010   3.84
C03Q  2 -0.37837  0.65544  0.61513 11.00000  0.00010   3.84
C03R  2 -0.16402  0.55937  0.74276 11.00000  0.01064   3.78
C03S  2  0.91119  0.25424  0.34367 11.00000  0.00992   3.75
C03T  2  0.54771  0.29060  0.33447 11.00000  0.00581   3.74
C03U  2 -0.43320  0.20261  0.73668 11.00000  0.03816   3.70
C03V  2 -0.50705 -0.07977  0.64824 11.00000  0.00010   3.61
C03W  2  1.22240  0.41298  0.22159 11.00000  0.00010   3.60
C03X  2 -0.20853  0.38208  0.70867 11.00000  0.01559   3.60
C03Y  2  1.07732  0.41682  0.28414 11.00000  0.03298   3.59
C03Z  2  2.00114  0.58002  0.30795 11.00000  0.00010   3.59
C040  2  0.24422  0.50468  0.50154 11.00000  0.00010   3.56
C041  2 -0.32175  0.81618  0.45934 11.00000  0.02340   3.47
C042  2  0.45515  0.31604  0.40983 11.00000  0.08850   3.47
C043  2  0.75893  0.22904  0.35167 11.00000  0.00010   3.43
C044  2 -0.23029  0.73558  0.51883 11.00000  0.00010   3.35
O045  4 -0.57094  0.72111  0.67990 11.00000  0.00320   3.35
C046  2  1.54103  0.33907  0.26390 11.00000  0.00109   3.28
C047  2 -0.75184 -0.15277  0.65954 11.00000  0.00010   3.22
N048  3  0.62736  0.56845  0.37867 11.00000  0.00010   3.21
C049  2 -0.71192 -0.12262  0.71316 11.00000  0.03285   3.20
C04A  2  1.96336  0.99168  0.34542 11.00000  0.09061   3.19
C04B  2  0.06161  0.04285  0.44172 11.00000  0.14590   3.17
C04C  2  0.41486  0.41106  0.49952 11.00000  0.07051   3.10
C04D  2  1.22075  0.57309  0.27679 11.00000  0.00010   3.09
C04E  2 -0.14107  0.62052  0.59555 11.00000  0.00010   3.07
C04F  2  1.16232  0.38696  0.33638 11.00000  0.14353   3.05
C04G  2  0.88814  0.40092  0.34304 11.00000  0.00010   3.04
C04H  2 -0.25591  0.72249  0.47517 11.00000  0.07006   3.02
C04I  2  0.70078  0.12791  0.46643 11.00000  0.01800   3.02
HKLF 4
END
