TITL shelx03-merge_expF_1_0_expS_1_1_shelx03-merge_a.res in P1
REM Old TITL 1 in I 1 #-1
REM SHELXT solution in P1: R1 0.739, Rweak 0.459, Alpha 0.000
REM <I/s>   0.000 for    0 systematic absences,  Orientation as input
REM Flack x = -9.990 ( 9.990 ) from   496 Parsons' quotients
REM Formula found by SHELXT:  C48 N15 O7

CELL  0.71073   9.3100  15.1100  30.5000   90.000   90.000   90.000
ZERR   52.000   0.0019   0.0030   0.0061    0.000    0.000    0.000
LATT -2
SFAC H C N O ZR
UNIT 20 20 20 20 20
L.S. 10
BOND
LIST 6
FMAP 2
PLAN 20
N001  3 -0.16193  0.36656  0.43446 11.00000  0.02889  12.04
N002  3 -0.28673  0.39444  0.43047 11.00000  0.04589  11.98
N003  3 -0.01058  0.37004  0.43174 11.00000  0.00168   9.89
O004  4  0.37279  0.37385  0.43283 11.00000  0.00879   9.56
O005  4  0.22115  0.37544  0.43800 11.00000  0.02240   9.34
C006  2  1.00264  0.18705  0.57482 11.00000  0.00204   9.04
N007  3  0.50594  0.35959  0.42918 11.00000  0.01826   8.70
N008  3  0.76031  0.29000  0.40922 11.00000  0.03681   8.52
N009  3  1.23785  0.35414  0.31239 11.00000  0.01595   8.42
O00A  4  1.02472  0.20841  0.38718 11.00000  0.01351   7.87
C00B  2  1.17572  0.40110  0.31467 11.00000  0.00535   7.71
N00C  3  0.88784  0.25779  0.39067 11.00000  0.02592   6.87
N00D  3  1.44049  0.33101  0.30709 11.00000  0.02907   6.59
C00E  2  0.90972  0.23478  0.56925 11.00000  0.01080   6.33
C00F  2  0.83521  0.36684  0.32598 11.00000  0.00817   6.27
C00G  2  0.09343  0.37626  0.42753 11.00000  0.00418   6.09
C00H  2 -0.23915  0.46045  0.40744 11.00000  0.06167   5.87
C00I  2  0.67490 -0.04403  0.47326 11.00000  0.00625   5.85
C00J  2  0.07128  0.88575  0.55254 11.00000  0.03164   5.77
O00K  4  0.93148  0.36365  0.60217 11.00000  0.04555   5.75
O00L  4  1.07567  0.35302  0.70311 11.00000  0.00737   5.71
C00M  2  1.05710  0.43359  0.31182 11.00000  0.05335   5.69
C00N  2 -0.45681  0.42978  0.35807 11.00000  0.00010   5.58
C00O  2  1.26297  0.29288  0.30555 11.00000  0.03346   5.46
N00P  3  0.95039  0.30042  0.34929 11.00000  0.00873   5.19
C00Q  2  0.83162  0.59319  0.62638 11.00000  0.00280   5.16
C00R  2  0.28979  0.97829  0.49460 11.00000  0.02695   5.13
C00S  2  0.72786  0.65728  0.63807 11.00000  0.04094   5.08
C00T  2  0.04507  0.53819  0.38276 11.00000  0.00730   4.99
O00U  4  0.69325  0.86438  0.61299 11.00000  0.01546   4.95
C00V  2  0.61737  0.31935  0.40924 11.00000  0.00010   4.75
C00W  2  0.82545  0.50117  0.63430 11.00000  0.05801   4.72
N00X  3  1.21579  0.39692  0.77563 11.00000  0.05740   4.56
C00Y  2  0.68822  0.07251  0.50042 11.00000  0.07440   4.53
C00Z  2 -0.36648  0.47891  0.41251 11.00000  0.01507   4.48
C010  2 -0.37590  0.52449  0.37796 11.00000  0.01640   4.48
C011  2  0.77516 -0.00345  0.46596 11.00000  0.03956   4.38
C012  2  0.46148  0.87683  0.61428 11.00000  0.01849   4.19
C013  2  0.76334  0.72084  0.64499 11.00000  0.03737   4.13
C014  2  1.14674  0.16533  0.63723 11.00000  0.02656   4.11
C015  2  0.58629  0.87126  0.62867 11.00000  0.04823   4.06
C016  2  1.09847  0.22879  0.64018 11.00000  0.02929   3.93
C017  2 -0.46737  0.47904  0.35228 11.00000  0.03269   3.85
O018  4  1.15542  0.11265  0.65233 11.00000  0.11270   3.79
C019  2  0.04008  0.81736  0.53980 11.00000  0.06044   3.78
N01A  3  1.06998  0.14283  0.55867 11.00000  0.03879   3.78
N01B  3  0.36866  0.84424  0.70218 11.00000  0.04524   3.76
C01C  2  0.76218 -0.03720  0.48081 11.00000  0.05585   3.75
C01D  2 -0.35106  0.37889  0.35421 11.00000  0.03239   3.75
C01E  2  1.02766  0.26931  0.72696 11.00000  0.00840   3.71
N01F  3 -0.24826  0.70467  0.47811 11.00000  0.01776   3.69
C01G  2  0.53431  0.37593  0.47147 11.00000  0.00010   3.50
C01H  2  1.46737  0.37420  0.29351 11.00000  0.08410   3.47
C01I  2  0.82000  0.48176  0.34833 11.00000  0.01452   3.32
C01J  2  0.80355  0.37674  0.61072 11.00000  0.04190   3.30
C01K  2  0.61913  0.12726  0.25235 11.00000  0.05917   3.29
C01L  2  0.11560  0.48281  0.41703 11.00000  0.04826   3.24
C01M  2  0.71688  0.26625  0.29708 11.00000  0.01172   3.22
C01N  2  0.90267  0.12561  0.42530 11.00000  0.04721   3.20
C01O  2  0.16144  0.85146  0.55766 11.00000  0.01186   3.20
C01P  2  0.29863  0.86777  0.49542 11.00000  0.02602   3.17
N01Q  3  0.67566  1.04403  0.60984 11.00000  0.03176   3.16
C01R  2  0.53215  0.58768  0.63588 11.00000  0.02938   3.11
C01S  2  1.18262  0.20907  0.31217 11.00000  0.04383   3.10
N01T  3  0.82445  0.21062  0.56150 11.00000  0.03209   3.09
C01U  2  1.06825  0.27128  0.33604 11.00000  0.01973   3.06
C01V  2  0.74794  0.33531  0.56829 11.00000  0.04669   3.05
C01W  2  0.77533  0.12326  0.22437 11.00000  0.03346   3.03
C01X  2  0.84385  0.22902  0.72783 11.00000  0.02797   3.01
C01Y  2  1.34322  0.15988  0.29342 11.00000  0.02936   3.00
HKLF 4
END
