TITL shelx03-merge_expF_1_5_expS_1_2_shelx03-merge_a.res in P1
REM Old TITL 1 in I 1 #-1
REM SHELXT solution in P1: R1 0.913, Rweak 0.295, Alpha 0.000
REM <I/s>   0.000 for    0 systematic absences,  Orientation as input
REM Flack x = -2.454 ( 1.029 ) from   466 Parsons' quotients
REM Formula found by SHELXT:  C25 N17 O18

CELL  0.71073   9.3100  15.1100  30.5000   90.000   90.000   90.000
ZERR   52.000   0.0019   0.0030   0.0061    0.000    0.000    0.000
LATT -2
SFAC H C N O ZR CL
UNIT 20 20 20 20 20 0
L.S. 10
BOND
LIST 6
FMAP 2
PLAN 20
CL01  6  0.42322  0.41723  0.59302 11.00000  0.02685  19.34
CL02  6  0.50825  0.37849  0.57623 11.00000  0.06517  18.50
CL03  6  0.32114  0.42587  0.59387 11.00000  0.03795  18.37
CL04  6  1.08471  0.39941  0.58866 11.00000  0.06178  17.76
CL05  6  0.90231  0.37775  0.58780 11.00000  0.05357  17.05
CL06  6  0.98442  0.41130  0.59104 11.00000  0.04674  16.92
CL07  6 -0.14149  0.44219  0.43985 11.00000  0.03365  16.01
CL08  6  0.42507  0.32581  0.34964 11.00000  0.11616  14.50
CL09  6  0.01573  0.39269  0.44339 11.00000  0.06882  14.29
CL0A  6  0.56799  0.31000  0.34765 11.00000  0.05505  14.02
CL0B  6  0.70049  0.41136  0.58826 11.00000  0.05502  13.55
CL0C  6  0.52592  0.38101  0.69325 11.00000  0.04609  13.31
O00D  4  0.82528  0.49667  0.61942 11.00000  0.05150  12.42
N00E  3 -0.09105  0.50211  0.28009 11.00000  0.02161  11.74
O00F  4  0.04137  0.36063  0.43539 11.00000  0.02957  11.49
N00G  3 -0.19637  0.41848  0.26623 11.00000  0.00010  10.37
O00H  4  0.08723  0.82843  0.40898 11.00000  0.02461  10.04
O00I  4  0.69166  0.52226  0.62389 11.00000  0.00010  10.00
O00J  4 -0.20927  0.36349  0.26129 11.00000  0.00046   9.62
O00K  4 -0.26575  0.53033  0.29055 11.00000  0.00258   9.59
O00L  4 -0.17803  0.33794  0.48007 11.00000  0.00789   9.46
N00M  3  0.10712  0.86993  0.39353 11.00000  0.00639   8.99
O00N  4  0.04260  0.43996  0.26780 11.00000  0.00588   8.81
O00O  4  0.02451  0.36316  0.33888 11.00000  0.00010   8.64
C00P  2 -0.23953  0.27293  0.29731 11.00000  0.00666   8.46
C00Q  2  0.19457  0.76656  0.43010 11.00000  0.01869   8.23
C00R  2 -0.10419  0.41009  0.32499 11.00000  0.00010   7.98
O00S  4  0.49369  0.23302  0.35734 11.00000  0.05486   7.68
O00T  4  0.33927  0.48096  0.39418 11.00000  0.02557   7.68
O00U  4  0.36448  0.16182  0.62516 11.00000  0.03175   7.66
C00V  2  0.37828  0.06348  0.62155 11.00000  0.00257   7.65
N00W  3  0.65226  0.17026  0.35505 11.00000  0.01570   7.44
N00X  3  0.18602  0.61555  0.34385 11.00000  0.00010   7.38
O00Y  4  0.33766  0.41064  0.29593 11.00000  0.01476   7.27
O00Z  4  1.09722  0.56715  0.54705 11.00000  0.01822   7.14
N010  3  0.37762  0.41866  0.40574 11.00000  0.00186   7.11
C011  2  0.38433  0.53932  0.35134 11.00000  0.05293   6.88
N012  3  0.39664  0.85255  0.43537 11.00000  0.03819   6.84
N013  3  0.78391  0.18942  0.62962 11.00000  0.00850   6.73
N014  3 -0.14494  0.63438  0.31868 11.00000  0.01364   6.58
N015  3  0.15054  0.74866  0.40400 11.00000  0.01250   6.53
C016  2  0.57887  0.53653  0.54262 11.00000  0.01996   6.21
C017  2  0.89149  0.36176  0.68557 11.00000  0.00010   6.09
C018  2  0.27578  0.19450  0.39776 11.00000  0.00010   6.08
C019  2  0.47443  0.67146  0.50780 11.00000  0.00010   5.87
C01A  2 -0.26838  0.68613  0.32568 11.00000  0.00121   5.84
N01B  3 -0.17017  0.61534  0.46012 11.00000  0.00010   5.81
C01C  2  0.66395  0.36977  0.69342 11.00000  0.00010   5.76
C01D  2  0.19118  0.93652  0.40639 11.00000  0.00820   5.69
N01E  3 -0.15373  0.46116  0.31758 11.00000  0.02005   5.31
O01F  4 -0.11642  0.22289  0.29557 11.00000  0.03368   5.06
C01G  2  0.15540  0.59254  0.36361 11.00000  0.00010   5.03
O01H  4 -0.18282  0.14111  0.27443 11.00000  0.01322   4.90
N01I  3  0.38881  0.71050  0.28125 11.00000  0.00237   4.73
N01J  3  0.48868  0.87968  0.50438 11.00000  0.00010   4.62
C01K  2  0.50357  0.31151  0.75054 11.00000  0.02448   4.52
C01L  2  0.08063  0.60189  0.39061 11.00000  0.00735   4.49
C01M  2 -0.26691  0.65061  0.24946 11.00000  0.00010   4.36
C01N  2  0.10587  0.45619  0.39391 11.00000  0.00010   4.31
C01O  2  0.32241  0.35990  0.27369 11.00000  0.00010   4.06
C01P  2 -0.24654  0.18713  0.28212 11.00000  0.01047   4.02
C01Q  2  1.07416  0.50057  0.64093 11.00000  0.00010   3.97
N01R  3  0.30456  0.16483  0.49401 11.00000  0.01506   3.97
N01S  3  0.37550  0.41641  0.51725 11.00000  0.02481   3.83
O01T  4 -0.26240  0.14880  0.48825 11.00000  0.00376   3.60
O01U  4  0.51920  0.52559  0.35015 11.00000  0.02031   3.60
C01V  2  0.25020  0.42059  0.39895 11.00000  0.00256   3.55
N01W  3  0.07854  0.79412  0.53284 11.00000  0.02455   3.51
C01X  2 -0.14635  0.13901  0.48509 11.00000  0.00629   3.47
C01Y  2 -0.05046  0.15777  0.45951 11.00000  0.02601   3.41
C01Z  2  1.26838  0.65143  0.64156 11.00000  0.00010   3.07
C020  2  0.04174  0.56921  0.34839 11.00000  0.00379   3.06
HKLF 4
END
