TITL shelx03-merge_expF_0_5_expS_1_3_shelx03-merge_a.res in P1
REM Old TITL 1 in I 1 #-1
REM SHELXT solution in P1: R1 0.697, Rweak 0.086, Alpha 0.000
REM <I/s>   0.000 for    0 systematic absences,  Orientation as input
REM Flack x = -9.990 ( 6.746 ) from   530 Parsons' quotients
REM Formula found by SHELXT:  C98 N20 O19

CELL  0.71073   9.3100  15.1100  30.5000   90.000   90.000   90.000
ZERR   52.000   0.0019   0.0030   0.0061    0.000    0.000    0.000
LATT -2
SFAC H C N O ZR
UNIT 20 20 20 20 20
L.S. 10
BOND
LIST 6
FMAP 2
PLAN 20
C001  2 -0.25114  0.26470  0.38260 11.00000  0.00066  12.29
C002  2  0.87764  0.38305  0.44106 11.00000  0.00046  12.14
O003  4  0.36161  0.25051  0.73718 11.00000  0.06467  12.09
O004  4 -0.03739  0.10810  0.43586 11.00000  0.05716  10.69
N005  3  0.42631  0.27385  0.38441 11.00000  0.00637  10.35
O006  4  0.76978  0.30006  0.29696 11.00000  0.03901  10.30
O007  4  0.23720  0.27582  0.73599 11.00000  0.00013   9.92
O008  4  0.35962  0.17391  0.73688 11.00000  0.02179   9.59
N009  3  0.62117  0.32442  0.39053 11.00000  0.00633   9.48
N00A  3  0.16803  0.27501  0.38523 11.00000  0.00010   9.09
O00B  4  0.49056  0.13833  0.74389 11.00000  0.00158   9.03
N00C  3 -0.10421  0.28893  0.38422 11.00000  0.00714   9.00
N00D  3  0.55252  0.25966  0.37156 11.00000  0.03037   8.91
O00E  4  0.22976  0.34637  0.72067 11.00000  0.00237   8.34
C00F  2 -0.16142  0.05632  0.43357 11.00000  0.00010   8.28
O00G  4  0.02355  0.34562  0.71436 11.00000  0.01362   8.24
C00H  2  0.15746  0.10894  0.67230 11.00000  0.00010   8.23
O00I  4  0.58689  0.30943  0.31258 11.00000  0.02550   8.07
N00J  3  0.10835  0.11969  0.43222 11.00000  0.00010   8.01
C00K  2  0.26780  0.28420  0.38588 11.00000  0.00010   7.94
O00L  4  0.37374  0.62544  0.48378 11.00000  0.00010   7.56
N00M  3  0.55473  0.53924  0.65541 11.00000  0.01266   7.30
C00N  2  0.03093  0.27460  0.38606 11.00000  0.00010   7.28
N00O  3  0.35836  0.79246  0.68486 11.00000  0.00381   7.26
N00P  3  0.47095  0.03851  0.24343 11.00000  0.01617   7.05
N00Q  3  0.93645  1.01336  0.29022 11.00000  0.01558   6.91
O00R  4  0.03009  0.34175  0.59015 11.00000  0.06215   6.88
N00S  3  1.15627  1.06766  0.57858 11.00000  0.01852   6.82
N00T  3  0.64738  0.72065  0.49389 11.00000  0.02356   6.62
N00U  3  0.72747  0.15766  0.25301 11.00000  0.07487   6.60
C00V  2  0.47956 -0.01934  0.56601 11.00000  0.12760   6.48
C00W  2  0.14672  0.15310  0.46334 11.00000  0.00689   6.48
C00X  2  0.71435  0.80317  0.50370 11.00000  0.00010   6.44
C00Y  2  0.52296  0.49617  0.51049 11.00000  0.01436   6.31
C00Z  2  0.96360  0.93208  0.29077 11.00000  0.04476   6.24
C010  2  1.05675  0.87628  0.24579 11.00000  0.00857   6.15
C011  2  0.46798  0.36683  0.30907 11.00000  0.00526   6.14
C012  2  1.06434  0.85630  0.34649 11.00000  0.00010   6.04
C013  2  1.04165  1.01311  0.49622 11.00000  0.00010   6.03
C014  2  0.56584  0.15232  0.51913 11.00000  0.00010   5.96
C015  2  0.81337  0.46232  0.39618 11.00000  0.03866   5.88
C016  2 -0.01677  0.18806  0.39641 11.00000  0.00010   5.84
C017  2  1.06937  0.79698  0.49028 11.00000  0.01059   5.82
C018  2  0.33971  0.75013  0.64966 11.00000  0.00217   5.82
C019  2  0.26354  0.28870  0.53009 11.00000  0.07465   5.77
C01A  2  0.50392  0.47349  0.68322 11.00000  0.03344   5.72
C01B  2  1.29037  0.90994  0.40189 11.00000  0.01937   5.70
N01C  3  0.54397  0.01615  0.67215 11.00000  0.00010   5.67
C01D  2  0.45908  0.60675  0.29764 11.00000  0.00044   5.67
N01E  3  0.99256  0.14694  0.22323 11.00000  0.06890   5.54
O01F  4  0.33526  0.35379  0.22394 11.00000  0.03382   5.48
C01G  2  0.62436  0.56147  0.48457 11.00000  0.00939   5.40
C01H  2  0.95050  0.48036  0.41169 11.00000  0.00305   5.40
C01I  2 -0.34974  0.12377  0.43708 11.00000  0.03225   5.34
C01J  2  1.24221  0.98762  0.48603 11.00000  0.03007   5.32
C01K  2 -0.17276  0.09951  0.49544 11.00000  0.02200   5.29
C01L  2  0.50292  0.62918  0.55392 11.00000  0.00109   5.26
C01M  2 -0.17500  0.41504  0.70391 11.00000  0.02678   5.25
C01N  2 -0.21678  0.23630  0.62738 11.00000  0.02830   5.24
C01O  2  0.33623  0.66547  0.55306 11.00000  0.00010   5.20
C01P  2  0.36607  0.10818  0.50109 11.00000  0.00010   5.16
C01Q  2  0.49184  0.36427  0.40363 11.00000  0.05218   5.14
O01R  4 -0.27761  0.21022  0.35739 11.00000  0.02460   5.11
C01S  2 -0.13000  0.35649  0.59414 11.00000  0.01712   5.07
O01T  4  0.89521  0.42994  0.47002 11.00000  0.07179   5.03
C01U  2  0.82981  0.97036  0.29303 11.00000  0.03152   5.03
C01V  2  0.12753  0.33824  0.43595 11.00000  0.00010   5.02
C01W  2  0.00521  0.19818  0.65207 11.00000  0.00453   5.00
C01X  2  0.74757  0.40336  0.43043 11.00000  0.02808   4.96
C01Y  2  0.62760  0.90449  0.29164 11.00000  0.00010   4.95
C01Z  2  0.17294  0.23288  0.54892 11.00000  0.00010   4.94
C020  2  0.52154  0.41043  0.47835 11.00000  0.02314   4.94
N021  3  0.11431  0.06572  0.68771 11.00000  0.06250   4.94
O022  4  0.67660  0.77884  0.65211 11.00000  0.01715   4.94
C023  2  0.48922  0.26136  0.26185 11.00000  0.03544   4.92
C024  2  0.57822  0.23693  0.48903 11.00000  0.00010   4.89
C025  2  1.30270  0.90612  0.52887 11.00000  0.00711   4.88
C026  2  0.38228  0.28278  0.26441 11.00000  0.03013   4.87
C027  2  0.43801  0.13116  0.79328 11.00000  0.01360   4.84
C028  2  1.17027  0.98868  0.55282 11.00000  0.00174   4.79
C029  2  0.34271  0.14044  0.32386 11.00000  0.02891   4.75
C02A  2  0.76168  0.79021  0.35080 11.00000  0.01516   4.73
C02B  2  0.16971  0.17111  0.50763 11.00000  0.00459   4.70
C02C  2  0.64213  0.62652  0.50142 11.00000  0.02522   4.62
O02D  4  0.61775  0.05719  0.79913 11.00000  0.10521   4.61
C02E  2  0.62185  0.73352  0.62014 11.00000  0.00010   4.56
C02F  2  1.12231  0.86638  0.46536 11.00000  0.01143   4.55
N02G  3  0.11255  0.18866  0.54248 11.00000  0.03031   4.51
C02H  2  0.54300  0.19693  0.61214 11.00000  0.00010   4.51
C02I  2  0.49987  0.55602  0.51881 11.00000  0.05568   4.51
C02J  2  0.46106  0.64550  0.62150 11.00000  0.01802   4.51
C02K  2  0.99324  0.54448  0.58110 11.00000  0.01987   4.50
C02L  2  0.97670  0.89861  0.45922 11.00000  0.01690   4.44
C02M  2  0.68730  0.88715  0.46721 11.00000  0.00974   4.40
C02N  2  0.47691  0.33313  0.50421 11.00000  0.12964   4.39
O02O  4 -0.19099 -0.02121  0.42645 11.00000  0.01407   4.38
N02P  3  1.02587  0.91063  0.30954 11.00000  0.05376   4.32
C02Q  2  0.70505  0.45920  0.63486 11.00000  0.05312   4.31
C02R  2  0.48026  0.27249  0.55943 11.00000  0.01261   4.27
O02S  4  0.60762 -0.06766  0.58964 11.00000  0.09586   4.24
C02T  2  0.41967  0.34265  0.32497 11.00000  0.01051   4.21
N02U  3  0.86620 -0.01465  0.59571 11.00000  0.02810   4.15
C02V  2  0.37553  0.47547  0.38448 11.00000  0.00873   4.14
C02W  2  0.50555  0.19147  0.26886 11.00000  0.01969   4.10
C02X  2  0.64878  0.30331  0.43034 11.00000  0.00010   4.09
C02Y  2  0.55256  0.06845  0.57074 11.00000  0.01090   4.09
C02Z  2  0.74351  0.54970  0.61736 11.00000  0.04475   4.08
C030  2  0.10920  0.33061  0.52102 11.00000  0.00704   4.08
C031  2  0.70664  0.59069  0.51426 11.00000  0.00010   4.00
C032  2  0.80937  0.68814  0.41113 11.00000  0.00010   3.99
C033  2  0.13420  0.31811  0.33702 11.00000  0.02200   3.96
C034  2  0.29740  0.95157  0.61274 11.00000  0.00010   3.94
C035  2  0.36207  0.15170  0.25286 11.00000  0.01207   3.87
O036  4  0.69478  0.53215  0.29805 11.00000  0.02316   3.83
C037  2  0.25312  0.74346  0.65767 11.00000  0.03828   3.78
C038  2  0.62194  0.33436  0.54499 11.00000  0.00010   3.70
C039  2 -0.16599  0.21927  0.57295 11.00000  0.02728   3.69
C03A  2  0.99980  0.62668  0.60103 11.00000  0.03664   3.67
C03B  2  0.64090  0.98112  0.32163 11.00000  0.00968   3.66
C03C  2  1.17630  0.79422  0.38874 11.00000  0.00010   3.63
C03D  2  0.31961  0.84896  0.62220 11.00000  0.01388   3.59
C03E  2  1.13723  0.59459  0.61775 11.00000  0.03051   3.56
N03F  3  1.34974  0.83576  0.46218 11.00000  0.06363   3.54
C03G  2  0.51040  0.30112  0.44405 11.00000  0.00010   3.52
C03H  2  1.07554  0.55632  0.50793 11.00000  0.01061   3.51
C03I  2  0.73454  0.22829  0.24705 11.00000  0.02138   3.50
C03J  2  0.34320  0.30095  0.20087 11.00000  0.02981   3.47
C03K  2  0.44539  0.76836  0.28958 11.00000  0.00010   3.47
C03L  2  0.13263  0.29963  0.66657 11.00000  0.01369   3.40
C03M  2  0.29470  0.36504  0.58998 11.00000  0.02915   3.37
C03N  2  0.19991  0.20002  0.64800 11.00000  0.02551   3.33
C03O  2  0.71218  0.52259  0.33823 11.00000  0.03471   3.29
C03P  2  0.31827  0.30498  0.31150 11.00000  0.02602   3.20
C03Q  2  0.96953  0.38236  0.27842 11.00000  0.01488   3.13
C03R  2  1.09520  0.67982  0.47129 11.00000  0.00010   3.06
C03S  2  0.84388  0.91908  0.48993 11.00000  0.00612   3.04
C03T  2  1.12025  0.83523  0.27148 11.00000  0.04810   3.03
HKLF 4
END
