TITL shelx03-merge_expF_0_9_expS_1_2_shelx03-merge_a.res in P1
REM Old TITL 1 in I 1 #-1
REM SHELXT solution in P1: R1 0.686, Rweak 0.245, Alpha 0.000
REM <I/s>   0.000 for    0 systematic absences,  Orientation as input
REM Flack x = -0.606 ( 0.395 ) from   386 Parsons' quotients
REM Formula found by SHELXT:  C89 N39 O45

CELL  0.71073   9.3100  15.1100  30.5000   90.000   90.000   90.000
ZERR   52.000   0.0019   0.0030   0.0061    0.000    0.000    0.000
LATT -2
SFAC H C N O ZR
UNIT 20 20 20 20 20
L.S. 10
BOND
LIST 6
FMAP 2
PLAN 20
ZR01  5 -0.19137  0.35050  0.66333 11.00000  0.06528  29.80
ZR02  5  0.15998  0.35313  0.66049 11.00000  0.08328  28.09
ZR03  5 -0.05671  0.33213  0.65468 11.00000  0.02505  28.03
ZR04  5  0.05664  0.35283  0.66616 11.00000  0.08544  26.75
ZR05  5  0.32983  0.35632  0.65863 11.00000  0.05434  26.56
ZR06  5  0.45649  0.34989  0.66074 11.00000  0.05453  25.92
ZR07  5  1.05639  0.48153  0.37852 11.00000  0.11862  25.78
O008  4 -0.26474  0.38441  0.66414 11.00000  0.00123  23.44
O009  4  0.51011  0.36834  0.69326 11.00000  0.00010  21.23
N00A  3  0.38726  0.47109  0.68940 11.00000  0.02998  19.16
O00B  4  1.37967  0.31093  0.39493 11.00000  0.00091  19.07
C00C  2  0.04557  0.34949  0.52001 11.00000  0.01084  18.92
O00D  4  0.38303  0.33725  0.54277 11.00000  0.00010  18.46
N00E  3 -0.01795  0.53203  0.71634 11.00000  0.00010  17.16
O00F  4  0.61389  0.50359  0.60416 11.00000  0.00010  16.95
N00G  3  0.97906  0.52951  0.38284 11.00000  0.00272  16.94
O00H  4  0.73814  0.45020  0.60851 11.00000  0.01755  15.42
O00I  4  0.43467  0.27749  0.54686 11.00000  0.03758  14.93
O00J  4  1.25936  0.37096  0.33572 11.00000  0.04218  14.84
O00K  4  0.30291  0.83562  0.26051 11.00000  0.00994  14.62
O00L  4  1.11927  0.36731  0.38958 11.00000  0.00978  14.54
O00M  4  0.99660  0.62566  0.39072 11.00000  0.01059  14.52
O00N  4  0.02788  0.67236  0.61671 11.00000  0.04913  14.31
O00O  4  0.54562  0.21531  0.41480 11.00000  0.00010  14.21
O00P  4  0.18791  0.61788  0.51387 11.00000  0.00306  13.92
N00Q  3  1.19383  0.22950  0.38236 11.00000  0.05684  13.60
O00R  4  0.34435  0.52468  0.69861 11.00000  0.07504  13.44
O00S  4  0.47053  0.48589  0.49960 11.00000  0.00406  12.53
N00T  3  0.09760  0.31856  0.59497 11.00000  0.03975  12.52
O00U  4 -0.37967  0.76998  0.58702 11.00000  0.07084  12.44
O00V  4  0.99797  0.32395  0.43705 11.00000  0.00133  12.10
N00W  3  0.24923  0.53331  0.71015 11.00000  0.00010  11.74
O00X  4  0.05810  0.44498  0.62226 11.00000  0.04168  11.67
O00Y  4  0.41341  0.58864  0.70059 11.00000  0.01099  11.60
O00Z  4  0.51153  0.31260  0.74693 11.00000  0.00608  11.35
O010  4  0.85550  0.72182  0.39418 11.00000  0.11477  11.24
O011  4  0.72516  1.06010  0.41906 11.00000  0.01194  11.13
O012  4  1.29644  0.69970  0.68682 11.00000  0.01158  10.95
N013  3  0.11088  0.47042  0.71502 11.00000  0.00010  10.74
O014  4 -0.25444  0.90338  0.60582 11.00000  0.06286  10.63
O015  4  0.53643  0.55993  0.73160 11.00000  0.00010  10.36
N016  3  0.12019  0.54993  0.69365 11.00000  0.00010  10.32
O017  4  0.51440  0.00370  0.56833 11.00000  0.02181  10.29
O018  4  0.60995  0.30362  0.63838 11.00000  0.00010  10.25
O019  4 -0.17031  0.73558  0.57648 11.00000  0.02106  10.14
O01A  4  1.33812  0.17222  0.42958 11.00000  0.00465   9.94
O01B  4  0.83245  0.72228  0.38735 11.00000  0.05064   9.67
O01C  4 -0.09710  0.29636  0.54427 11.00000  0.02771   9.62
O01D  4  1.01657  0.18187  0.38736 11.00000  0.01716   9.37
O01E  4 -0.16847  0.60035  0.64096 11.00000  0.04065   9.26
O01F  4  0.89830  0.86086  0.44185 11.00000  0.01622   9.18
N01G  3 -0.00770  0.78305  0.60032 11.00000  0.00872   9.15
N01H  3  0.70293  0.22452  0.50450 11.00000  0.03266   9.04
N01I  3  1.29039  0.23736  0.39251 11.00000  0.10021   9.04
N01J  3  0.34343  0.34593  0.56699 11.00000  0.00010   8.99
O01K  4  1.03819  0.84124  0.45914 11.00000  0.03633   8.92
N01L  3  0.22003  0.65850  0.34447 11.00000  0.03320   8.76
O01M  4  0.74284  0.48637  0.44091 11.00000  0.00706   8.64
N01N  3  0.87024  0.84786  0.35836 11.00000  0.00010   8.54
N01O  3  0.43014  0.77084  0.48544 11.00000  0.00096   8.53
O01P  4  0.09371  0.11747  0.55452 11.00000  0.08098   8.52
N01Q  3  0.98561  0.88019  0.52320 11.00000  0.00010   8.49
N01R  3  0.07592  0.36187  0.73097 11.00000  0.00010   8.36
O01S  4  0.59597  0.28115  0.40590 11.00000  0.07290   8.35
O01T  4  0.51403  0.20692  0.52751 11.00000  0.01491   8.10
N01U  3  0.17641  0.62209  0.49620 11.00000  0.01959   8.04
C01V  2  0.41481  0.24280  0.78839 11.00000  0.01105   7.75
O01W  4  0.40090  0.88165  0.34612 11.00000  0.00449   7.74
N01X  3  0.81208  0.45250  0.50311 11.00000  0.10355   7.74
N01Y  3  0.40890  0.80366  0.33481 11.00000  0.00010   7.47
N01Z  3  1.13042  0.18823  0.31702 11.00000  0.06003   7.42
N020  3  0.08648  0.52195  0.59923 11.00000  0.00010   7.28
N021  3  1.12540  0.85678  0.52424 11.00000  0.01015   7.23
N022  3  0.04206  0.29115  0.76425 11.00000  0.02008   7.12
N023  3  0.53490  0.38162  0.72133 11.00000  0.00539   7.10
N024  3  0.17582  0.21189  0.73984 11.00000  0.00010   7.08
N025  3  0.83719  0.76559  0.44673 11.00000  0.00610   7.04
N026  3  0.58877  0.82940  0.43953 11.00000  0.00010   7.02
C027  2  0.45948  0.00977  0.64624 11.00000  0.06143   7.02
N028  3  0.55033  0.27309  0.48225 11.00000  0.01984   6.99
N029  3  1.23029  0.44943  0.37785 11.00000  0.00996   6.95
N02A  3  0.95382  0.27362  0.32940 11.00000  0.00010   6.90
N02B  3 -0.08481  0.10166  0.55027 11.00000  0.02271   6.81
C02C  2  0.61574  0.66811  0.47490 11.00000  0.01032   6.77
C02D  2  1.01693  0.88024  0.39503 11.00000  0.03924   6.74
N02E  3 -0.31247  0.59005  0.66932 11.00000  0.05494   6.71
C02F  2  0.05648  0.63352  0.60432 11.00000  0.02311   6.61
N02G  3 -0.29864  0.12494  0.54183 11.00000  0.00010   6.56
C02H  2  0.48645  0.36774  0.26146 11.00000  0.00083   6.43
N02I  3  0.42501  0.62808  0.36893 11.00000  0.04415   6.26
C02J  2  0.62233  1.10028  0.40717 11.00000  0.02356   6.24
C02K  2  0.14063  0.12742  0.78289 11.00000  0.01868   6.19
C02L  2  0.15070  0.49664  0.59252 11.00000  0.00010   6.15
C02M  2  0.45427  0.65471  0.47997 11.00000  0.00010   6.14
C02N  2  0.19452  0.34678  0.60185 11.00000  0.00010   6.10
C02O  2  0.63386  0.43666  0.44727 11.00000  0.00837   6.10
C02P  2 -0.15275  0.19498  0.55390 11.00000  0.00010   6.07
C02Q  2  1.09859  0.35411  0.34888 11.00000  0.00010   6.07
C02R  2  0.97651  0.54532  0.31472 11.00000  0.00104   5.98
C02S  2  0.02925  0.41229  0.58506 11.00000  0.00439   5.91
C02T  2  1.15154  0.76674  0.56176 11.00000  0.00612   5.91
C02U  2  0.33191  0.65186  0.47834 11.00000  0.00125   5.83
C02V  2  0.40142  0.43854  0.71954 11.00000  0.01569   5.83
C02W  2  0.70475  0.50224  0.49251 11.00000  0.02052   5.82
O02X  4  0.40027  1.07022  0.29612 11.00000  0.00010   5.82
C02Y  2  1.09391  0.92255  0.53191 11.00000  0.01394   5.72
C02Z  2  0.25144  0.99250  0.30188 11.00000  0.00010   5.69
C030  2  0.42331  0.51310  0.36816 11.00000  0.00010   5.68
O031  4  0.48298  0.02211  0.69287 11.00000  0.00010   5.66
C032  2  0.74576  0.53604  0.39155 11.00000  0.00010   5.58
C033  2  1.05037  0.06191  0.34939 11.00000  0.00010   5.55
C034  2  0.69072  0.58179  0.36319 11.00000  0.00010   5.51
C035  2  0.73027  0.31682  0.25811 11.00000  0.00010   5.51
C036  2  0.39920  0.23164  0.28461 11.00000  0.00010   5.50
C037  2  1.06275  0.84952  0.42500 11.00000  0.00010   5.50
C038  2  1.23815  0.92056  0.44751 11.00000  0.00010   5.47
C039  2  0.66683  0.14878  0.30396 11.00000  0.00010   5.42
C03A  2  1.07631  0.52606  0.46996 11.00000  0.01708   5.41
C03B  2  0.37278  0.59214  0.33408 11.00000  0.00010   5.35
C03C  2  0.68689  0.41360  0.26867 11.00000  0.00010   5.29
N03D  3 -0.30399  0.67074  0.64403 11.00000  0.10335   5.28
C03E  2  0.49392  0.20071  0.70947 11.00000  0.06170   5.19
C03F  2  0.29500  0.08276  0.77189 11.00000  0.08077   5.18
C03G  2  0.12635  0.38803  0.53028 11.00000  0.00010   5.07
C03H  2  0.42003  0.67920  0.27311 11.00000  0.00010   5.07
C03I  2  0.78878  0.43817  0.54853 11.00000  0.01392   5.06
C03J  2  1.10264  0.22754  0.44384 11.00000  0.00604   5.06
N03K  3  0.73845  0.59194  0.45359 11.00000  0.00816   5.04
C03L  2  0.70945  0.35405  0.42219 11.00000  0.00010   5.01
C03M  2  1.01548  0.97393  0.51976 11.00000  0.00386   5.01
C03N  2  0.09826  0.39486  0.72312 11.00000  0.00010   5.00
C03O  2  0.18413  0.28168  0.58329 11.00000  0.00010   5.00
C03P  2  0.63679  0.45922  0.32205 11.00000  0.05596   5.00
C03Q  2  0.59018  0.42189  0.50164 11.00000  0.00505   4.96
C03R  2  1.34401  0.09181  0.44111 11.00000  0.00010   4.83
N03S  3  0.67431 -0.10028  0.68183 11.00000  0.00867   4.80
O03T  4  0.38874  0.09842  0.72567 11.00000  0.04811   4.79
C03U  2  0.28855  0.88218  0.30408 11.00000  0.02527   4.79
C03V  2  0.05997  0.51655  0.56621 11.00000  0.00010   4.78
C03W  2  0.22039  0.40136  0.54304 11.00000  0.04559   4.76
C03X  2  1.31201  0.02405  0.49723 11.00000  0.00010   4.75
C03Y  2  0.61306  0.50708  0.39708 11.00000  0.00010   4.71
C03Z  2  1.20198  0.06386  0.45427 11.00000  0.02327   4.54
C040  2  0.00904  0.55538  0.67733 11.00000  0.00010   4.51
C041  2  0.93958  0.40384  0.31139 11.00000  0.04955   4.42
O042  4  0.79759  0.93033  0.39711 11.00000  0.03244   4.39
C043  2  0.49129  0.63358  0.21969 11.00000  0.00010   4.39
C044  2  1.14594  0.73286  0.45685 11.00000  0.00010   4.31
C045  2  0.46796  0.71881  0.34723 11.00000  0.00010   4.26
C046  2  0.68843  1.05681  0.46655 11.00000  0.03937   4.26
C047  2  0.80908 -0.01995  0.77501 11.00000  0.12152   4.25
C048  2  0.58147  0.35557  0.21161 11.00000  0.00010   4.23
C049  2  0.58387  0.62457  0.50115 11.00000  0.00010   4.19
C04A  2  0.66004 -0.00206  0.73404 11.00000  0.00785   4.13
C04B  2  0.26616  0.69115  0.51487 11.00000  0.08820   4.12
C04C  2  1.24228  0.88704  0.56990 11.00000  0.00597   4.12
C04D  2  0.13401  0.74223  0.29953 11.00000  0.01095   4.10
C04E  2  1.22017  0.94988  0.58786 11.00000  0.10847   3.99
C04F  2  0.15868  0.75124  0.33699 11.00000  0.00063   3.98
C04G  2  0.47472  0.28816  0.25342 11.00000  0.09650   3.87
C04H  2  0.81097  0.32653  0.26632 11.00000  0.08296   3.85
N04I  3  0.22203  0.30738  0.53469 11.00000  0.07067   3.83
C04J  2  0.67182  0.29101  0.33916 11.00000  0.00521   3.77
C04K  2  0.36826  0.64394  0.33419 11.00000  0.09193   3.77
C04L  2  0.62341  0.30915  0.45881 11.00000  0.01312   3.76
C04M  2  1.31581  0.71978  0.65168 11.00000  0.00010   3.58
C04N  2  0.79731  0.02032  0.32788 11.00000  0.03337   3.49
C04O  2  0.84819  0.98799  0.49823 11.00000  0.18336   3.48
C04P  2  0.91577  0.49625  0.45897 11.00000  0.01444   3.48
C04Q  2  0.71331  0.46402  0.22335 11.00000  0.07981   3.43
C04R  2  0.73210  0.97202  0.49076 11.00000  0.09749   3.38
C04S  2  1.11177  0.90983  0.48350 11.00000  0.00010   3.35
C04T  2  0.85756  0.63852  0.36422 11.00000  0.02126   3.32
C04U  2  0.41219  0.29482  0.48134 11.00000  0.00010   3.31
C04V  2  0.59832  0.55487  0.44076 11.00000  0.00960   3.29
C04W  2  1.31272  0.80690  0.60294 11.00000  0.00010   3.25
C04X  2  0.80175  1.02571  0.44685 11.00000  0.09295   3.23
C04Y  2  0.43324  0.70345  0.30557 11.00000  0.00010   3.12
C04Z  2  0.74576  0.29795  0.41253 11.00000  0.11764   3.10
C050  2  1.13258  0.85786  0.48805 11.00000  0.02175   3.01
HKLF 4
END
