TITL shelx03-merge_expF_1_1_expS_0_5_shelx03-merge_a.res in P1
REM Old TITL 1 in I 1 #-1
REM SHELXT solution in P1: R1 0.855, Rweak 0.038, Alpha 0.000
REM <I/s>   0.000 for    0 systematic absences,  Orientation as input
REM Flack x = -3.212 ( 0.183 ) from  1296 Parsons' quotients
REM Formula found by SHELXT:  C64 N35 O28

CELL  0.71073   9.3100  15.1100  30.5000   90.000   90.000   90.000
ZERR   52.000   0.0019   0.0030   0.0061    0.000    0.000    0.000
LATT -2
SFAC H C N O ZR
UNIT 20 20 20 20 20
L.S. 10
BOND
LIST 6
FMAP 2
PLAN 20
ZR01  5  0.61057  0.17179  0.36783 11.00000  0.09220  28.67
ZR02  5  0.76845  0.16955  0.37537 11.00000  0.05665  25.71
ZR03  5  0.50110  0.15366  0.36974 11.00000  0.05855  25.31
ZR04  5  0.39033  0.16659  0.37588 11.00000  0.06722  24.54
N005  3  0.90208  0.17098  0.37093 11.00000  0.04242  23.94
O006  4  0.92549  0.05563  0.31232 11.00000  0.25188  21.53
N007  3  0.24020  0.16177  0.65338 11.00000  0.00412  18.68
N008  3  0.28159  0.17799  0.66661 11.00000  0.12392  17.12
N009  3  0.82732  0.14128  0.35526 11.00000  0.09652  15.45
O00A  4  0.46713  0.20748  0.36903 11.00000  0.12177  15.32
O00B  4  0.95159  0.92929  0.52820 11.00000  0.07106  14.83
O00C  4  0.90005  0.21701  0.38767 11.00000  0.14705  14.12
O00D  4  0.01795  0.03630  0.71849 11.00000  0.10340  13.76
O00E  4 -0.17803  0.26698  0.73983 11.00000  0.05737  12.77
N00F  3  0.64269 -0.01711  0.31321 11.00000  0.01745  12.46
N00G  3  0.25222  0.17009  0.62328 11.00000  0.00430  12.26
C00H  2  0.84560  0.92811  0.49916 11.00000  0.06932  11.80
N00I  3  0.56716  0.21959  0.59335 11.00000  0.01272  11.18
N00J  3  0.46531  0.28333  0.56949 11.00000  0.02253  10.83
O00K  4  0.05891  0.31904  0.70667 11.00000  0.01481  10.48
N00L  3  0.51086  0.31283  0.60831 11.00000  0.03607  10.43
O00M  4  0.78892  0.31363  0.26682 11.00000  0.19642  10.32
O00N  4  0.08607  0.26728  0.67068 11.00000  0.10860  10.01
O00O  4  0.90328  0.30328  0.40945 11.00000  0.15183   9.97
N00P  3 -0.43757  0.34975  0.76019 11.00000  0.00010   9.96
O00Q  4  0.58176  0.17727  0.53926 11.00000  0.00020   9.78
N00R  3  1.09081  0.26843  0.41306 11.00000  0.02293   9.64
N00S  3 -0.02574  0.05442  0.70970 11.00000  0.01581   9.33
N00T  3  0.46565  0.25307  0.61125 11.00000  0.03070   9.32
O00U  4 -0.15754  0.41204  0.62329 11.00000  0.01862   9.21
O00V  4  0.65310  0.20157  0.23228 11.00000  0.16219   9.19
O00W  4  0.66214  0.20461  0.52291 11.00000  0.00951   9.17
O00X  4  1.26651  0.23764  0.45823 11.00000  0.07754   9.16
N00Y  3  1.09023  0.82054  0.39224 11.00000  0.17431   9.05
C00Z  2  0.35617  0.29148  0.57405 11.00000  0.10569   8.95
N010  3  1.04877  0.23710  0.49531 11.00000  0.04824   8.76
O011  4  0.64131  0.35717  0.42941 11.00000  0.20594   8.76
N012  3 -0.10822  0.05065  0.69961 11.00000  0.05912   8.65
O013  4  0.61900  0.01058  0.32180 11.00000  0.07465   8.64
O014  4  0.87574  0.27578  0.52208 11.00000  0.08083   8.64
N015  3  0.81306  0.21344  0.42918 11.00000  0.11216   8.63
N016  3  0.39333  0.13185  0.60812 11.00000  0.02998   8.61
O017  4  0.36756  0.44976  0.31902 11.00000  0.01849   8.50
O018  4  0.01462  0.31272  0.64053 11.00000  0.14554   8.45
C019  2  0.12601  0.26843  0.59170 11.00000  0.21347   8.39
N01A  3  0.74845  0.30951  0.23149 11.00000  0.17336   8.39
N01B  3  1.27358  1.01068  0.46369 11.00000  0.14333   8.25
C01C  2  1.05544  0.35915  0.45893 11.00000  0.00525   8.11
O01D  4  0.25475  0.21784  0.65223 11.00000  0.19475   7.90
O01E  4  1.13934  0.71688  0.54613 11.00000  0.13180   7.87
O01F  4  1.04533  0.66064  0.38869 11.00000  0.16680   7.83
O01G  4  0.03799  0.42848  0.64183 11.00000  0.00010   7.75
O01H  4 -0.28356  0.19603  0.69647 11.00000  0.00204   7.66
O01I  4  0.41908  0.65657  0.54230 11.00000  0.15527   7.63
O01J  4  0.41751  0.40104  0.67217 11.00000  0.00816   7.37
N01K  3  0.36330  0.20028  0.34702 11.00000  0.00010   7.03
N01L  3  0.84295  1.07560  0.55042 11.00000  0.00929   7.02
C01M  2  0.60155  0.20353  0.23812 11.00000  0.18594   7.02
N01N  3  0.97542  0.74769  0.57393 11.00000  0.02966   6.93
N01O  3  0.34109  0.02908  0.63574 11.00000  0.05369   6.92
C01P  2  0.67101 -0.07560  0.61372 11.00000  0.01363   6.87
N01Q  3  0.52000  0.29403  0.32191 11.00000  0.03213   6.84
N01R  3  0.27670 -0.05287  0.67165 11.00000  0.00148   6.80
N01S  3  0.58347  0.31341  0.60295 11.00000  0.14850   6.76
C01T  2  0.32912  0.08075  0.23212 11.00000  0.08941   6.68
N01U  3 -0.00262  0.21483  0.24132 11.00000  0.01496   6.65
N01V  3  1.13647  0.98785  0.42828 11.00000  0.04765   6.59
C01W  2  0.05023  0.08758  0.70907 11.00000  0.02988   6.38
C01X  2  0.74010 -0.01623  0.32641 11.00000  0.04913   6.34
C01Y  2  0.72938  0.47928  0.48248 11.00000  0.13456   6.33
N01Z  3  0.89243  0.48040  0.34384 11.00000  0.09515   6.32
C020  2  0.96541  0.46853  0.33089 11.00000  0.16451   6.18
C021  2  0.58625  0.51344  0.58988 11.00000  0.01683   6.14
C022  2  0.15069  0.17907  0.31805 11.00000  0.00252   5.96
C023  2  0.69311  0.74307  0.28751 11.00000  0.00390   5.72
N024  3  0.16091  0.14531  0.65820 11.00000  0.02730   5.70
C025  2  0.59021  0.42163  0.62738 11.00000  0.01704   5.69
C026  2  0.50180  0.58213  0.33488 11.00000  0.00680   5.69
C027  2  0.99636  0.85585  0.59389 11.00000  0.06383   5.68
C028  2  1.21859  0.23660  0.47940 11.00000  0.00010   5.64
C029  2  0.88469  0.66155  0.33910 11.00000  0.04646   5.60
C02A  2  0.40369  0.27542  0.21978 11.00000  0.00010   5.51
C02B  2 -0.28648  0.26867  0.76141 11.00000  0.02286   5.51
C02C  2  0.93739  0.51873  0.32710 11.00000  0.00010   5.49
C02D  2  0.59117  0.38097  0.59251 11.00000  0.02519   5.49
C02E  2  0.72371  0.52668  0.31640 11.00000  0.23035   5.49
C02F  2  0.24831  0.52955  0.35316 11.00000  0.00010   5.49
C02G  2 -0.45110  0.31131  0.81062 11.00000  0.01790   5.43
N02H  3  0.91367  0.62539  0.44411 11.00000  0.15400   5.37
C02I  2 -0.24459  0.16973  0.67172 11.00000  0.01258   5.30
C02J  2  0.74590  0.53917  0.49213 11.00000  0.21569   5.27
C02K  2  0.37632  0.58052  0.46517 11.00000  0.07541   5.25
C02L  2  1.48832  0.73819  0.39330 11.00000  0.16085   5.23
C02M  2 -0.48832  0.13399  0.69027 11.00000  0.01087   5.23
C02N  2  1.37115  0.90239  0.45887 11.00000  0.08555   5.23
C02O  2  0.49827  0.50632  0.58086 11.00000  0.00276   5.19
C02P  2  0.73765  0.71573  0.26869 11.00000  0.04503   5.11
C02Q  2  1.32939  1.06935  0.47108 11.00000  0.14517   5.02
C02R  2  0.70563  0.32581  0.49644 11.00000  0.02505   4.98
C02S  2  1.04774  0.48387  0.30680 11.00000  0.05159   4.88
C02T  2  0.94651  0.86637  0.57474 11.00000  0.13558   4.78
C02U  2  0.08739  0.33554  0.66034 11.00000  0.03521   4.74
C02V  2  0.72111 -0.05485  0.36182 11.00000  0.02244   4.69
C02W  2  1.03317  0.43666  0.19458 11.00000  0.05521   4.69
C02X  2  1.27631  0.31866  0.48791 11.00000  0.04055   4.65
C02Y  2  0.27266  0.02750  0.66687 11.00000  0.12642   4.52
C02Z  2  0.73395  0.68195  0.50191 11.00000  0.03273   4.50
C030  2  1.31942  0.75741  0.37264 11.00000  0.07409   4.44
C031  2 -0.06626  0.15599  0.66680 11.00000  0.11343   4.44
C032  2  0.83550 -0.04547  0.34020 11.00000  0.00010   4.34
C033  2  0.21481  0.25718  0.26180 11.00000  0.01244   4.18
C034  2  0.09471  0.13262  0.24735 11.00000  0.16498   4.17
C035  2  0.20669  0.09207  0.56936 11.00000  0.09291   4.15
N036  3  1.40137  0.99399  0.51297 11.00000  0.03100   3.98
C037  2  0.38499  0.16901  0.18938 11.00000  0.07352   3.92
C038  2  0.62804  0.29860  0.24374 11.00000  0.11765   3.91
C039  2  0.89275  0.40116  0.25748 11.00000  0.14712   3.85
C03A  2  1.28453  0.90659  0.52595 11.00000  0.13503   3.77
C03B  2  0.91367  0.51045  0.36788 11.00000  0.04003   3.75
C03C  2  0.14780  0.08137  0.58271 11.00000  0.01190   3.70
C03D  2  0.78067  0.25242  0.20815 11.00000  0.01389   3.64
C03E  2  1.03712  0.95291  0.46535 11.00000  0.05692   3.58
C03F  2  1.07023  0.81633  0.46272 11.00000  0.15446   3.54
C03G  2  1.31624  0.90084  0.34320 11.00000  0.03971   3.54
C03H  2  1.10796  0.95929  0.52111 11.00000  0.14554   3.51
C03I  2  0.48429 -0.00437  0.62532 11.00000  0.02261   3.41
N03J  3  0.98409  0.47442  0.21577 11.00000  0.14811   3.39
O03K  4  0.28322  0.51352  0.55498 11.00000  0.12719   3.25
C03L  2 -0.04144  0.13803  0.69414 11.00000  0.21111   3.24
N03M  3  0.58690  0.71324  0.55500 11.00000  0.17658   3.06
C03N  2  0.65504  0.44036  0.67728 11.00000  0.00613   3.05
HKLF 4
END
