TITL shelx03-merge_expF_1_3_expS_1_5_shelx03-merge_a.res in P1
REM Old TITL 1 in I 1 #-1
REM SHELXT solution in P1: R1 0.857, Rweak 0.170, Alpha 0.000
REM <I/s>   0.000 for    0 systematic absences,  Orientation as input
REM Flack x = -6.948 ( 0.480 ) from   261 Parsons' quotients
REM Formula found by SHELXT:  C41 N21 O23

CELL  0.71073   9.3100  15.1100  30.5000   90.000   90.000   90.000
ZERR   52.000   0.0019   0.0030   0.0061    0.000    0.000    0.000
LATT -2
SFAC H C N O ZR CL
UNIT 20 20 20 20 20 0
L.S. 10
BOND
LIST 6
FMAP 2
PLAN 20
CL01  6  0.22927  0.27013  0.61843 11.00000  0.00719  16.82
CL02  6 -0.34119  0.24541  0.73204 11.00000  0.05116  16.35
CL03  6 -0.28230  0.25327  0.61115 11.00000  0.03558  15.63
CL04  6  0.05333  0.24768  0.61777 11.00000  0.06311  14.13
CL05  6 -0.45201  0.27083  0.74093 11.00000  0.05153  14.11
C006  2  1.02557  0.27627  0.31456 11.00000  0.00010  13.73
CL07  6  0.71344  0.23190  0.30360 11.00000  0.02690  13.73
CL08  6  0.21780  0.34939  0.62049 11.00000  0.03180  13.59
CL09  6  0.36971  0.27562  0.61178 11.00000  0.01056  13.52
CL0A  6  0.86364  0.33025  0.31709 11.00000  0.09471  12.93
N00B  3  0.92854  0.36604  0.33746 11.00000  0.04927  12.08
C00C  2  0.70296  0.44634  0.50541 11.00000  0.00258  11.59
O00D  4  0.22731  0.35678  0.58805 11.00000  0.01188  11.23
O00E  4 -0.20107  0.24002  0.72064 11.00000  0.04762  11.00
O00F  4  0.81107  0.18802  0.31060 11.00000  0.02057  10.29
O00G  4  0.43486  0.25605  0.55342 11.00000  0.00010  10.21
N00H  3  1.26363  0.22287  0.40345 11.00000  0.00010  10.04
N00I  3  0.36894  0.26464  0.57974 11.00000  0.00342  10.01
O00J  4  1.18935  0.25507  0.33135 11.00000  0.05571   9.96
O00K  4  1.00669  0.52831  0.36873 11.00000  0.04687   9.90
O00L  4  1.43598  0.15716  0.38459 11.00000  0.03247   9.88
O00M  4  1.13565  0.25031  0.41411 11.00000  0.00434   9.88
O00N  4  1.40844  0.39666  0.35022 11.00000  0.03181   9.78
C00O  2 -0.12742  0.27777  0.72420 11.00000  0.00924   9.72
O00P  4  1.35919  0.33192  0.40184 11.00000  0.01853   9.38
O00Q  4  1.13472  0.42463  0.44163 11.00000  0.03858   9.37
N00R  3  0.19730  0.23659  0.73880 11.00000  0.03837   9.22
N00S  3  0.46883  0.25681  0.61425 11.00000  0.00519   9.22
O00T  4 -0.16331  0.26789  0.61244 11.00000  0.00046   8.94
C00U  2  0.89289  0.67855  0.56195 11.00000  0.00010   8.91
O00V  4  0.14420  0.74910  0.44401 11.00000  0.02054   8.31
N00W  3  1.03062  0.41573  0.44646 11.00000  0.00010   8.25
O00X  4  0.23033  0.25549  0.75517 11.00000  0.06650   8.17
O00Y  4  0.22638  0.18444  0.62705 11.00000  0.00010   8.12
N00Z  3  0.52293  0.61700  0.51346 11.00000  0.01296   8.12
C010  2 -0.08852  1.00425  0.29836 11.00000  0.00016   8.07
O011  4  0.72226  0.40080  0.50554 11.00000  0.00010   8.06
C012  2  0.04050  0.23088  0.72514 11.00000  0.07844   7.83
O013  4  0.35710  0.18025  0.74080 11.00000  0.02496   7.78
C014  2  0.36327  0.53187  0.58050 11.00000  0.00010   7.68
O015  4 -0.10994  0.39835  0.66201 11.00000  0.00010   7.64
O016  4  1.55675  0.35614  0.35524 11.00000  0.02433   7.52
O017  4  1.54906  0.22468  0.40564 11.00000  0.02995   7.40
N018  3  0.10113  0.47901  0.59285 11.00000  0.00010   7.38
N019  3  1.47088  0.34265  0.34996 11.00000  0.00318   7.35
N01A  3  0.35241  0.65492  0.49199 11.00000  0.04929   7.32
N01B  3  0.82890  0.41141  0.24755 11.00000  0.01396   7.11
N01C  3  1.00075  0.36614  0.26083 11.00000  0.03268   7.04
N01D  3 -0.58637  0.37152  0.69111 11.00000  0.09555   6.97
C01E  2  0.20224  0.57617  0.57270 11.00000  0.00010   6.86
N01F  3  1.18863  0.41253  0.27561 11.00000  0.04489   6.76
C01G  2  0.79871  0.45276  0.29844 11.00000  0.07102   6.45
C01H  2  0.43178  0.79553  0.49408 11.00000  0.01180   6.16
N01I  3  0.72663  0.66546  0.52871 11.00000  0.00010   6.14
C01J  2  1.10559  0.45764  0.40688 11.00000  0.00010   6.11
C01K  2  0.43531  0.54763  0.55748 11.00000  0.01815   6.04
C01L  2  0.53254  0.51447  0.48656 11.00000  0.00989   5.81
C01M  2  1.49581  0.27171  0.33481 11.00000  0.03576   5.67
C01N  2  1.17808  0.46013  0.25412 11.00000  0.00010   5.64
C01O  2  0.01090  0.54357  0.61081 11.00000  0.00660   5.64
C01P  2  1.05010  0.38028  0.38682 11.00000  0.02243   5.35
C01Q  2  0.17024  0.49863  0.60704 11.00000  0.00749   5.22
C01R  2  0.32047  0.83494  0.46741 11.00000  0.03105   5.05
N01S  3  0.31670  0.57682  0.56070 11.00000  0.01041   5.03
C01T  2  0.11530  0.98827  0.31466 11.00000  0.00010   4.96
C01U  2  1.29537  0.29226  0.34197 11.00000  0.00010   4.95
C01V  2  0.75362  0.43910  0.26788 11.00000  0.02163   4.93
C01W  2  0.67619  0.76560  0.48401 11.00000  0.00010   4.93
C01X  2  0.64134  0.60106  0.52903 11.00000  0.03081   4.91
O01Y  4  0.41114  0.95474  0.55749 11.00000  0.04867   4.88
C01Z  2  1.04826  0.25742  0.53173 11.00000  0.06534   4.73
N020  3  0.18108  0.66043  0.57750 11.00000  0.03975   4.73
C021  2  0.51680  0.47141  0.58634 11.00000  0.05963   4.68
N022  3 -0.12738  0.90583  0.32299 11.00000  0.02697   4.61
C023  2 -0.55645  0.41768  0.68622 11.00000  0.01173   4.49
C024  2  0.96884  0.46417  0.45533 11.00000  0.00010   4.45
C025  2  0.35461  0.59976  0.51064 11.00000  0.03611   4.23
C026  2  0.37155  0.73429  0.45105 11.00000  0.02127   4.17
C027  2  0.95438  0.23765  0.45876 11.00000  0.01859   3.96
C028  2  0.86433  0.43986  0.45274 11.00000  0.00295   3.90
C029  2  0.61192  0.66725  0.52646 11.00000  0.00122   3.90
N02A  3  0.01087  0.78074  0.37212 11.00000  0.03630   3.90
C02B  2  1.15676  0.59296  0.34324 11.00000  0.00793   3.88
O02C  4  1.04912  0.52795  0.24483 11.00000  0.00010   3.86
N02D  3  1.49244  0.04163  0.33142 11.00000  0.00010   3.84
O02E  4  0.07957  0.71657  0.57547 11.00000  0.00632   3.59
C02F  2  0.44369  1.00209  0.56589 11.00000  0.02592   3.57
C02G  2 -0.15550  0.39408  0.65755 11.00000  0.03718   3.53
C02H  2  1.58637 -0.00425  0.36930 11.00000  0.08642   3.49
C02I  2 -0.08033  0.86644  0.51904 11.00000  0.00010   3.30
N02J  3 -0.11588  0.09369  0.67212 11.00000  0.00397   3.25
C02K  2 -0.21893  0.38763  0.60155 11.00000  0.00010   3.04
C02L  2  0.15129  0.92867  0.48267 11.00000  0.01129   3.02
C02M  2  0.78641  0.23363  0.47658 11.00000  0.00130   3.02
HKLF 4
END
