TITL shelx03-merge_expF_1_1_expS_1_2_shelx03-merge_a.res in P1
REM Old TITL 1 in I 1 #-1
REM SHELXT solution in P1: R1 0.749, Rweak 0.251, Alpha 0.000
REM <I/s>   0.000 for    0 systematic absences,  Orientation as input
REM Flack x = -6.726 ( 0.882 ) from   452 Parsons' quotients
REM Formula found by SHELXT:  C77 N13 O12

CELL  0.71073   9.3100  15.1100  30.5000   90.000   90.000   90.000
ZERR   52.000   0.0019   0.0030   0.0061    0.000    0.000    0.000
LATT -2
SFAC H C N O ZR CL
UNIT 20 20 20 20 20 0
L.S. 10
BOND
LIST 6
FMAP 2
PLAN 20
CL01  6  0.60529  0.26044  0.60887 11.00000  0.03540  16.65
CL02  6  0.30807  0.25770  0.60989 11.00000  0.07355  16.61
CL03  6  0.44068  0.28082  0.60981 11.00000  0.08026  16.18
CL04  6  0.71478  0.27967  0.60975 11.00000  0.04167  16.01
CL05  6  0.83234  0.26929  0.60737 11.00000  0.10021  13.53
C006  2  1.32648  0.34661  0.26760 11.00000  0.02044  12.26
N007  3  0.26567  0.45304  0.47664 11.00000  0.04332  10.28
N008  3  0.04002  0.40624  0.67951 11.00000  0.00023   9.01
O009  4  0.37056  0.31466  0.46631 11.00000  0.04671   8.97
C00A  2  0.31882  0.36703  0.46295 11.00000  0.00310   8.93
O00B  4  0.45507  0.46177  0.40742 11.00000  0.01304   8.66
C00C  2  0.65751  0.43727  0.38173 11.00000  0.01523   8.38
O00D  4  1.45742  0.29225  0.27156 11.00000  0.06958   8.15
C00E  2  0.08660  0.50724  0.45864 11.00000  0.03154   8.04
O00F  4  0.29268  0.56778  0.59746 11.00000  0.00274   8.03
O00G  4  1.08474  0.26364  0.60722 11.00000  0.02358   7.97
N00H  3  0.77369  0.22438  0.35521 11.00000  0.06846   7.70
O00I  4  0.27763  0.26770  0.71773 11.00000  0.04238   7.69
C00J  2  0.45481  0.40380  0.66090 11.00000  0.03229   7.48
N00K  3  1.17046  0.43156  0.25941 11.00000  0.00085   7.44
N00L  3  0.59138  0.69195  0.54197 11.00000  0.00010   7.42
C00M  2  0.97572  0.24495  0.57975 11.00000  0.00010   7.30
N00N  3  0.27063  0.41954  0.66040 11.00000  0.00740   7.02
C00O  2  0.40979  0.51696  0.60993 11.00000  0.01872   7.01
C00P  2  0.06329  0.63260  0.52795 11.00000  0.03551   6.79
N00Q  3  1.01738  0.28370  0.53510 11.00000  0.05616   6.54
N00R  3  0.66217  0.40882  0.38540 11.00000  0.00830   6.27
O00S  4  0.05933  0.21611  0.73339 11.00000  0.03005   6.25
C00T  2 -0.45742  0.28138  0.72165 11.00000  0.02002   6.16
O00U  4  0.09431  0.59424  0.50796 11.00000  0.07699   6.12
C00V  2  0.57796  0.27762  0.36551 11.00000  0.08057   6.05
C00W  2  0.93286  0.32402  0.36397 11.00000  0.03072   6.01
C00X  2  0.05110  0.34625  0.68139 11.00000  0.00639   5.95
N00Y  3  0.00718  0.54659  0.46442 11.00000  0.02313   5.90
O00Z  4  0.79210  0.59627  0.55868 11.00000  0.04747   5.87
C010  2 -0.07548  0.75433  0.51007 11.00000  0.00010   5.87
C011  2  0.84323  0.27896  0.32386 11.00000  0.00010   5.86
C012  2  0.41636  0.62515  0.55088 11.00000  0.03159   5.84
C013  2  0.79719  0.02438  0.30484 11.00000  0.00072   5.83
N014  3  0.55289  0.39779  0.66199 11.00000  0.00841   5.83
C015  2  0.70388  0.75290  0.43004 11.00000  0.05698   5.77
C016  2  0.69245  0.35750  0.29847 11.00000  0.00973   5.73
C017  2  0.41289  0.86161  0.65382 11.00000  0.01765   5.70
C018  2  0.81506  0.81708  0.44239 11.00000  0.10890   5.67
C019  2  1.27973  0.53599  0.28787 11.00000  0.05904   5.56
C01A  2 -0.02099  0.51338  0.67358 11.00000  0.00359   5.55
O01B  4  0.46871  0.53466  0.68060 11.00000  0.03525   5.44
C01C  2  0.90001  0.38191  0.35867 11.00000  0.00010   5.39
C01D  2  0.93439  0.26353  0.33049 11.00000  0.02888   5.37
C01E  2  0.19129  0.38718  0.68496 11.00000  0.02689   5.30
C01F  2  0.58527  0.54423  0.34375 11.00000  0.01641   5.25
C01G  2  0.53476  0.23110  0.43176 11.00000  0.01775   5.24
C01H  2  0.64455  0.59269  0.60775 11.00000  0.00030   5.17
C01I  2  0.51770  0.71324  0.40835 11.00000  0.02220   5.15
C01J  2  0.58569  0.42302  0.55403 11.00000  0.05701   5.13
C01K  2  0.04034  0.49989  0.63683 11.00000  0.02229   5.10
C01L  2  1.02335  0.23797  0.38960 11.00000  0.02714   5.09
C01M  2  0.13017  0.28830  0.45157 11.00000  0.02094   4.98
C01N  2  0.89683  0.33913  0.49897 11.00000  0.00416   4.93
C01O  2  0.84199  0.36924  0.31908 11.00000  0.00010   4.92
C01P  2  0.22379  0.59334  0.40203 11.00000  0.00010   4.89
C01Q  2  0.44820  0.69741  0.65586 11.00000  0.07003   4.88
C01R  2  0.47734  0.39257  0.56960 11.00000  0.00021   4.84
C01S  2  0.32829  0.36272  0.40345 11.00000  0.09984   4.64
C01T  2  0.71248  0.57415  0.57122 11.00000  0.04518   4.57
C01U  2  1.16035  0.17206  0.38947 11.00000  0.04565   4.50
C01V  2  0.67354  0.78980  0.39103 11.00000  0.06655   4.34
C01W  2 -0.13686  0.25713  0.72466 11.00000  0.03967   4.34
C01X  2  0.80645  0.37186  0.38099 11.00000  0.00088   4.33
C01Y  2  0.94818  0.52242  0.37699 11.00000  0.00010   4.27
C01Z  2 -0.17571  0.48282  0.47944 11.00000  0.11862   4.27
C020  2  0.80815  0.43056  0.32087 11.00000  0.04439   4.26
C021  2  0.84971  0.16442  0.35727 11.00000  0.03598   4.25
C022  2  0.95346  0.18410  0.37414 11.00000  0.02361   4.23
C023  2  0.46425  0.56208  0.56437 11.00000  0.02491   4.17
C024  2  0.45646  0.78061  0.41936 11.00000  0.00072   4.16
C025  2  0.36481  0.64768  0.47312 11.00000  0.00010   4.12
O026  4  0.54824  0.61677  0.38805 11.00000  0.05933   4.11
C027  2 -0.33956  0.28636  0.74059 11.00000  0.09928   4.10
C028  2  0.91924  0.27145  0.55161 11.00000  0.01306   4.10
N029  3  0.05968  0.98957  0.70198 11.00000  0.05279   4.08
C02A  2  0.57675  0.17933  0.33123 11.00000  0.03176   4.01
N02B  3  0.81501  0.41389  0.36655 11.00000  0.00010   3.93
C02C  2  0.58575  0.58177  0.53331 11.00000  0.05268   3.86
C02D  2  1.13503  0.28492  0.54402 11.00000  0.00010   3.79
C02E  2  0.23643  0.35483  0.46743 11.00000  0.00580   3.77
C02F  2  1.05204  0.21061  0.57180 11.00000  0.00238   3.73
C02G  2  0.35432  0.59032  0.36985 11.00000  0.10531   3.70
C02H  2  0.55759  0.90739  0.37599 11.00000  0.00254   3.69
C02I  2  0.91247  0.27814  0.36992 11.00000  0.03622   3.66
C02J  2  0.07119  0.62836  0.40612 11.00000  0.05351   3.66
C02K  2  0.42592  0.44331  0.54744 11.00000  0.00788   3.63
C02L  2  0.24958  0.58025  0.48610 11.00000  0.02708   3.49
C02M  2  0.18828  0.45243  0.41299 11.00000  0.00010   3.38
C02N  2  1.10243  0.39785  0.53066 11.00000  0.06074   3.36
C02O  2  1.19370  0.12832  0.32886 11.00000  0.04806   3.34
C02P  2  0.46490  0.73388  0.54770 11.00000  0.01264   3.33
C02Q  2 -0.10770  0.35138  0.68724 11.00000  0.03157   3.33
C02R  2  0.35257  0.67469  0.40424 11.00000  0.01529   3.29
C02S  2  0.98258  0.07713  0.37439 11.00000  0.00010   3.22
C02T  2  0.38682  0.52325  0.69986 11.00000  0.00655   3.20
O02U  4  0.24915  0.78514  0.65966 11.00000  0.02022   3.14
C02V  2  0.27271  0.82859  0.64975 11.00000  0.00010   3.12
C02W  2  1.05360 -0.00129  0.35954 11.00000  0.03239   3.04
N02X  3  0.48750  1.00129  0.45417 11.00000  0.00010   3.02
C02Y  2  0.05023  0.57520  0.57456 11.00000  0.00010   3.01
C02Z  2  1.29491  0.21050  0.30341 11.00000  0.03208   3.01
HKLF 4
END
