TITL shelx03-merge_expF_1_2_expS_0_8_shelx03-merge_a.res in P1
REM Old TITL 1 in I 1 #-1
REM SHELXT solution in P1: R1 0.802, Rweak 0.217, Alpha 0.000
REM <I/s>   0.000 for    0 systematic absences,  Orientation as input
REM Flack x = -9.990 ( 0.555 ) from  1041 Parsons' quotients
REM Formula found by SHELXT:  C53 N24 O27

CELL  0.71073   9.3100  15.1100  30.5000   90.000   90.000   90.000
ZERR   52.000   0.0019   0.0030   0.0061    0.000    0.000    0.000
LATT -2
SFAC H C N O ZR CL
UNIT 20 20 20 20 20 0
L.S. 10
BOND
LIST 6
FMAP 2
PLAN 20
CL01  6  1.19758  0.54765  0.40649 11.00000  0.06005  20.30
CL02  6  0.73506  0.55342  0.40733 11.00000  0.05739  18.43
CL03  6  0.39943  0.54918  0.40842 11.00000  0.06699  15.34
CL04  6  0.23818  0.43808  0.69652 11.00000  0.06753  14.48
CL05  6  0.60778  0.55080  0.41441 11.00000  0.04567  14.40
CL06  6  0.44450  0.59571  0.42611 11.00000  0.05833  14.37
CL07  6  0.69766  0.44915  0.38439 11.00000  0.04800  13.37
CL08  6  0.34115  0.46460  0.43393 11.00000  0.04260  12.79
CL09  6  0.82544  0.44778  0.38020 11.00000  0.06012  12.55
O00A  4  0.29141  0.26656  0.45817 11.00000  0.03589  12.45
O00B  4 -0.32399  0.51000  0.71898 11.00000  0.01920  12.33
O00C  4  0.15356  0.76823  0.69411 11.00000  0.02765  12.30
O00D  4  1.00862  0.55341  0.41432 11.00000  0.04624  12.06
N00E  3 -0.15725  0.42203  0.73332 11.00000  0.00055  11.95
O00F  4  0.27503  0.73498  0.69574 11.00000  0.00010  11.82
O00G  4 -0.22105  0.53010  0.52092 11.00000  0.02455  11.30
O00H  4  0.09738  0.47211  0.69910 11.00000  0.04266  11.22
O00I  4 -0.21341  0.47886  0.73466 11.00000  0.10155  11.18
O00J  4  0.11466  0.53086  0.64487 11.00000  0.04432  10.96
O00K  4  1.31784  0.56344  0.28766 11.00000  0.05780  10.90
O00L  4 -0.15537  0.44576  0.53990 11.00000  0.03597  10.89
O00M  4  0.06205  0.69988  0.68974 11.00000  0.00695  10.52
C00N  2  0.14119  0.24046  0.47440 11.00000  0.02618  10.52
O00O  4  0.38756  0.70426  0.70227 11.00000  0.00778  10.38
C00P  2  1.18262  0.61392  0.28726 11.00000  0.02030  10.26
O00Q  4 -0.17231  0.62260  0.73653 11.00000  0.01783  10.03
O00R  4  0.32328  0.61105  0.64652 11.00000  0.02657   9.98
N00S  3  0.01129  0.78883  0.69013 11.00000  0.00010   9.85
N00T  3  0.29967  0.53155  0.64169 11.00000  0.05942   9.65
C00U  2  0.41827  0.27705  0.64471 11.00000  0.01695   9.58
O00V  4 -0.24971  0.44598  0.55801 11.00000  0.03935   8.86
O00W  4  0.29976  0.70023  0.41581 11.00000  0.09719   8.79
O00X  4  1.03236  0.56576  0.29783 11.00000  0.03335   8.78
O00Y  4  0.25698  0.36289  0.70404 11.00000  0.00082   8.58
O00Z  4  0.06333  0.43137  0.52059 11.00000  0.01652   8.44
N010  3  0.41155  0.55388  0.64090 11.00000  0.02840   8.36
N011  3  0.22820  0.48441  0.63530 11.00000  0.02890   8.33
N012  3  1.18022  0.58349  0.46320 11.00000  0.00010   7.98
O013  4  0.29582  0.29526  0.64861 11.00000  0.01039   7.61
O014  4  0.73451  0.26012  0.58492 11.00000  0.04178   7.59
N015  3  0.49258  0.43494  0.42669 11.00000  0.02418   7.56
N016  3  0.35903  0.47412  0.38903 11.00000  0.04547   7.27
N017  3  0.08684  0.18117  0.51141 11.00000  0.08566   7.17
O018  4 -0.71587  0.06910  0.57242 11.00000  0.03948   7.07
N019  3  0.47297  0.46732  0.70274 11.00000  0.01445   7.00
N01A  3  0.82244  0.19654  0.57880 11.00000  0.02354   6.99
N01B  3  0.45043  0.76986  0.69186 11.00000  0.01526   6.83
N01C  3  0.47494  0.35966  0.45779 11.00000  0.00653   6.68
N01D  3  0.19025  0.24703  0.56220 11.00000  0.01125   6.53
N01E  3  0.57250  0.26081  0.60503 11.00000  0.02131   6.52
N01F  3 -0.47412  0.10275  0.62971 11.00000  0.01022   6.51
N01G  3  0.44288  0.55113  0.14389 11.00000  0.05612   6.49
C01H  2  0.71421  0.58427  0.21999 11.00000  0.01445   6.48
C01I  2  0.01476  0.21446  0.85611 11.00000  0.00883   6.25
C01J  2 -0.10965  0.30494  0.77283 11.00000  0.00296   6.11
C01K  2  1.44928  0.56918  0.49234 11.00000  0.00645   6.02
C01L  2 -0.33670  0.05613  0.62155 11.00000  0.00010   5.90
N01M  3 -0.19483  0.67314  0.73675 11.00000  0.01059   5.84
C01N  2  0.92653  0.70547  0.47389 11.00000  0.01830   5.80
C01O  2 -0.27597  0.05666  0.57619 11.00000  0.02588   5.75
C01P  2 -0.01035  0.39761  0.72179 11.00000  0.02508   5.69
C01Q  2  1.39560  0.41106  0.27174 11.00000  0.05430   5.57
C01R  2  0.76042  0.04749  0.34391 11.00000  0.00010   5.56
C01S  2  0.05120  0.09689  0.84604 11.00000  0.02517   5.50
C01T  2  0.72471  0.06758  0.44082 11.00000  0.00010   5.37
O01U  4 -0.02671  0.73887  0.68778 11.00000  0.04124   5.28
C01V  2 -0.14810  0.70845  0.36453 11.00000  0.01185   5.21
C01W  2  0.32737  0.29005  0.77097 11.00000  0.02743   5.16
C01X  2  0.07934  0.05150  0.51400 11.00000  0.02156   5.11
O01Y  4  1.65815  0.75013  0.53748 11.00000  0.01821   5.03
C01Z  2  0.84777  0.00679  0.33906 11.00000  0.00010   5.02
C020  2  0.20548  0.77129  0.36530 11.00000  0.00010   5.01
C021  2 -0.30780  0.72473  0.72351 11.00000  0.00692   4.99
C022  2  0.86693  0.51518  0.25567 11.00000  0.01103   4.96
C023  2  1.09485  0.64091  0.46438 11.00000  0.02605   4.88
C024  2  0.48250  0.55699  0.22138 11.00000  0.01496   4.81
C025  2  0.62961  0.24435  0.45733 11.00000  0.00044   4.79
O026  4  1.59458  0.63928  0.50193 11.00000  0.00039   4.68
C027  2 -0.06813  0.00443  0.56574 11.00000  0.06386   4.66
C028  2  0.54619  0.30771  0.45079 11.00000  0.00216   4.65
C029  2  0.08463  0.28117  0.73369 11.00000  0.06394   4.52
C02A  2  1.02125  0.42828  0.29073 11.00000  0.00010   4.52
C02B  2  1.31692  0.59614  0.48618 11.00000  0.02854   4.51
C02C  2  0.55329  0.30025  0.64338 11.00000  0.03701   4.47
C02D  2 -0.06786  0.53925  0.65929 11.00000  0.00010   4.45
C02E  2  0.30609  0.43112  0.35327 11.00000  0.00026   4.42
C02F  2  0.77749  0.05739  0.37496 11.00000  0.03860   4.29
C02G  2  0.57135  0.79323  0.65414 11.00000  0.00251   4.21
C02H  2  0.04329  0.51494  0.52953 11.00000  0.00010   4.19
C02I  2 -0.46836 -0.04956  0.60525 11.00000  0.03585   4.15
N02J  3  0.03329  0.28718  0.64637 11.00000  0.02539   4.10
C02K  2  0.51574  0.53651  0.65354 11.00000  0.02198   4.08
O02L  4  0.05853  0.27692  0.85110 11.00000  0.02014   3.85
C02M  2 -0.59439  0.03673  0.55299 11.00000  0.00010   3.80
C02N  2  1.50376  0.86454  0.49665 11.00000  0.00410   3.75
C02O  2  1.71587  0.69959  0.54833 11.00000  0.02504   3.69
C02P  2  1.43231  0.69084  0.47556 11.00000  0.02270   3.68
C02Q  2  0.58959  0.27950  0.77546 11.00000  0.00866   3.57
C02R  2  0.96785  0.40457  0.35052 11.00000  0.01521   3.57
C02S  2  0.14488  0.28619  0.55752 11.00000  0.00836   3.56
C02T  2  0.03771  0.19751  0.54218 11.00000  0.05595   3.52
C02U  2  0.11891  0.58717  0.75043 11.00000  0.03583   3.44
N02V  3  1.19693  0.99735  0.35011 11.00000  0.07355   3.41
N02W  3  1.04287  0.64584  0.49152 11.00000  0.05658   3.40
C02X  2  1.69132  0.60440  0.59155 11.00000  0.05202   3.38
C02Y  2  0.04976  0.27499  0.78185 11.00000  0.02898   3.37
N02Z  3  1.32541  1.04956  0.44114 11.00000  0.02707   3.34
N030  3 -0.01826  0.69313  0.35966 11.00000  0.01421   3.29
N031  3  1.54365  0.93388  0.47104 11.00000  0.02619   3.27
C032  2  1.09249  0.46041  0.37910 11.00000  0.01161   3.23
C033  2  0.23822  0.38746  0.59573 11.00000  0.01669   3.18
C034  2  0.78424  0.20276  0.44576 11.00000  0.06273   3.18
C035  2  0.15051  0.43374  0.57722 11.00000  0.03421   3.13
HKLF 4
END
