TITL shelx03-merge_expF_1_0_expS_0_5_shelx03-merge_a.res in P1
REM Old TITL 1 in I 1 #-1
REM SHELXT solution in P1: R1 0.755, Rweak 0.053, Alpha 0.000
REM <I/s>   0.000 for    0 systematic absences,  Orientation as input
REM Flack x = -8.560 ( 0.381 ) from  1348 Parsons' quotients
REM Formula found by SHELXT:  C57 N27 O15

CELL  0.71073   9.3100  15.1100  30.5000   90.000   90.000   90.000
ZERR   52.000   0.0019   0.0030   0.0061    0.000    0.000    0.000
LATT -2
SFAC H C N O ZR CL
UNIT 20 20 20 20 20 0
L.S. 10
BOND
LIST 6
FMAP 2
PLAN 20
CL01  6  0.46622  0.22339  0.39608 11.00000  0.04376  17.29
CL02  6  0.54910  0.23293  0.39178 11.00000  0.04987  16.77
CL03  6  0.81400  0.21407  0.39122 11.00000  0.04982  15.00
CL04  6  0.42787  0.23252  0.51145 11.00000  0.09446  14.55
CL05  6  0.09610  0.22924  0.38992 11.00000  0.06592  13.49
N006  3  0.22887  0.22094  0.39220 11.00000  0.00071  12.39
N007  3  0.66859  0.09970  0.57137 11.00000  0.00919  11.91
N008  3  0.76973  0.22706  0.55627 11.00000  0.04050  11.33
N009  3 -0.15073  0.20251  0.49255 11.00000  0.00522  11.17
O00A  4  0.62578  0.20424  0.39638 11.00000  0.05214  10.88
N00B  3  0.06690  0.09270  0.50506 11.00000  0.01619  10.68
O00C  4  0.62530  0.30145  0.56229 11.00000  0.11436  10.04
O00D  4  0.73923  0.06099  0.55315 11.00000  0.06192   9.77
O00E  4  0.89980  0.24619  0.39127 11.00000  0.05720   9.27
O00F  4  0.63025  0.09229  0.45007 11.00000  0.09498   9.21
N00G  3  0.97556  0.18511  0.57047 11.00000  0.06345   9.13
O00H  4  0.54134  0.14799  0.53010 11.00000  0.07210   9.08
O00I  4  0.80265  0.74380  0.61751 11.00000  0.00777   8.52
O00J  4  0.21942  0.24992  0.65176 11.00000  0.03211   8.46
N00K  3  0.26814  0.26747  0.42090 11.00000  0.00010   8.41
N00L  3  0.17168  0.07909  0.44790 11.00000  0.03199   8.37
O00M  4  0.37299  0.21642  0.64262 11.00000  0.05154   8.17
N00N  3  0.71510  0.12054  0.55249 11.00000  0.01907   8.11
N00O  3 -0.10433  0.65822  0.32500 11.00000  0.09343   8.01
N00P  3  0.65317  0.59267  0.59890 11.00000  0.02600   7.92
N00Q  3  0.16164  0.31697  0.41589 11.00000  0.06467   7.78
C00R  2  0.60120  0.62191  0.61584 11.00000  0.03630   7.73
C00S  2  0.31574  0.74622  0.56773 11.00000  0.02570   7.61
O00T  4 -0.03119  0.04079  0.50111 11.00000  0.05750   7.56
C00U  2  0.35279  0.03632  0.43270 11.00000  0.02183   7.55
O00V  4  0.94669  0.70494  0.68314 11.00000  0.07296   7.54
C00W  2  0.39917  0.19970  0.39837 11.00000  0.02622   7.49
N00X  3  0.54999  0.05145  0.45786 11.00000  0.00713   7.25
N00Y  3  0.43214  0.20872  0.61904 11.00000  0.01301   7.15
C00Z  2  0.62061  0.71275  0.60453 11.00000  0.00936   7.08
N010  3 -0.04823  0.93222  0.55724 11.00000  0.04782   7.05
N011  3  0.29471  1.09395  0.51289 11.00000  0.01446   6.94
N012  3  0.05504  0.65016  0.31770 11.00000  0.09404   6.94
N013  3 -0.40373  0.60952  0.35222 11.00000  0.01656   6.70
N014  3  0.61439  0.85416  0.60179 11.00000  0.10187   6.57
N015  3 -0.00883 -0.04710  0.37514 11.00000  0.06303   6.55
C016  2  0.03492  0.25281  0.49863 11.00000  0.01187   6.26
C017  2 -0.08037  0.59664  0.31264 11.00000  0.00298   6.22
N018  3  0.76068  0.53236  0.61379 11.00000  0.09863   6.12
C019  2  0.07233  0.05386  0.51250 11.00000  0.01033   6.05
C01A  2  0.16706  0.66103  0.71598 11.00000  0.03528   5.92
C01B  2  0.30485  0.71169  0.69016 11.00000  0.06994   5.90
C01C  2  0.68037 -0.02152  0.42459 11.00000  0.04415   5.84
C01D  2  0.63452  0.41432  0.56625 11.00000  0.01709   5.75
C01E  2  0.24712  0.42668  0.42816 11.00000  0.03181   5.62
N01F  3  0.40115  0.61877  0.55804 11.00000  0.08647   5.36
C01G  2  0.69581  0.82358  0.59895 11.00000  0.02192   5.33
O01H  4  1.53712  0.50912  0.68331 11.00000  0.01231   5.32
C01I  2  0.12933  0.20765  0.47260 11.00000  0.02150   5.31
C01J  2  0.14135  0.16814  0.39990 11.00000  0.15319   5.24
C01K  2  0.56319  0.30028  0.59156 11.00000  0.08427   5.24
C01L  2  0.00352  0.66475  0.37295 11.00000  0.07064   5.14
C01M  2  0.85069  0.66666  0.67022 11.00000  0.03500   5.09
C01N  2  0.42311  0.26893  0.62734 11.00000  0.01024   4.99
O01O  4 -0.13120  0.99361  0.73436 11.00000  0.07175   4.88
C01P  2  0.39150  0.71168  0.70334 11.00000  0.05999   4.86
C01Q  2  0.63484  0.89861  0.60413 11.00000  0.03152   4.80
C01R  2  0.06449  0.01220  0.30923 11.00000  0.02435   4.79
C01S  2 -0.19761  0.56654  0.34663 11.00000  0.01753   4.77
N01T  3  0.20871  0.70756  0.26564 11.00000  0.05071   4.74
C01U  2  0.03713  0.00236  0.34926 11.00000  0.07143   4.66
O01V  4  0.47349  0.95624  0.61089 11.00000  0.04209   4.58
C01W  2  0.50120  0.10865  0.46504 11.00000  0.02293   4.52
C01X  2  0.94122  0.47259  0.63092 11.00000  0.01688   4.50
C01Y  2  1.17523  0.49933  0.65995 11.00000  0.07691   4.48
N01Z  3 -0.16355  0.71940  0.46793 11.00000  0.05777   4.47
C020  2  0.45062  0.02682  0.40310 11.00000  0.02576   4.46
C021  2  0.49885 -0.09395  0.41997 11.00000  0.06996   4.35
C022  2  0.16936  0.94839  0.72765 11.00000  0.09526   4.32
C023  2  0.09914  0.84921  0.57410 11.00000  0.13907   4.29
C024  2  1.42950  0.48701  0.67439 11.00000  0.08732   4.28
C025  2  0.98595  0.56685  0.66239 11.00000  0.08676   4.24
C026  2  0.36761  0.29755  0.46692 11.00000  0.04080   4.17
C027  2  0.49548  0.99012  0.54789 11.00000  0.08239   4.16
C028  2  0.59505 -0.00085  0.39576 11.00000  0.02149   4.16
O029  4  1.01659  0.46850  0.58511 11.00000  0.02193   4.14
C02A  2  0.41106  0.85912  0.64828 11.00000  0.01655   3.97
C02B  2 -0.05894 -0.06689  0.32092 11.00000  0.02514   3.94
C02C  2  0.36510  0.65363  0.62312 11.00000  0.03915   3.93
C02D  2  1.24536  0.40325  0.67673 11.00000  0.06322   3.91
C02E  2 -0.49416  0.64295  0.35017 11.00000  0.00539   3.88
C02F  2  0.36069  0.97926  0.53191 11.00000  0.08140   3.85
C02G  2 -0.06031  0.44706  0.43329 11.00000  0.04923   3.76
C02H  2  0.24059 -0.06763  0.39221 11.00000  0.01039   3.75
N02I  3  0.61066  0.34683  0.45690 11.00000  0.02674   3.74
C02J  2  1.10069  0.24217  0.56735 11.00000  0.03624   3.72
N02K  3  0.12191  0.79921  0.66589 11.00000  0.04867   3.68
C02L  2  0.80753  0.44919  0.59760 11.00000  0.12916   3.67
C02M  2  0.40812  0.96339  0.68137 11.00000  0.07776   3.59
C02N  2  0.26281  0.85889  0.58612 11.00000  0.04367   3.54
C02O  2 -0.53712  0.60284  0.34181 11.00000  0.00010   3.54
C02P  2  0.19492  0.73457  0.61273 11.00000  0.02693   3.47
C02Q  2 -0.11662  0.93427  0.71492 11.00000  0.00029   3.45
C02R  2  0.63508  0.20596  0.58986 11.00000  0.02039   3.43
N02S  3  0.44379  0.62236  0.61671 11.00000  0.04212   3.43
C02T  2 -0.02253  0.34077  0.44002 11.00000  0.04383   3.43
C02U  2  0.46751  0.10660  0.65940 11.00000  0.12833   3.28
C02V  2  0.03761  0.02975  0.33611 11.00000  0.00010   3.21
C02W  2  0.09466 -0.06522  0.32634 11.00000  0.06832   3.14
HKLF 4
END
