TITL shelx03-merge_expF_1_1_expS_0_6_shelx03-merge_a.res in P1
REM Old TITL 1 in I 1 #-1
REM SHELXT solution in P1: R1 0.821, Rweak 0.061, Alpha 0.000
REM <I/s>   0.000 for    0 systematic absences,  Orientation as input
REM Flack x = -3.839 ( 0.578 ) from  1230 Parsons' quotients
REM Formula found by SHELXT:  C59 N18 O16

CELL  0.71073   9.3100  15.1100  30.5000   90.000   90.000   90.000
ZERR   52.000   0.0019   0.0030   0.0061    0.000    0.000    0.000
LATT -2
SFAC H C N O ZR CL
UNIT 20 20 20 20 20 0
L.S. 10
BOND
LIST 6
FMAP 2
PLAN 20
CL01  6  0.13221  0.58709  0.44320 11.00000  0.03477  15.96
CL02  6  0.77017  0.58016  0.44055 11.00000  0.06461  15.91
CL03  6  0.32442  0.59082  0.44014 11.00000  0.05481  14.33
CL04  6  0.03265  0.59072  0.44764 11.00000  0.02507  13.53
O005  4  0.51095  0.59738  0.43571 11.00000  0.04123  12.37
C006  2  0.55994  0.44404  0.36397 11.00000  0.00010  12.00
O007  4  0.49058  0.55869  0.43304 11.00000  0.00889  11.49
C008  2  0.38194  0.57508  0.33601 11.00000  0.01956  10.81
O009  4  0.18143  0.26680  0.47159 11.00000  0.05737  10.57
O00A  4  0.66603  0.31481  0.60091 11.00000  0.04770   9.72
N00B  3  0.91401  0.53022  0.76508 11.00000  0.02912   9.58
O00C  4  0.43419  0.47374  0.36220 11.00000  0.14568   8.72
N00D  3  0.64367  0.53753  0.72748 11.00000  0.04769   8.37
N00E  3  0.54861  0.46804  0.71095 11.00000  0.02633   7.95
C00F  2  0.77879  0.60899  0.77850 11.00000  0.02475   7.87
O00G  4  0.02558  0.32166  0.46716 11.00000  0.03101   7.78
O00H  4  0.65150  0.46155  0.37621 11.00000  0.02573   7.67
O00I  4  0.58072  0.59227  0.56891 11.00000  0.09816   7.53
O00J  4 -0.03114  0.36897  0.46095 11.00000  0.06100   7.51
N00K  3  0.60294  0.61853  0.68919 11.00000  0.02480   7.37
N00L  3  0.15524  0.45937  0.47362 11.00000  0.06388   7.01
N00M  3  0.23882  0.59883  0.32092 11.00000  0.10103   6.87
N00N  3 -0.27818  0.58566  0.31342 11.00000  0.01499   6.86
N00O  3  0.08938  0.05280  0.51859 11.00000  0.04072   6.85
N00P  3  0.18576  0.29621  0.29075 11.00000  0.03197   6.81
C00Q  2  0.99808  0.83121  0.67127 11.00000  0.03876   6.75
N00R  3  0.95350  0.48592  0.74353 11.00000  0.13877   6.60
C00S  2  0.45224  0.53622  0.71056 11.00000  0.04674   6.32
C00T  2  0.42358  0.41930  0.56464 11.00000  0.00794   6.26
C00U  2 -0.05891  0.46746  0.50223 11.00000  0.08193   6.13
C00V  2  0.67081  0.37547  0.65459 11.00000  0.10658   6.12
C00W  2  0.57253  0.49563  0.56149 11.00000  0.13257   6.10
C00X  2  0.87801  0.62339  0.82679 11.00000  0.07076   6.10
C00Y  2 -0.14260  0.19590  0.50821 11.00000  0.04493   6.07
C00Z  2  0.22540  0.31002  0.63795 11.00000  0.01787   6.02
C010  2 -0.20289  0.56401  0.32039 11.00000  0.00010   5.93
C011  2 -0.23227  0.59445  0.18340 11.00000  0.15243   5.91
C012  2  0.68047  0.45282  0.69829 11.00000  0.03396   5.90
C013  2  0.96375  0.39016  0.73785 11.00000  0.01907   5.69
C014  2  1.00900  0.91012  0.67797 11.00000  0.04539   5.65
C015  2  0.38023  0.56781  0.31455 11.00000  0.06130   5.41
C016  2  0.06879  0.12800  0.53066 11.00000  0.04378   5.25
C017  2  0.34155  0.38718  0.63880 11.00000  0.04249   5.17
O018  4 -0.17162  0.41680  0.49596 11.00000  0.04327   5.13
N019  3  0.97453  1.00107  0.70747 11.00000  0.05749   5.12
C01A  2  0.50351  0.34304  0.60197 11.00000  0.02436   5.11
C01B  2  1.03970  0.52755  0.64849 11.00000  0.01780   5.03
C01C  2  0.29205  0.24237  0.46724 11.00000  0.04925   5.01
N01D  3  0.73651  0.55823  0.73142 11.00000  0.03396   4.97
C01E  2 -0.03782  0.04537  0.52652 11.00000  0.05139   4.87
C01F  2 -0.03062  0.50631  0.53436 11.00000  0.06152   4.85
O01G  4 -0.05747  0.73864  0.50182 11.00000  0.00560   4.79
C01H  2  0.41946  0.40091  0.76057 11.00000  0.07316   4.78
O01I  4 -0.22826  0.49001  0.29413 11.00000  0.04212   4.74
O01J  4  0.52723  0.27344  0.42976 11.00000  0.04513   4.71
C01K  2  0.11126  0.26973  0.50755 11.00000  0.07645   4.53
C01L  2  0.33694  0.38715  0.43639 11.00000  0.03971   4.43
C01M  2  1.15399  0.59612  0.65691 11.00000  0.04855   4.40
C01N  2  1.06378  0.52865  0.74598 11.00000  0.09078   4.40
C01O  2  0.50807  0.31795  0.44085 11.00000  0.04118   4.38
C01P  2  0.81531  0.61595  0.63839 11.00000  0.07958   4.36
C01Q  2  1.10007  0.51815  0.69574 11.00000  0.00174   4.35
O01R  4  0.42290  0.00647  0.51233 11.00000  0.11970   4.13
C01S  2  0.48541 -0.05739  0.49386 11.00000  0.11055   4.10
C01T  2  0.53095  0.25955  0.57275 11.00000  0.00010   4.00
C01U  2  0.17865  0.68621  0.46821 11.00000  0.04391   3.98
N01V  3  1.01695  0.76978  0.68333 11.00000  0.03284   3.95
C01W  2  1.24844  0.51680  0.66523 11.00000  0.05697   3.94
C01X  2  1.39329  0.66564  0.60965 11.00000  0.02660   3.93
O01Y  4  0.93314  0.64399  0.70972 11.00000  0.02365   3.90
C01Z  2  0.84735  0.88091  0.66669 11.00000  0.09602   3.86
C020  2  1.04142  0.24527  0.88474 11.00000  0.05726   3.86
N021  3 -0.06232  0.16156  0.36066 11.00000  0.05680   3.84
C022  2  1.08516  0.54551  0.60047 11.00000  0.00212   3.74
O023  4  0.00900  0.59808  0.30125 11.00000  0.03989   3.68
C024  2  1.00988  0.57796  0.71234 11.00000  0.04689   3.67
C025  2  1.03638  0.34829  0.80688 11.00000  0.00231   3.67
N026  3 -0.27801  0.55104  0.11526 11.00000  0.03741   3.65
C027  2  0.36536  0.30638  0.65044 11.00000  0.07823   3.57
C028  2  0.64751  0.64091  0.50352 11.00000  0.00372   3.47
N029  3  1.33495  0.61312  0.66486 11.00000  0.10773   3.46
C02A  2  1.11476  0.31794  0.81084 11.00000  0.01497   3.41
C02B  2  0.65104  0.62718  0.58828 11.00000  0.01235   3.38
C02C  2  0.14383  0.48516  0.33906 11.00000  0.11721   3.37
C02D  2 -0.07516  0.61856  0.30000 11.00000  0.02153   3.36
C02E  2  0.02007  0.68683  0.21762 11.00000  0.02792   3.33
C02F  2  1.12410  0.86055  0.66566 11.00000  0.06762   3.26
C02G  2  0.47070  0.09291  0.54145 11.00000  0.00375   3.21
C02H  2  0.63858  0.58934  0.44076 11.00000  0.03236   3.19
C02I  2 -0.17049  0.78811  0.49589 11.00000  0.11205   3.15
N02J  3  0.96706  0.43679  0.73656 11.00000  0.02343   3.14
C02K  2  0.01867  0.39004  0.28407 11.00000  0.01453   3.11
C02L  2 -0.39329  0.65403  0.26038 11.00000  0.13420   3.09
C02M  2 -0.10803  0.59658  0.50948 11.00000  0.00255   3.09
N02N  3  0.75819  1.05739  0.64692 11.00000  0.03226   3.08
C02O  2  1.19102  0.42765  0.79355 11.00000  0.04402   3.08
C02P  2 -0.06549  0.68339  0.55710 11.00000  0.04938   3.03
HKLF 4
END
