TITL shelx03-merge_expF_1_2_expS_0_9_shelx03-merge_a.res in P1
REM Old TITL 1 in I 1 #-1
REM SHELXT solution in P1: R1 0.783, Rweak 0.255, Alpha 0.000
REM <I/s>   0.000 for    0 systematic absences,  Orientation as input
REM Flack x = -2.672 ( 0.958 ) from   906 Parsons' quotients
REM Formula found by SHELXT:  C55 N18 O27

CELL  0.71073   9.3100  15.1100  30.5000   90.000   90.000   90.000
ZERR   52.000   0.0019   0.0030   0.0061    0.000    0.000    0.000
LATT -2
SFAC H C N O ZR CL
UNIT 20 20 20 20 20 0
L.S. 10
BOND
LIST 6
FMAP 2
PLAN 20
CL01  6 -0.42997  0.35525  0.66790 11.00000  0.04708  17.82
CL02  6  0.21637  0.35552  0.66973 11.00000  0.04666  17.49
CL03  6 -0.30079  0.34582  0.66758 11.00000  0.07933  17.39
CL04  6  0.33413  0.33662  0.67306 11.00000  0.05520  16.73
CL05  6  1.19685  0.41607  0.32645 11.00000  0.05593  15.32
O006  4 -0.16505  0.35854  0.66825 11.00000  0.02078  11.95
O007  4  0.09638  0.35703  0.67491 11.00000  0.01762  11.83
O008  4  1.32819  0.35822  0.32179 11.00000  0.08082  11.58
O009  4  1.04998  0.48239  0.31816 11.00000  0.06157  10.88
N00A  3  0.77156  0.33347  0.41449 11.00000  0.01023  10.56
O00B  4  0.77472  0.39950  0.20845 11.00000  0.01811  10.03
O00C  4 -0.05705  0.35207  0.67453 11.00000  0.02593  10.00
O00D  4  0.76696  0.46952  0.36422 11.00000  0.00510   9.93
C00E  2  1.44787  0.24669  0.27924 11.00000  0.03054   9.19
O00F  4  0.61569  0.31281  0.41133 11.00000  0.02496   8.99
C00G  2  0.34563  0.61111  0.40541 11.00000  0.00167   8.98
N00H  3  0.89791  0.36032  0.41348 11.00000  0.00449   8.97
C00I  2  1.14029  0.36444  0.37975 11.00000  0.00209   8.90
C00J  2  1.18749  0.22025  0.32071 11.00000  0.02466   8.64
O00K  4  0.47984  0.53716  0.39347 11.00000  0.01741   8.27
O00L  4  0.96867  0.44142  0.37307 11.00000  0.03840   8.18
N00M  3  1.20252  0.50916  0.33982 11.00000  0.03055   8.16
C00N  2  0.87734  0.47622  0.37927 11.00000  0.01463   8.13
O00O  4  0.64473  0.41497  0.21874 11.00000  0.01993   8.08
C00P  2 -0.29084  0.73564  0.63607 11.00000  0.03296   8.08
O00Q  4 -0.13305  0.33492  0.54531 11.00000  0.02713   7.97
O00R  4  0.84446  0.28971  0.41645 11.00000  0.04327   7.83
O00S  4  0.63462  0.37426  0.34034 11.00000  0.02733   7.70
O00T  4 -0.29508  0.40141  0.55637 11.00000  0.04206   7.68
N00U  3  1.03662  0.37235  0.38432 11.00000  0.05871   7.56
O00V  4 -0.05655  0.72462  0.60125 11.00000  0.03718   7.26
N00W  3  1.39373  0.51650  0.33232 11.00000  0.03163   7.21
N00X  3  0.26923  0.28529  0.54732 11.00000  0.02649   7.03
O00Y  4  0.82657  0.86368  0.48517 11.00000  0.02863   6.99
N00Z  3  0.55532  0.77223  0.45870 11.00000  0.00095   6.90
N010  3  1.34466  0.12426  0.33723 11.00000  0.01757   6.78
N011  3  1.23948  0.31905  0.38071 11.00000  0.03664   6.68
N012  3  0.60200  0.69709  0.44571 11.00000  0.03864   6.66
N013  3 -0.29741  0.35283  0.57204 11.00000  0.01124   6.64
N014  3  0.22223  0.58258  0.52633 11.00000  0.01095   6.53
C015  2  1.06681  0.56133  0.35983 11.00000  0.01492   6.34
C016  2  0.24871  0.36391  0.55226 11.00000  0.02827   6.11
C017  2  0.70908  0.90208  0.50553 11.00000  0.03246   5.98
C018  2  0.35143  0.62685  0.51522 11.00000  0.03722   5.92
C019  2  1.56025  0.20721  0.25971 11.00000  0.01952   5.72
O01A  4 -0.13884  0.48857  0.55530 11.00000  0.00403   5.64
C01B  2  0.84384  0.28554  0.24244 11.00000  0.01977   5.55
O01C  4  0.08534  0.72106  0.59680 11.00000  0.06305   5.46
C01D  2  0.15109  0.24679  0.53733 11.00000  0.02660   5.42
C01E  2  0.21828  0.31745  0.47685 11.00000  0.06177   5.31
C01F  2  0.17617  0.40038  0.45068 11.00000  0.00494   5.29
C01G  2  0.60073  0.54206  0.22083 11.00000  0.04645   5.25
O01H  4  1.11204  0.28529  0.31195 11.00000  0.06550   5.10
O01I  4  0.75332  0.58997  0.40905 11.00000  0.04544   5.06
C01J  2  0.08164  0.52072  0.60649 11.00000  0.00010   4.95
C01K  2  0.50911  0.43375  0.45765 11.00000  0.02273   4.95
N01L  3  1.36548  0.27057  0.26885 11.00000  0.04433   4.72
C01M  2  1.08456  0.65514  0.32802 11.00000  0.02577   4.71
C01N  2  0.30185  0.35312  0.47814 11.00000  0.02071   4.65
O01O  4  1.09857  0.10392  0.42463 11.00000  0.03120   4.64
O01P  4  0.41390  0.37320  0.41654 11.00000  0.07308   4.48
C01Q  2  0.12085  0.30972  0.54927 11.00000  0.02444   4.44
C01R  2  0.64636  0.46962  0.21457 11.00000  0.00010   4.43
C01S  2 -0.15059  0.40511  0.74762 11.00000  0.02734   4.39
C01T  2  0.46643  0.70186  0.45076 11.00000  0.00010   4.36
N01U  3  0.69636  0.58590  0.22896 11.00000  0.02163   4.33
C01V  2  0.11321  0.34475  0.55009 11.00000  0.00990   4.20
C01W  2 -0.10460  0.52477  0.54808 11.00000  0.01081   4.06
C01X  2  1.31704  0.22621  0.30992 11.00000  0.04633   4.03
C01Y  2  0.54937  0.43367  0.41492 11.00000  0.03214   3.97
N01Z  3  0.14666  0.69611  0.62890 11.00000  0.04508   3.85
C020  2  0.23539  0.63458  0.37214 11.00000  0.01621   3.84
C021  2 -0.29190  0.19260  0.63054 11.00000  0.07271   3.81
O022  4 -0.49308  0.08914  0.59352 11.00000  0.07578   3.78
N023  3  0.26564  0.90863  0.52755 11.00000  0.01550   3.75
C024  2  1.25119  0.75536  0.32689 11.00000  0.00010   3.74
C025  2  0.50660  0.85800  0.44474 11.00000  0.03350   3.73
C026  2  0.80387  0.62724  0.41051 11.00000  0.00010   3.72
C027  2 -0.22535  0.58092  0.51387 11.00000  0.02260   3.71
C028  2 -0.42665  0.42876  0.62197 11.00000  0.02324   3.71
C029  2 -0.48209  0.58176  0.71260 11.00000  0.00074   3.67
C02A  2  0.94768  0.18398  0.42974 11.00000  0.02001   3.66
N02B  3 -0.47657  0.73844  0.62248 11.00000  0.02697   3.56
C02C  2  0.72866  0.14193  0.38044 11.00000  0.01204   3.55
C02D  2  0.10147  0.44643  0.73230 11.00000  0.05124   3.53
C02E  2 -0.07932  0.46464  0.73561 11.00000  0.01338   3.51
C02F  2  0.61087  0.63145  0.22852 11.00000  0.03846   3.48
C02G  2  0.53797  0.67467  0.23351 11.00000  0.00475   3.43
C02H  2  1.37934  0.57088  0.30760 11.00000  0.04355   3.41
C02I  2  0.46025  0.91086  0.45822 11.00000  0.01200   3.39
C02J  2 -0.55539  0.53873  0.72123 11.00000  0.04329   3.38
O02K  4  0.09533  0.65565  0.61209 11.00000  0.03460   3.38
C02L  2  1.29322  0.84071  0.36938 11.00000  0.06973   3.34
N02M  3  0.37729  0.23021  0.71858 11.00000  0.03809   3.32
O02N  4  0.17255  0.34513  0.79155 11.00000  0.03036   3.27
C02O  2 -0.55392  0.49548  0.72763 11.00000  0.04870   3.26
C02P  2  0.13317  0.36685  0.59034 11.00000  0.01764   3.25
C02Q  2  0.10025  0.59574  0.54528 11.00000  0.03497   3.21
O02R  4 -0.54213  0.50160  0.61912 11.00000  0.05261   3.20
C02S  2 -0.03158  0.37959  0.72622 11.00000  0.05177   3.18
C02T  2  0.36885  0.32993  0.77907 11.00000  0.05898   3.16
C02U  2  1.28318  0.48040  0.38227 11.00000  0.00329   3.13
C02V  2  1.10975  0.76265  0.33109 11.00000  0.02243   3.11
C02W  2 -0.56025  0.19662  0.61310 11.00000  0.01420   3.06
C02X  2  0.94162  0.35830  0.29438 11.00000  0.04793   3.03
HKLF 4
END
