TITL shelx03-merge_expF_1_4_expS_0_6_shelx03-merge_a.res in P1
REM Old TITL 1 in I 1 #-1
REM SHELXT solution in P1: R1 0.895, Rweak 0.134, Alpha 0.000
REM <I/s>   0.000 for    0 systematic absences,  Orientation as input
REM Flack x = -5.975 ( 0.374 ) from  1144 Parsons' quotients
REM Formula found by SHELXT:  C35 N16 O29

CELL  0.71073   9.3100  15.1100  30.5000   90.000   90.000   90.000
ZERR   52.000   0.0019   0.0030   0.0061    0.000    0.000    0.000
LATT -2
SFAC H C N O ZR
UNIT 20 20 20 20 20
L.S. 10
BOND
LIST 6
FMAP 2
PLAN 20
ZR01  5  0.48863  0.27815  0.63774 11.00000  0.08575  26.53
O002  4  0.34872  0.29374  0.64323 11.00000  0.07338  23.30
O003  4 -0.01013  0.29578  0.64167 11.00000  0.00971  21.94
O004  4  0.63101  0.27395  0.64282 11.00000  0.00087  20.99
O005  4  0.10454  0.26931  0.63277 11.00000  0.02179  18.90
O006  4  0.59478  0.77861  0.26035 11.00000  0.03146  17.66
O007  4  0.44417  0.80001  0.26920 11.00000  0.01131  16.30
O008  4  0.74352  0.26901  0.63861 11.00000  0.00174  16.09
O009  4  1.23331  0.16446  0.69867 11.00000  0.05084  14.40
O00A  4  1.25603 -0.12835  0.69922 11.00000  0.06326  13.75
O00B  4  0.26091  0.24773  0.61292 11.00000  0.05797  13.70
N00C  3 -0.41171  0.69452  0.47991 11.00000  0.04331  13.51
O00D  4 -0.43486  0.79503  0.44164 11.00000  0.04806  13.04
N00E  3 -0.47518  0.75399  0.44762 11.00000  0.06213  12.75
N00F  3 -0.44120  0.69857  0.46142 11.00000  0.00591  11.64
O00G  4  0.85973  0.80986  0.25867 11.00000  0.04392  11.18
N00H  3 -0.32548  0.66539  0.47240 11.00000  0.04269  10.25
O00I  4  0.33911  0.79692  0.49110 11.00000  0.06074   9.81
N00J  3  0.18731  0.76780  0.48960 11.00000  0.00895   9.75
O00K  4 -0.32018  0.56882  0.40508 11.00000  0.04719   9.56
O00L  4 -0.31076  0.93634  0.39666 11.00000  0.03099   9.47
O00M  4 -0.19164  0.84607  0.41106 11.00000  0.11290   8.93
O00N  4 -0.25567  0.62226  0.41690 11.00000  0.04917   8.69
C00O  2  0.78776  0.78286  0.25815 11.00000  0.01229   8.61
O00P  4 -0.01305  0.61890  0.42874 11.00000  0.05352   8.33
O00Q  4  1.47518 -0.15974  0.69769 11.00000  0.02844   7.88
C00R  2  0.84158  0.10460  0.69798 11.00000  0.00581   7.88
O00S  4 -0.09947  0.80124  0.46342 11.00000  0.01528   7.67
O00T  4 -0.02213  0.58515  0.59956 11.00000  0.04653   7.57
C00U  2 -0.12533  0.64280  0.41517 11.00000  0.05108   7.48
N00V  3  0.19503  0.71594  0.55229 11.00000  0.05728   7.06
N00W  3  0.22128  0.30825  0.55215 11.00000  0.02689   7.05
N00X  3  0.21323  0.82827  0.28724 11.00000  0.08957   7.04
N00Y  3  0.39048  0.90347  0.20876 11.00000  0.04256   6.99
O00Z  4  0.22312  0.57649  0.35214 11.00000  0.03400   6.99
N010  3 -0.37615  0.54023  0.46831 11.00000  0.02979   6.83
N011  3  0.17199  0.76789  0.54890 11.00000  0.00438   6.68
O012  4  0.35749  0.07371  0.56383 11.00000  0.04997   6.63
N013  3  0.10374  0.82588  0.49686 11.00000  0.08202   6.62
C014  2  0.11615  1.03607  0.32856 11.00000  0.02742   6.58
O015  4  0.69269  0.10363  0.69711 11.00000  0.05518   6.42
C016  2  0.21098  0.92174  0.18529 11.00000  0.00367   6.36
C017  2 -0.07856  0.76158  0.56075 11.00000  0.05499   6.27
O018  4 -0.21249  0.91590  0.52289 11.00000  0.09861   6.20
O019  4  0.56560  0.15656  0.59486 11.00000  0.04409   6.14
C01A  2  0.17754  0.59993  0.63613 11.00000  0.12396   6.11
N01B  3  0.23238  0.47078  0.68176 11.00000  0.01893   5.95
C01C  2  0.05943  0.64463  0.35639 11.00000  0.05119   5.73
C01D  2  0.95399  0.05129  0.67542 11.00000  0.05078   5.70
C01E  2  0.19495  0.69766  0.48981 11.00000  0.02820   5.69
C01F  2  0.11646  0.78328  0.33104 11.00000  0.00748   5.65
C01G  2  0.31592  0.15216  0.57758 11.00000  0.06232   5.59
C01H  2 -0.37724  0.99462  0.51481 11.00000  0.12598   5.41
C01I  2  0.62823  0.29697  0.49651 11.00000  0.03837   5.20
C01J  2  0.19954  0.35270  0.55054 11.00000  0.08854   5.16
C01K  2  0.92125  0.01687  0.61156 11.00000  0.03847   5.12
O01L  4  0.93928 -0.19137  0.81351 11.00000  0.05249   4.89
C01M  2 -0.04739  0.68968  0.42962 11.00000  0.03357   4.87
O01N  4  0.05962  1.08052  0.31075 11.00000  0.03446   4.58
C01O  2  0.68455  0.40496  0.53099 11.00000  0.04013   4.56
N01P  3 -0.15720  1.25402  0.36611 11.00000  0.13668   4.53
C01Q  2  0.11470  0.54428  0.37096 11.00000  0.06358   4.51
C01R  2  0.42402  0.31739  0.51070 11.00000  0.03635   4.48
C01S  2  0.12259  0.74035  0.57122 11.00000  0.00629   4.32
C01T  2 -0.21551  1.02697  0.33752 11.00000  0.08325   4.12
C01U  2  1.37741  0.05631  0.78811 11.00000  0.04972   4.07
C01V  2  0.63239  0.34656  0.52280 11.00000  0.06732   4.01
C01W  2  0.95013 -0.25402  0.81471 11.00000  0.02536   3.94
O01X  4  1.02754  0.12007  0.74952 11.00000  0.04019   3.78
C01Y  2  0.12019  0.78943  0.22173 11.00000  0.03357   3.67
C01Z  2  0.32507  0.45287  0.50683 11.00000  0.01600   3.53
C020  2  1.11481  0.08796  0.74747 11.00000  0.01400   3.53
C021  2  1.10439 -0.20867  0.69057 11.00000  0.06834   3.52
C022  2  0.96136 -0.05577  0.78551 11.00000  0.01780   3.36
C023  2  0.31963  0.57580  0.48972 11.00000  0.06581   3.27
C024  2  1.34360  0.04034  0.71937 11.00000  0.03371   3.20
C025  2  0.22815  0.92274  0.35184 11.00000  0.04237   3.17
N026  3  0.35724  0.55691  0.62888 11.00000  0.10690   3.15
C027  2  0.68773  0.12297  0.58470 11.00000  0.01217   3.13
N028  3  0.58739  0.01571  0.63367 11.00000  0.05565   3.06
C029  2  0.71538  0.03283  0.61986 11.00000  0.06194   3.02
HKLF 4
END
