TITL shelx03-merge_expF_1_3_expS_1_0_shelx03-merge_a.res in P1
REM Old TITL 1 in I 1 #-1
REM SHELXT solution in P1: R1 0.835, Rweak 0.212, Alpha 0.000
REM <I/s>   0.000 for    0 systematic absences,  Orientation as input
REM Flack x = -9.990 ( 1.928 ) from   683 Parsons' quotients
REM Formula found by SHELXT:  C40 N17 O23

CELL  0.71073   9.3100  15.1100  30.5000   90.000   90.000   90.000
ZERR   52.000   0.0019   0.0030   0.0061    0.000    0.000    0.000
LATT -2
SFAC H C N O ZR CL
UNIT 20 20 20 20 20 0
L.S. 10
BOND
LIST 6
FMAP 2
PLAN 20
CL01  6  0.35724  0.35483  0.62049 11.00000  0.07052  20.18
CL02  6  0.49883  0.33764  0.61309 11.00000  0.07718  18.48
CL03  6 -0.27889  0.34164  0.61879 11.00000  0.03205  17.47
CL04  6 -0.13475  0.34724  0.61493 11.00000  0.04969  17.15
CL05  6  0.24575  0.33762  0.62050 11.00000  0.07307  16.88
CL06  6 -0.01010  0.33908  0.61235 11.00000  0.08208  14.35
CL07  6 -0.04064  0.51119  0.48882 11.00000  0.06330  13.51
CL08  6  1.18754  0.38834  0.31456 11.00000  0.03938  12.94
CL09  6  0.69146  0.41695  0.35360 11.00000  0.08455  12.61
CL0A  6  1.13362  0.35768  0.32788 11.00000  0.05748  12.51
O00B  4 -0.17300  0.33186  0.73957 11.00000  0.00010  12.25
N00C  3  0.11676  0.36096  0.62034 11.00000  0.04925  11.60
O00D  4  0.85849  0.32691  0.40629 11.00000  0.03187  11.03
O00E  4  0.14622  0.47462  0.65654 11.00000  0.01943  10.62
N00F  3  0.82183  0.42680  0.35545 11.00000  0.00261  10.48
O00G  4  0.35860  0.67424  0.58294 11.00000  0.00010  10.44
O00H  4  0.22157  0.32365  0.45455 11.00000  0.09195  10.17
C00I  2  0.05125  0.53495  0.65438 11.00000  0.01869  10.11
O00J  4  0.45651  0.55949  0.59919 11.00000  0.00010   9.82
O00K  4  0.12202  0.46820  0.48445 11.00000  0.00462   9.71
N00L  3  0.10915  0.37994  0.64988 11.00000  0.04872   9.47
N00M  3  0.86910  0.17358  0.42635 11.00000  0.02076   9.46
O00N  4  0.33001  0.59419  0.26323 11.00000  0.00500   9.42
O00O  4  0.15593  0.55556  0.44991 11.00000  0.01467   9.31
C00P  2  0.43113  0.53152  0.25742 11.00000  0.00010   8.95
O00Q  4  0.45978  0.35483  0.39862 11.00000  0.00010   8.65
O00R  4  0.42875  0.33778  0.72435 11.00000  0.02141   8.61
C00S  2  0.30024  0.35982  0.73368 11.00000  0.03642   8.54
O00T  4 -0.15950  0.29295  0.73876 11.00000  0.00583   8.52
C00U  2  0.65667  0.48978  0.37402 11.00000  0.00137   8.36
O00V  4  0.31807  0.54604  0.44013 11.00000  0.01459   8.21
O00W  4  0.55920  0.55865  0.33144 11.00000  0.04689   8.18
O00X  4  0.58276  0.25820  0.40155 11.00000  0.03737   8.18
C00Y  2  0.89128  0.38235  0.35734 11.00000  0.01755   7.99
O00Z  4  1.02726  0.33855  0.35853 11.00000  0.00010   7.90
O010  4  0.52504  0.34811  0.36218 11.00000  0.03872   7.78
C011  2  0.54469  0.68201  0.57753 11.00000  0.00026   7.53
O012  4  0.14820  0.18426  0.66526 11.00000  0.10513   7.49
N013  3  0.30442  0.38637  0.39075 11.00000  0.01933   7.47
C014  2  0.16044  0.37697  0.73152 11.00000  0.01526   7.38
N015  3 -0.20955  0.15977  0.54786 11.00000  0.00568   6.98
N016  3 -0.29307  0.37109  0.75946 11.00000  0.05814   6.92
C017  2  0.91387  0.07651  0.41941 11.00000  0.00136   6.85
O018  4  0.56710  0.70615  0.56529 11.00000  0.01885   6.83
C019  2  0.89695  0.78841  0.54469 11.00000  0.00010   6.72
N01A  3  0.25446  0.61644  0.38213 11.00000  0.00010   6.61
N01B  3 -0.16912  0.09124  0.59439 11.00000  0.04528   6.53
C01C  2  0.37421  0.43401  0.67673 11.00000  0.01271   6.43
C01D  2  0.73610  0.20571  0.39881 11.00000  0.00010   6.38
C01E  2  0.06007  0.65707  0.35070 11.00000  0.00138   6.21
C01F  2  0.48143  0.39986  0.32354 11.00000  0.00010   6.12
N01G  3  0.94280  0.85367  0.55282 11.00000  0.00689   6.09
C01H  2  0.84296  0.72257  0.54739 11.00000  0.00010   6.05
C01I  2  0.59692  0.42367  0.41821 11.00000  0.00010   6.03
C01J  2  0.33310  0.71370  0.40102 11.00000  0.00010   6.00
C01K  2  0.84103  0.43758  0.29058 11.00000  0.00015   5.98
O01L  4 -0.02338  0.48110  0.65029 11.00000  0.04407   5.91
C01M  2  0.82547  0.26184  0.36398 11.00000  0.01060   5.83
C01N  2  0.33777  0.58465  0.44196 11.00000  0.00010   5.82
C01O  2  0.77043  0.50400  0.40212 11.00000  0.00010   5.79
O01P  4  1.29307  0.25930  0.26620 11.00000  0.02344   5.73
N01Q  3  0.62957  0.50792  0.65986 11.00000  0.03580   5.39
N01R  3  0.43959  0.46160  0.42871 11.00000  0.00692   5.30
C01S  2  0.52186  0.50284  0.65812 11.00000  0.00010   5.15
C01T  2  0.59649  0.73913  0.47065 11.00000  0.00010   5.14
C01U  2  0.28593  0.85997  0.43766 11.00000  0.01898   5.11
C01V  2  0.64444  0.92599  0.48732 11.00000  0.01841   5.01
O01W  4  1.01409  0.09325  0.41159 11.00000  0.00754   4.98
C01X  2  0.54580  0.83868  0.43956 11.00000  0.00016   4.90
C01Y  2  0.07285  0.25776  0.49529 11.00000  0.00010   4.79
C01Z  2  0.13019  0.57581  0.33561 11.00000  0.00010   4.62
O020  4  0.72092  0.11089  0.35048 11.00000  0.00010   4.62
N021  3  0.03386  0.34872  0.73465 11.00000  0.02320   4.42
C022  2  0.71000  0.63433  0.48616 11.00000  0.01491   4.36
C023  2  0.44333  0.44777  0.39531 11.00000  0.00495   4.32
N024  3 -0.05817  0.69318  0.34346 11.00000  0.01929   4.30
C025  2  0.21371  0.74939  0.55284 11.00000  0.01308   4.24
C026  2 -0.26697  0.40684  0.56229 11.00000  0.02075   4.09
C027  2  0.69635  0.43153  0.67761 11.00000  0.00070   3.99
N028  3  0.55518  0.18451  0.65227 11.00000  0.04261   3.82
C029  2 -0.13719  0.35514  0.50541 11.00000  0.02438   3.69
C02A  2  0.34075  0.14403  0.49388 11.00000  0.06350   3.66
C02B  2 -0.19927  0.56638  0.34108 11.00000  0.00572   3.52
C02C  2  1.19527  0.25163  0.25195 11.00000  0.00401   3.46
C02D  2  0.14074  0.21864  0.49441 11.00000  0.03384   3.40
C02E  2  0.91037  0.32382  0.28862 11.00000  0.00308   3.27
C02F  2  0.77604  0.07401  0.35704 11.00000  0.03281   3.15
C02G  2  0.39528  0.54749  0.37542 11.00000  0.02225   3.12
N02H  3 -0.18284  0.63752  0.32171 11.00000  0.05729   3.05
N02I  3  0.64719  0.28732  0.24054 11.00000  0.02003   3.05
HKLF 4
END
