TITL shelx03-merge_expF_1_0_expS_0_7_shelx03-merge_a.res in P1
REM Old TITL 1 in I 1 #-1
REM SHELXT solution in P1: R1 0.742, Rweak 0.156, Alpha 0.000
REM <I/s>   0.000 for    0 systematic absences,  Orientation as input
REM Flack x = -5.364 ( 0.453 ) from  1314 Parsons' quotients
REM Formula found by SHELXT:  C61 N16 O17

CELL  0.71073   9.3100  15.1100  30.5000   90.000   90.000   90.000
ZERR   52.000   0.0019   0.0030   0.0061    0.000    0.000    0.000
LATT -2
SFAC H C N O ZR CL
UNIT 20 20 20 20 20 0
L.S. 10
BOND
LIST 6
FMAP 2
PLAN 20
CL01  6 -0.07785  0.43544  0.61192 11.00000  0.04370  17.76
CL02  6 -0.00486  0.49665  0.62458 11.00000  0.04648  15.05
CL03  6 -0.72035  0.42579  0.60920 11.00000  0.03461  15.02
CL04  6 -0.85681  0.45001  0.61092 11.00000  0.02926  14.97
CL05  6 -0.19160  0.44405  0.61457 11.00000  0.02972  14.75
C006  2  0.07080  0.57960  0.55619 11.00000  0.00010  13.73
CL07  6 -0.60727  0.44209  0.61168 11.00000  0.06837  13.57
N008  3 -0.49575  0.40303  0.61793 11.00000  0.00486  12.00
O009  4  0.87424  0.41477  0.48996 11.00000  0.01787   9.39
O00A  4  0.87435  0.45460  0.27611 11.00000  0.01667   9.31
O00B  4 -0.21592  0.54174  0.63814 11.00000  0.00414   9.25
O00C  4  0.53546  0.42829  0.48030 11.00000  0.02354   9.11
N00D  3  0.12323  0.28565  0.55500 11.00000  0.03043   9.01
C00E  2  0.24514  0.23848  0.56645 11.00000  0.00010   8.99
O00F  4 -0.35745  0.45718  0.61764 11.00000  0.00010   8.69
N00G  3  1.14560  0.30235  0.37409 11.00000  0.03464   8.67
N00H  3  0.67362  0.82743  0.53323 11.00000  0.00010   8.09
C00I  2 -0.01920  0.61049  0.56392 11.00000  0.02697   8.08
O00J  4  0.51114  0.59741  0.45412 11.00000  0.05205   8.04
O00K  4 -0.03934  0.20722  0.59813 11.00000  0.04468   7.96
O00L  4  0.79865  0.42929  0.29186 11.00000  0.06245   7.71
N00M  3  0.72963  0.49254  0.46959 11.00000  0.01418   7.36
N00N  3  0.40369  0.41599  0.50973 11.00000  0.03465   7.04
N00O  3 -0.58014  0.50961  0.66819 11.00000  0.01146   6.90
C00P  2  1.16050  0.39972  0.37506 11.00000  0.02688   6.81
C00Q  2  0.97810  0.67257  0.33577 11.00000  0.05353   6.64
C00R  2  0.66006  0.44010  0.47534 11.00000  0.05094   6.49
C00S  2  0.64980  0.43224  0.46026 11.00000  0.01776   6.36
C00T  2 -0.26713  0.21882  0.61579 11.00000  0.00010   6.16
O00U  4  1.48883  0.37735  0.26873 11.00000  0.04294   6.06
C00V  2  1.27710  0.15933  0.37207 11.00000  0.02968   6.01
C00W  2  1.03366  0.37259  0.37307 11.00000  0.01759   5.79
C00X  2  0.99485  0.36052  0.48101 11.00000  0.02277   5.75
O00Y  4  0.15085  0.61257  0.55001 11.00000  0.02321   5.74
C00Z  2  0.78823  0.90161  0.54463 11.00000  0.02456   5.72
C010  2  0.12353  0.96591  0.40694 11.00000  0.01806   5.70
N011  3  0.69748  0.78531  0.39836 11.00000  0.00240   5.68
C012  2  0.47317  0.73868  0.46361 11.00000  0.04253   5.67
C013  2  1.24897  0.24723  0.37714 11.00000  0.05593   5.64
C014  2  0.34040  0.31943  0.53425 11.00000  0.03382   5.39
O015  4 -0.42468  0.17413  0.57748 11.00000  0.00248   5.27
C016  2 -0.24318  0.14686  0.61882 11.00000  0.07006   5.15
C017  2  0.89288  0.49736  0.27648 11.00000  0.03190   5.11
C018  2  0.29209  0.17744  0.56176 11.00000  0.01197   4.97
C019  2 -0.44142  0.32220  0.61850 11.00000  0.03227   4.93
C01A  2  0.41673  0.56156  0.46083 11.00000  0.04256   4.89
C01B  2  1.01629  0.59997  0.29174 11.00000  0.03422   4.79
C01C  2 -0.43054  0.49065  0.68437 11.00000  0.01101   4.77
C01D  2  1.07281  0.63343  0.34927 11.00000  0.03869   4.58
C01E  2  0.27150  0.86529  0.41662 11.00000  0.04258   4.56
C01F  2  0.32370  0.76424  0.44687 11.00000  0.02256   4.53
N01G  3 -0.45874  0.57996  0.69148 11.00000  0.05026   4.44
O01H  4  1.35616  0.53115  0.31080 11.00000  0.09999   4.39
O01I  4  0.92260  0.89415  0.55817 11.00000  0.03366   4.38
C01J  2  0.84647  0.45406  0.42803 11.00000  0.01587   4.33
C01K  2 -0.64746  0.55352  0.66091 11.00000  0.03575   4.32
C01L  2  1.67521  0.21540  0.33308 11.00000  0.01347   4.28
C01M  2  0.01622  0.86164  0.44400 11.00000  0.02513   4.28
C01N  2  0.69851  0.99504  0.37434 11.00000  0.01083   4.28
C01O  2  0.99472  0.40461  0.42813 11.00000  0.03688   4.25
N01P  3  1.08544  0.33599  0.48957 11.00000  0.07997   4.23
C01Q  2 -0.32269  0.59162  0.53411 11.00000  0.00010   4.19
C01R  2  0.21272  0.94069  0.39290 11.00000  0.01652   4.13
C01S  2  1.51166  0.26859  0.33490 11.00000  0.00010   4.13
C01T  2 -0.40133  0.15863  0.68819 11.00000  0.01335   4.12
C01U  2  1.43961  0.42675  0.27414 11.00000  0.06080   4.09
C01V  2  0.72840  0.86341  0.40071 11.00000  0.02408   4.06
C01W  2 -0.20304  0.49415  0.56266 11.00000  0.00010   4.01
C01X  2  0.42339  0.45269  0.45681 11.00000  0.03111   3.98
C01Y  2  0.64943  0.78183  0.54634 11.00000  0.08737   3.97
C01Z  2  1.85681  0.17974  0.30335 11.00000  0.02305   3.94
C020  2  1.37557  0.18917  0.35392 11.00000  0.03190   3.94
C021  2  0.51445  0.81617  0.53856 11.00000  0.00565   3.85
C022  2  0.05624  0.14257  0.63782 11.00000  0.00978   3.81
C023  2 -0.32706  0.07017  0.66343 11.00000  0.02258   3.81
C024  2  0.70152  0.58548  0.35405 11.00000  0.04023   3.80
C025  2 -0.41728  0.39816  0.68145 11.00000  0.03286   3.75
C026  2  1.26781  0.36349  0.36570 11.00000  0.00316   3.70
N027  3 -0.77022  0.27670  0.73127 11.00000  0.06179   3.70
C028  2 -0.69618  0.63924  0.72412 11.00000  0.03860   3.65
O029  4  0.78305  0.49600  0.40168 11.00000  0.02915   3.59
C02A  2  1.14222  0.28415  0.48862 11.00000  0.04298   3.58
C02B  2  0.65163  0.94133  0.55517 11.00000  0.01690   3.57
C02C  2  1.50820  0.19133  0.28312 11.00000  0.02062   3.53
N02D  3 -0.76722  0.10241  0.71080 11.00000  0.01786   3.53
N02E  3  0.41678  0.75000  0.32351 11.00000  0.04356   3.50
C02F  2  0.61740  0.92190  0.39817 11.00000  0.00010   3.46
N02G  3  1.17964  0.49768  0.35372 11.00000  0.03491   3.45
C02H  2  0.48265  0.88823  0.53061 11.00000  0.02484   3.42
O02I  4  0.88792  0.71511  0.34378 11.00000  0.06936   3.40
C02J  2  0.01712  0.76283  0.44569 11.00000  0.07177   3.31
N02K  3 -0.14563  0.67290  0.57525 11.00000  0.04553   3.28
N02L  3  1.14312  0.92144  0.51761 11.00000  0.03457   3.25
O02M  4 -0.26471  0.00496  0.64701 11.00000  0.04349   3.24
C02N  2 -0.42234  0.12568  0.57594 11.00000  0.00010   3.22
C02O  2 -0.71029  0.44814  0.71577 11.00000  0.03534   3.18
O02P  4  1.41227  0.36132  0.31913 11.00000  0.02066   3.16
C02Q  2  0.19476  0.86632  0.38735 11.00000  0.08045   3.15
C02R  2 -0.47773  0.52988  0.64833 11.00000  0.01961   3.01
C02S  2  0.41861  0.79594  0.45560 11.00000  0.02137   3.00
HKLF 4
END
