TITL shelx03-merge_expF_1_0_expS_1_4_shelx03-merge_a.res in P1
REM Old TITL 1 in I 1 #-1
REM SHELXT solution in P1: R1 0.710, Rweak 0.288, Alpha 0.000
REM <I/s>   0.000 for    0 systematic absences,  Orientation as input
REM Flack x = -0.457 ( 0.659 ) from   227 Parsons' quotients
REM Formula found by SHELXT:  C84 N24 O21

CELL  0.71073   9.3100  15.1100  30.5000   90.000   90.000   90.000
ZERR   52.000   0.0019   0.0030   0.0061    0.000    0.000    0.000
LATT -2
SFAC H C N O ZR
UNIT 20 20 20 20 20
L.S. 10
BOND
LIST 6
FMAP 2
PLAN 20
ZR01  5  0.57792  0.29297  0.48695 11.00000  0.06010  28.34
ZR02  5  0.43958  0.29451  0.48689 11.00000  0.06554  26.52
ZR03  5  0.03951  0.29616  0.60077 11.00000  0.07775  24.99
O004  4  0.68262  0.31318  0.48365 11.00000  0.01328  21.67
O005  4  0.98917  0.31284  0.48637 11.00000  0.00010  21.10
N006  3  0.31244  0.32732  0.50483 11.00000  0.00824  19.14
O007  4  0.20361  0.45463  0.54176 11.00000  0.01788  18.77
O008  4  1.09985  0.27417  0.48481 11.00000  0.00010  17.77
N009  3  0.83797  0.29458  0.48287 11.00000  0.00939  15.96
O00A  4  0.36629  0.31484  0.60773 11.00000  0.02507  15.54
N00B  3  0.21843  0.36195  0.60463 11.00000  0.00646  13.56
N00C  3  0.38280  0.67871  0.73683 11.00000  0.00010  13.36
N00D  3  0.21543  0.51950  0.32656 11.00000  0.00010  12.69
O00E  4  0.27499  0.41967  0.53894 11.00000  0.01575  12.61
O00F  4  0.52633  0.81346  0.75183 11.00000  0.01457  11.91
O00G  4  0.68874  0.17842  0.50881 11.00000  0.04173  10.58
O00H  4  0.20127  0.13415  0.53725 11.00000  0.01198  10.49
N00I  3  0.03297  0.36786  0.60057 11.00000  0.03974   9.60
O00J  4  0.64394  0.41449  0.51310 11.00000  0.00170   9.55
O00K  4  0.17012  0.78934  0.73819 11.00000  0.00879   9.46
N00L  3  0.51072  0.71604  0.74128 11.00000  0.08757   9.41
N00M  3  0.38794  0.76480  0.72333 11.00000  0.03064   9.39
O00N  4  0.55834  0.23644  0.48804 11.00000  0.03725   9.33
C00O  2  0.27488  0.02337  0.51741 11.00000  0.01936   9.21
O00P  4  0.78798  0.47525  0.52781 11.00000  0.00093   9.08
O00Q  4  0.92554  0.90189  0.63791 11.00000  0.03107   9.06
C00R  2  0.27461  0.26574  0.60365 11.00000  0.00010   8.66
N00S  3  0.97866  0.80381  0.64120 11.00000  0.00010   8.63
O00T  4  0.45651  0.52512  0.72791 11.00000  0.00243   8.34
N00U  3 -0.33660  0.80070  0.30495 11.00000  0.00010   8.31
C00V  2 -0.02969  0.40322  0.62437 11.00000  0.01007   8.27
C00W  2  0.74656  0.06701  0.54317 11.00000  0.02809   8.26
C00X  2 -0.06978  0.82632  0.31110 11.00000  0.00010   8.18
O00Y  4  0.89254  0.37547  0.44502 11.00000  0.05878   7.86
N00Z  3  0.77096  0.95285  0.70206 11.00000  0.09604   7.80
O010  4  0.20758  0.30326  0.53042 11.00000  0.04709   7.60
N011  3 -0.29714  0.75798  0.32290 11.00000  0.03568   7.56
N012  3  0.19714  0.35052  0.35844 11.00000  0.01999   7.44
C013  2  1.11852  1.05110  0.60957 11.00000  0.00010   7.38
N014  3 -0.27875  0.29585  0.67537 11.00000  0.04224   7.20
N015  3 -0.21692  0.32270  0.64499 11.00000  0.00384   7.13
C016  2  1.28696  0.80687  0.59214 11.00000  0.01798   7.09
C017  2  0.77851  0.41497  0.51631 11.00000  0.01664   7.03
C018  2  0.25471  0.29108  0.33480 11.00000  0.04434   6.91
N019  3 -0.42130  0.51783  0.24712 11.00000  0.04049   6.72
N01A  3  0.22474  0.40606  0.46780 11.00000  0.00010   6.68
C01B  2  0.21104  0.69987  0.72579 11.00000  0.00821   6.52
C01C  2  0.77113  0.44590  0.43849 11.00000  0.03418   6.42
C01D  2  0.63866  0.97001  0.70520 11.00000  0.01167   6.41
N01E  3  1.21819  0.98156  0.63113 11.00000  0.01174   6.39
C01F  2  0.68924  0.87418  0.67590 11.00000  0.01063   6.32
C01G  2  0.45027  0.45935  0.48485 11.00000  0.00750   5.98
C01H  2  0.19837  0.47579  0.65849 11.00000  0.00010   5.98
C01I  2 -0.34789  0.31292  0.57472 11.00000  0.04578   5.96
C01J  2  0.06959  0.50649  0.34545 11.00000  0.04536   5.96
N01K  3 -0.09114  0.76345  0.31909 11.00000  0.06375   5.94
C01L  2  1.44569  0.78740  0.55939 11.00000  0.00010   5.92
C01M  2 -0.31767  0.49938  0.25892 11.00000  0.00010   5.91
C01N  2  1.00250  1.09391  0.59465 11.00000  0.02507   5.90
C01O  2 -0.51257  0.81254  0.29826 11.00000  0.02498   5.90
C01P  2  0.30514  0.47557  0.33773 11.00000  0.00737   5.86
C01Q  2  0.85419  0.33089  0.41739 11.00000  0.00227   5.82
C01R  2  0.82464  0.80890  0.69934 11.00000  0.00010   5.76
C01S  2 -0.10824  0.34687  0.56562 11.00000  0.00279   5.74
C01T  2  0.88229  0.84721  0.63789 11.00000  0.00684   5.73
C01U  2 -0.08212  0.47187  0.28831 11.00000  0.00010   5.69
C01V  2  1.05946  0.29394  0.43463 11.00000  0.00617   5.43
C01W  2  0.02154  0.84430  0.30186 11.00000  0.00010   5.39
C01X  2  0.60989  0.65275  0.47921 11.00000  0.00010   5.38
C01Y  2  0.25505  0.67109  0.75714 11.00000  0.02071   5.36
C01Z  2  1.66743  0.68196  0.56871 11.00000  0.00010   5.35
C020  2  0.33691  0.51092  0.74224 11.00000  0.01744   5.34
C021  2 -0.35241  1.00508  0.32236 11.00000  0.00010   5.32
C022  2  0.08064  0.66304  0.42274 11.00000  0.00010   5.32
C023  2  1.12123  0.78308  0.63990 11.00000  0.00576   5.29
C024  2  0.15037  0.44344  0.32263 11.00000  0.00010   5.21
C025  2  0.22710  0.59237  0.72470 11.00000  0.00010   5.15
C026  2 -0.40642  0.58387  0.24909 11.00000  0.00010   5.11
C027  2  0.23151  0.21212  0.62655 11.00000  0.01872   4.95
C028  2  1.06039  0.09009  0.45138 11.00000  0.01134   4.89
N029  3 -0.59758  1.07291  0.33237 11.00000  0.00420   4.89
O02A  4  0.87248  0.53524  0.59362 11.00000  0.05877   4.89
C02B  2  0.27715  0.67160  0.43822 11.00000  0.00354   4.89
C02C  2  0.55305  0.59631  0.43972 11.00000  0.00010   4.86
C02D  2  0.19991  0.64373  0.67034 11.00000  0.02905   4.79
C02E  2  0.35120  0.65567  0.41459 11.00000  0.01261   4.70
C02F  2  0.54820  0.54787  0.44466 11.00000  0.00010   4.69
C02G  2  0.61308  0.73653  0.45424 11.00000  0.03227   4.67
C02H  2  0.40444  0.49955  0.49839 11.00000  0.00010   4.61
C02I  2  0.78302  0.93036  0.66426 11.00000  0.00010   4.56
C02J  2 -0.24261  0.85550  0.29943 11.00000  0.00010   4.53
C02K  2  0.01242  0.58523  0.29029 11.00000  0.00010   4.49
C02L  2  0.41277  0.53334  0.44177 11.00000  0.02203   4.42
C02M  2 -0.53696  0.95922  0.29863 11.00000  0.01045   4.40
C02N  2  0.02267  0.36831  0.55098 11.00000  0.02650   4.31
C02O  2 -0.66743  0.80381  0.27071 11.00000  0.00010   4.26
N02P  3  0.01074  0.47757  0.68597 11.00000  0.00010   4.23
C02Q  2 -0.63975  0.69077  0.25457 11.00000  0.00877   4.22
C02R  2  0.51928  0.51127  0.69482 11.00000  0.11233   4.12
C02S  2  1.22672  0.96601  0.60250 11.00000  0.00010   4.11
C02T  2 -0.37690  0.70100  0.31442 11.00000  0.00010   4.11
O02U  4  0.48547  0.73890  0.40963 11.00000  0.03618   4.08
C02V  2  0.10073  0.38243  0.33591 11.00000  0.00561   4.04
C02W  2  0.46872  0.51170  0.63100 11.00000  0.02376   3.97
O02X  4  1.28588  0.83281  0.57294 11.00000  0.01245   3.94
N02Y  3 -0.23319  0.88561  0.29000 11.00000  0.00099   3.91
C02Z  2 -0.60981  0.78744  0.24484 11.00000  0.01920   3.89
C030  2  0.67915 -0.09391  0.56252 11.00000  0.00010   3.85
C031  2  0.44669  0.61512  0.48600 11.00000  0.00010   3.84
O032  4  0.91254  0.07524  0.51159 11.00000  0.02800   3.81
C033  2  1.23225  0.09175  0.39141 11.00000  0.00736   3.79
C034  2  1.02681 -0.01314  0.40704 11.00000  0.02450   3.57
C035  2  0.15737  0.50305  0.48277 11.00000  0.00010   3.55
C036  2  1.24855  0.17315  0.40310 11.00000  0.01395   3.51
C037  2  0.25632  0.40331  0.37972 11.00000  0.00258   3.49
C038  2 -0.62532  0.83920  0.30803 11.00000  0.00010   3.48
C039  2  0.68565  0.46658  0.56979 11.00000  0.00010   3.43
C03A  2  0.58546  0.00904  0.52187 11.00000  0.00179   3.42
C03B  2  0.36451  0.73958  0.40693 11.00000  0.03171   3.41
C03C  2 -0.53079  1.01831  0.32616 11.00000  0.00010   3.40
C03D  2  0.52599  0.60723  0.66052 11.00000  0.01908   3.39
C03E  2  1.23821  0.05127  0.41491 11.00000  0.00772   3.38
C03F  2 -0.19521  0.44862  0.25573 11.00000  0.01137   3.37
C03G  2  0.16376  0.55232  0.69699 11.00000  0.00010   3.36
N03H  3  0.68068  0.61160  0.74151 11.00000  0.05386   3.30
C03I  2  0.72657  0.77752  0.72034 11.00000  0.00010   3.28
N03J  3  0.39360  0.32800  0.34362 11.00000  0.00866   3.21
C03K  2  0.32287  0.21270  0.56668 11.00000  0.03894   3.16
C03L  2  0.27682  0.35322  0.41723 11.00000  0.00010   3.10
C03M  2  1.06720  0.57353  0.61756 11.00000  0.00010   3.06
C03N  2 -0.52660  0.62986  0.24286 11.00000  0.00010   3.02
C03O  2  0.68523  0.07840  0.54232 11.00000  0.00022   3.01
HKLF 4
END
