TITL shelx03-merge_expF_1_0_expS_0_9_shelx03-merge_a.res in P1
REM Old TITL 1 in I 1 #-1
REM SHELXT solution in P1: R1 0.700, Rweak 0.090, Alpha 0.000
REM <I/s>   0.000 for    0 systematic absences,  Orientation as input
REM Flack x = -0.229 ( 0.472 ) from   861 Parsons' quotients
REM Formula found by SHELXT:  C73 N30 O31

CELL  0.71073   9.3100  15.1100  30.5000   90.000   90.000   90.000
ZERR   52.000   0.0019   0.0030   0.0061    0.000    0.000    0.000
LATT -2
SFAC H C N O ZR CL
UNIT 20 20 20 20 20 0
L.S. 10
BOND
LIST 6
FMAP 2
PLAN 20
CL01  6  0.55388  0.52475  0.60012 11.00000  0.04014  20.59
CL02  6  0.53305  0.35807  0.39071 11.00000  0.04608  17.60
CL03  6  0.74592  0.23657  0.35246 11.00000  0.05389  17.46
CL04  6  0.65244  0.35115  0.38613 11.00000  0.05501  16.95
CL05  6  1.03917  0.60417  0.71733 11.00000  0.07084  16.67
CL06  6  0.53664  0.28267  0.35997 11.00000  0.06291  15.94
CL07  6  0.60876  0.22927  0.35821 11.00000  0.06280  15.75
CL08  6  0.85332  0.22440  0.32357 11.00000  0.07913  15.32
CL09  6  0.39579  0.37606  0.64926 11.00000  0.07847  14.96
CL0A  6  0.44864  0.55511  0.59280 11.00000  0.05992  14.86
CL0B  6  0.13485  0.13125  0.64776 11.00000  0.09541  14.37
CL0C  6  0.92501  0.35457  0.38797 11.00000  0.04078  13.98
CL0D  6 -0.09682  0.21397  0.64875 11.00000  0.10264  13.43
CL0E  6  0.58066  0.44959  0.60323 11.00000  0.06109  13.23
CL0F  6  0.46442  0.14359  0.65268 11.00000  0.10180  12.92
CL0G  6  1.11715  0.56296  0.70606 11.00000  0.05887  12.54
O00H  4  1.09816  0.37214  0.39730 11.00000  0.05931  12.05
N00I  3  0.27103  0.17558  0.65735 11.00000  0.03315  12.05
O00J  4  0.56738  0.55670  0.60195 11.00000  0.05725  11.97
N00K  3  0.80148  0.34758  0.39456 11.00000  0.03377  11.49
N00L  3  1.20190  0.43489  0.65626 11.00000  0.00011  11.45
O00M  4 -0.23498  0.22024  0.65840 11.00000  0.01399  11.32
O00N  4 -0.50345  0.15905  0.54512 11.00000  0.07034  11.25
O00O  4  0.90691  0.39115  0.65681 11.00000  0.02514  10.81
O00P  4  0.37288  0.22000  0.34519 11.00000  0.03214  10.54
N00Q  3  0.74062  0.35293  0.66617 11.00000  0.02414  10.47
N00R  3  0.84739  0.58781  0.32409 11.00000  0.02238  10.46
O00S  4 -0.46757  0.11273  0.54263 11.00000  0.04478  10.30
O00T  4 -0.31627  0.07014  0.54910 11.00000  0.00010  10.21
N00U  3  0.06363  0.65078  0.26161 11.00000  0.02151  10.13
O00V  4  0.67472  0.34511  0.59291 11.00000  0.06499  10.12
O00W  4  0.64507  0.12430  0.34053 11.00000  0.03404   9.83
O00X  4  0.68765  0.18176  0.61180 11.00000  0.02195   9.74
N00Y  3  0.73983  0.47281  0.63794 11.00000  0.02632   9.55
N00Z  3  0.37973  0.12576  0.68457 11.00000  0.02054   9.30
N010  3  0.74043  0.32673  0.37854 11.00000  0.04834   9.24
C011  2 -0.11248  0.15524  0.53967 11.00000  0.00010   8.97
N012  3  0.79170  0.49801  0.63471 11.00000  0.02115   8.96
O013  4  1.24269  0.36663  0.39032 11.00000  0.00276   8.83
O014  4 -0.00446  0.15097  0.65342 11.00000  0.02673   8.72
O015  4  1.20044  0.47677  0.63649 11.00000  0.00010   8.59
C016  2  0.95628  0.21087  0.30404 11.00000  0.00010   8.52
O017  4  0.88433  0.64858  0.71824 11.00000  0.00010   8.48
O018  4  0.50396  0.20440  0.61415 11.00000  0.03590   8.44
O019  4 -0.02914  0.61624  0.27097 11.00000  0.02017   8.41
O01A  4  0.20783  0.21135  0.46359 11.00000  0.03206   8.32
N01B  3  0.67869  0.53779  0.31634 11.00000  0.04359   8.27
N01C  3  0.70801  0.43786  0.60354 11.00000  0.00871   8.13
O01D  4  0.42688  0.36673  0.39415 11.00000  0.03358   8.09
O01E  4  0.53571  0.08529  0.69447 11.00000  0.03714   7.96
O01F  4  0.90725  0.15007  0.36432 11.00000  0.04728   7.93
N01G  3  0.68897  0.64013  0.31915 11.00000  0.00549   7.93
C01H  2  0.50518  0.43166  0.65109 11.00000  0.01520   7.93
O01I  4  1.16973  0.33901  0.72247 11.00000  0.02865   7.87
O01J  4  0.41240  0.09125  0.46920 11.00000  0.04828   7.85
N01K  3  0.57765  0.12429  0.67683 11.00000  0.05328   7.80
O01L  4  1.25377  0.29221  0.52279 11.00000  0.04735   7.75
O01M  4  0.96016  0.85569  0.22528 11.00000  0.05196   7.70
O01N  4  1.17702  0.58501  0.58774 11.00000  0.01606   7.51
N01O  3  0.49400  0.12329  0.39767 11.00000  0.02135   7.26
N01P  3  0.81098  0.73278  0.23749 11.00000  0.05691   7.23
N01Q  3 -0.24723  0.19458  0.52862 11.00000  0.05539   7.19
N01R  3  1.06127  0.37488  0.52143 11.00000  0.04761   7.08
O01S  4  0.93048  0.13118  0.25745 11.00000  0.04593   7.05
N01T  3  0.68582  0.33497  0.47315 11.00000  0.01780   7.01
N01U  3  1.06551  0.55883  0.59047 11.00000  0.03259   6.83
C01V  2  1.07598  0.18446  0.30940 11.00000  0.00733   6.82
C01W  2  0.25777  0.06387  0.46124 11.00000  0.01854   6.70
N01X  3  1.31305  0.53328  0.34103 11.00000  0.01350   6.68
N01Y  3  1.23581  0.57656  0.66981 11.00000  0.01524   6.68
N01Z  3  0.08315  0.20193  0.58465 11.00000  0.01990   6.58
N020  3  1.45726  0.66217  0.47593 11.00000  0.03275   6.57
N021  3  0.88557  0.72174  0.53025 11.00000  0.11155   6.53
C022  2  1.22377  0.69355  0.47079 11.00000  0.05884   6.41
C023  2  0.73531  0.32346  0.29262 11.00000  0.02527   6.34
C024  2 -0.03835  0.12668  0.69641 11.00000  0.03978   6.27
C025  2  0.69378  0.39581  0.65807 11.00000  0.01023   6.18
C026  2  0.99559  0.03946  0.58741 11.00000  0.03665   6.14
C027  2  0.58194  0.41279  0.55183 11.00000  0.05919   6.06
C028  2  1.07454  0.38517  0.70561 11.00000  0.04500   6.02
C029  2  0.75054  0.57399  0.43923 11.00000  0.02324   6.01
C02A  2 -0.31003  0.23745  0.66938 11.00000  0.03110   6.00
C02B  2  1.32750  0.58050  0.40351 11.00000  0.02268   5.98
C02C  2  0.66324  0.12899  0.37205 11.00000  0.01158   5.91
C02D  2  0.20346  0.72631  0.27982 11.00000  0.02308   5.89
C02E  2 -0.17376  0.13932  0.71003 11.00000  0.05187   5.82
C02F  2  0.04571  0.69274  0.24973 11.00000  0.06097   5.78
C02G  2  0.86627  0.45130  0.31993 11.00000  0.00010   5.74
C02H  2  1.09541  0.34673  0.65312 11.00000  0.01411   5.59
C02I  2  0.70469  0.58635  0.28424 11.00000  0.04781   5.54
C02J  2  0.09451  0.12346  0.46605 11.00000  0.00899   5.53
C02K  2  0.82453  0.67897  0.51661 11.00000  0.02028   5.46
C02L  2  1.08585  0.31540  0.32295 11.00000  0.02127   5.44
C02M  2  0.54031  0.66010  0.28711 11.00000  0.02414   5.13
C02N  2  0.24271  0.27839  0.63765 11.00000  0.00066   5.11
C02O  2  1.14763  0.53971  0.47057 11.00000  0.08737   5.06
C02P  2  1.08009  0.44233  0.69283 11.00000  0.02030   4.93
C02Q  2  1.01311  0.41385  0.62267 11.00000  0.03680   4.91
O02R  4  0.51567  0.85269  0.55965 11.00000  0.01103   4.85
C02S  2  0.75054  0.85583  0.50816 11.00000  0.00010   4.84
N02T  3  1.48507  0.83276  0.42567 11.00000  0.08843   4.81
C02U  2  0.80149  0.63269  0.53086 11.00000  0.03898   4.72
C02V  2  0.63208  0.43831  0.31664 11.00000  0.00442   4.72
C02W  2  0.88343  0.57045  0.52807 11.00000  0.01699   4.69
C02X  2  1.11145  0.13613  0.24840 11.00000  0.01786   4.59
C02Y  2  1.01384  0.44067  0.73365 11.00000  0.00582   4.59
C02Z  2  0.90785  0.40141  0.52090 11.00000  0.06942   4.56
C030  2  0.97739  0.49095  0.56662 11.00000  0.03636   4.55
C031  2  0.69799  0.06863  0.65750 11.00000  0.06066   4.50
O032  4  0.74477  0.62196  0.38359 11.00000  0.03932   4.44
C033  2  0.22825  0.20295  0.58422 11.00000  0.02693   4.37
C034  2  0.13939  0.10500  0.47684 11.00000  0.03001   4.32
C035  2  0.86055  0.56344  0.46459 11.00000  0.01479   4.24
C036  2  1.43476  0.77027  0.63836 11.00000  0.02294   4.19
C037  2  0.57804  0.67513  0.39909 11.00000  0.00010   4.18
C038  2  0.71933  0.62917  0.48600 11.00000  0.02114   4.11
N039  3 -0.03156  0.16504  0.53049 11.00000  0.05243   4.07
C03A  2  1.14322  0.19413  0.31143 11.00000  0.09152   4.06
C03B  2  0.52155  0.91838  0.55829 11.00000  0.03175   4.05
C03C  2  0.87074  0.56369  0.56789 11.00000  0.03859   4.03
C03D  2  0.16567  0.65211  0.32402 11.00000  0.00026   3.99
O03E  4  1.01168  0.94152  0.29654 11.00000  0.01973   3.94
C03F  2  1.41044  0.73199  0.48606 11.00000  0.03456   3.92
C03G  2  0.79155  0.09752  0.62647 11.00000  0.04863   3.90
C03H  2  0.62775  0.57956  0.42542 11.00000  0.03015   3.86
C03I  2  0.91840  0.06736  0.60019 11.00000  0.00592   3.72
C03J  2 -0.35406  0.01345  0.47586 11.00000  0.00415   3.69
C03K  2  0.33451  0.16494  0.61678 11.00000  0.04753   3.57
O03L  4  1.10642  0.73114  0.46019 11.00000  0.04467   3.54
C03M  2  0.14117  0.04826  0.45002 11.00000  0.02416   3.53
C03N  2  0.79893  0.55350  0.70839 11.00000  0.00010   3.45
C03O  2  0.27903  0.11789  0.45552 11.00000  0.00123   3.40
N03P  3  0.96827  0.86083  0.56601 11.00000  0.02927   3.40
C03Q  2  0.38034  0.70105  0.26851 11.00000  0.05016   3.37
C03R  2  0.37140  0.37606  0.20729 11.00000  0.04890   3.36
N03S  3  0.87259  0.56852  0.79271 11.00000  0.02074   3.31
C03T  2  1.04286  0.42450  0.52324 11.00000  0.06014   3.30
C03U  2  0.52677  0.15680  0.42502 11.00000  0.00963   3.29
C03V  2  0.44631  0.28186  0.64349 11.00000  0.01766   3.28
C03W  2  0.41184  0.40261  0.28972 11.00000  0.01029   3.21
C03X  2  0.98808  0.70003  0.50982 11.00000  0.01732   3.19
C03Y  2  1.27310  0.65573  0.47156 11.00000  0.02245   3.17
N03Z  3  1.20574  0.21352  0.31192 11.00000  0.02600   3.13
C040  2  1.37954  0.62010  0.46030 11.00000  0.02801   3.11
C041  2  1.50345  0.53701  0.37236 11.00000  0.00106   3.11
C042  2  1.23957  0.64305  0.62638 11.00000  0.00010   3.10
C043  2  1.08890  0.23979  0.26378 11.00000  0.04091   3.10
C044  2  0.81401  0.98655  0.31646 11.00000  0.05042   3.10
C045  2  0.69235  0.69893  0.27842 11.00000  0.01042   3.09
C046  2  1.03981  0.30376  0.65502 11.00000  0.00071   3.08
HKLF 4
END
