TITL shelx03-merge_expF_1_0_expS_0_6_shelx03-merge_a.res in P1
REM Old TITL 1 in I 1 #-1
REM SHELXT solution in P1: R1 0.731, Rweak 0.004, Alpha 0.000
REM <I/s>   0.000 for    0 systematic absences,  Orientation as input
REM Flack x = -0.568 ( 0.317 ) from  1332 Parsons' quotients
REM Formula found by SHELXT:  C64 N23 O34

CELL  0.71073   9.3100  15.1100  30.5000   90.000   90.000   90.000
ZERR   52.000   0.0019   0.0030   0.0061    0.000    0.000    0.000
LATT -2
SFAC H C N O ZR
UNIT 20 20 20 20 20
L.S. 10
BOND
LIST 6
FMAP 2
PLAN 20
ZR01  5  0.42996  0.79787  0.42599 11.00000  0.01559  33.24
ZR02  5  0.55112  0.78739  0.42322 11.00000  0.09319  31.95
ZR03  5  0.90193  0.78087  0.42087 11.00000  0.10568  24.89
O004  4  0.67841  0.81432  0.42416 11.00000  0.03802  22.04
N005  3  0.44308  0.83842  0.42079 11.00000  0.01510  18.59
N006  3  1.00306  0.80570  0.41484 11.00000  0.01016  16.78
C007  2  0.58506  0.85026  0.22831 11.00000  0.10380  16.21
O008  4  0.00253  0.75774  0.28201 11.00000  0.07302  15.70
O009  4  0.51608  0.75165  0.42312 11.00000  0.04869  14.73
O00A  4  0.13470  0.69986  0.32008 11.00000  0.04290  13.90
O00B  4  0.73259  0.04666  0.50961 11.00000  0.11983  12.47
C00C  2  0.22284  0.25473  0.64444 11.00000  0.01071  11.99
O00D  4  0.64287  0.63728  0.36169 11.00000  0.05120  11.67
N00E  3  0.12047  0.49794  0.53449 11.00000  0.06648  11.56
C00F  2  0.51752  0.55931  0.43407 11.00000  0.07506  11.36
O00G  4  0.24223  0.62110  0.48957 11.00000  0.04273  11.23
O00H  4 -0.11242  0.30848  0.62508 11.00000  0.09968  11.07
O00I  4  0.30545  0.88575  0.39405 11.00000  0.10571  10.70
C00J  2  0.35189  0.44971  0.61534 11.00000  0.02138  10.44
N00K  3  0.35054  0.32932  0.39184 11.00000  0.10366  10.31
C00L  2  1.05843  0.80369  0.53281 11.00000  0.08097  10.17
O00M  4  0.19190  0.48029  0.64902 11.00000  0.08054   9.98
O00N  4  0.65969  0.50371  0.41718 11.00000  0.09682   9.52
O00O  4  0.68765  0.62318  0.26905 11.00000  0.09606   9.38
N00P  3  0.27239  0.54626  0.33750 11.00000  0.07421   9.31
O00Q  4  0.06182  0.80357  0.73214 11.00000  0.12170   9.22
O00R  4  0.09811  0.34546  0.51695 11.00000  0.00914   8.91
N00S  3  0.61157  0.00604  0.49928 11.00000  0.01545   8.88
O00T  4  0.67713  0.94672  0.37302 11.00000  0.08717   8.82
O00U  4  0.16237  0.21097  0.65006 11.00000  0.02826   8.82
N00V  3  0.47330  0.79586  0.33018 11.00000  0.05437   8.56
O00W  4  0.78180  1.02573  0.40495 11.00000  0.23147   8.48
O00X  4  0.30172  0.78040  0.41993 11.00000  0.03374   8.41
O00Y  4  0.15323  0.64371  0.41817 11.00000  0.04820   8.00
N00Z  3 -0.20015  0.34017  0.34311 11.00000  0.04998   7.83
O010  4 -0.10150  1.00347  0.74603 11.00000  0.10351   7.80
O011  4  0.30788  0.79926  0.35479 11.00000  0.02326   7.77
O012  4  0.48156  0.30271  0.47135 11.00000  0.12092   7.77
O013  4 -0.06290  0.51704  0.46288 11.00000  0.04097   7.67
O014  4 -0.02067  0.72135  0.35484 11.00000  0.05906   7.63
N015  3 -0.18769  0.26141  0.34902 11.00000  0.04250   7.62
O016  4 -0.11726  0.22328  0.57876 11.00000  0.07336   7.52
O017  4  0.02864  0.91031  0.76749 11.00000  0.08339   7.51
O018  4  0.52380  0.67088  0.36935 11.00000  0.04823   7.46
N019  3  0.99714  0.83366  0.44992 11.00000  0.02747   7.44
O01A  4  0.11313  0.21747  0.58288 11.00000  0.03108   7.43
N01B  3  0.23436  0.71307  0.42408 11.00000  0.06327   7.36
N01C  3  0.29583  0.39922  0.62378 11.00000  0.07799   7.35
N01D  3  0.44788  0.07812  0.63554 11.00000  0.07143   7.34
O01E  4  0.46955  0.84386  0.36081 11.00000  0.06794   7.33
C01F  2  1.11180  0.82053  0.46259 11.00000  0.01986   7.33
N01G  3  0.55907  0.74142  0.23537 11.00000  0.14861   7.16
N01H  3  1.13729  0.88136  0.45390 11.00000  0.02470   7.04
N01I  3  0.23637  0.49715  0.46573 11.00000  0.07798   7.00
N01J  3  0.81665  0.80580  0.53788 11.00000  0.03763   6.94
C01K  2  0.13237  0.66446  0.34425 11.00000  0.02750   6.91
O01L  4  0.45832  0.56088  0.76417 11.00000  0.11806   6.90
C01M  2  1.04200  0.87128  0.45773 11.00000  0.06679   6.69
O01N  4  0.40480  0.58756  0.42336 11.00000  0.02535   6.45
C01O  2  0.60366  0.50136  0.43321 11.00000  0.05894   6.45
C01P  2  0.18280  0.18063  0.61105 11.00000  0.03542   6.32
O01Q  4  0.12487  0.56585  0.71460 11.00000  0.04797   6.24
N01R  3  0.86750  0.73855  0.51411 11.00000  0.03005   6.15
C01S  2  0.04876  0.50892  0.28649 11.00000  0.00801   6.11
C01T  2  0.73890  0.60345  0.74107 11.00000  0.04574   6.10
C01U  2  0.30546  0.76935  0.55881 11.00000  0.01315   6.04
C01V  2  0.40963  0.05714  0.64172 11.00000  0.12260   6.03
C01W  2  0.55030  0.41064  0.74659 11.00000  0.03263   6.02
C01X  2 -0.09447  0.35548  0.35321 11.00000  0.04710   5.97
C01Y  2  0.32580  0.91590  0.36176 11.00000  0.04123   5.97
C01Z  2  0.98093  0.79073  0.53439 11.00000  0.13156   5.91
C020  2  0.42237  0.09096  0.50681 11.00000  0.06494   5.82
C021  2  0.42876  0.46697  0.50377 11.00000  0.05476   5.65
O022  4  0.01553 -0.10240  0.63001 11.00000  0.14965   5.58
C023  2  0.88552  1.04029  0.41486 11.00000  0.07720   5.57
C024  2  0.30344 -0.04358  0.60098 11.00000  0.11084   5.57
C025  2  0.38501  0.81304  0.53748 11.00000  0.04266   5.56
C026  2 -0.04826  0.37139  0.50782 11.00000  0.04460   5.45
C027  2  0.56481  0.20477  0.68279 11.00000  0.05087   5.41
C028  2  0.59832  0.44542  0.59664 11.00000  0.15320   5.38
N029  3  0.88709  0.61055  0.60733 11.00000  0.04512   5.35
C02A  2  0.14641  0.52312  0.47179 11.00000  0.01861   5.21
C02B  2  0.45106  0.14801  0.37472 11.00000  0.17349   5.19
C02C  2  0.20530  0.75542  0.36923 11.00000  0.03684   5.15
O02D  4  0.66488  0.50802  0.56390 11.00000  0.03588   5.13
C02E  2 -0.13374  0.37846  0.62157 11.00000  0.01108   5.08
C02F  2  0.47614  0.36641  0.69319 11.00000  0.07754   4.97
C02G  2  0.56709  0.75200  0.53471 11.00000  0.02420   4.95
C02H  2  0.65239  0.63196  0.58047 11.00000  0.18402   4.85
N02I  3  0.49675  0.74978  0.74896 11.00000  0.02794   4.81
C02J  2 -0.17629  1.10240  0.70972 11.00000  0.04045   4.73
C02K  2  0.26387  0.36282  0.49530 11.00000  0.02807   4.62
C02L  2 -0.02264  0.41357  0.35471 11.00000  0.08968   4.56
C02M  2  0.73690  0.09920  0.51895 11.00000  0.13493   4.55
C02N  2  0.55996  0.26054  0.69802 11.00000  0.04635   4.50
C02O  2  0.40487  0.64165  0.63132 11.00000  0.03834   4.42
C02P  2  0.02752  0.57151  0.28982 11.00000  0.02651   4.36
C02Q  2  0.48972  0.17045  0.44659 11.00000  0.10924   4.29
C02R  2  0.24629  0.84938  0.69621 11.00000  0.00557   4.28
C02S  2  0.41430  0.68521  0.58118 11.00000  0.03568   4.25
C02T  2 -0.16358  0.27813  0.37909 11.00000  0.02562   4.19
C02U  2  0.62808  0.74387  0.30035 11.00000  0.01881   4.10
C02V  2  0.67553  0.78096  0.52080 11.00000  0.02938   4.07
N02W  3  0.31948  0.78054  0.66669 11.00000  0.02979   4.02
C02X  2  0.12282  0.80344  0.30230 11.00000  0.02431   4.01
C02Y  2  0.69621  0.57038  0.33611 11.00000  0.10653   3.88
C02Z  2  0.68869  0.31173  0.51009 11.00000  0.07214   3.85
N030  3  0.55831  0.75208  0.60230 11.00000  0.06002   3.72
C031  2  0.23270  0.21729  0.35980 11.00000  0.16344   3.68
N032  3  0.12910  0.24756  0.39046 11.00000  0.17803   3.67
C033  2  0.62150  0.36588  0.65640 11.00000  0.03395   3.65
C034  2  1.17074  1.06514  0.42765 11.00000  0.02988   3.51
C035  2  0.45202  0.75175  0.28335 11.00000  0.09872   3.47
C036  2 -0.01746  0.42838  0.62463 11.00000  0.04270   3.44
C037  2  0.65071  0.69989  0.54903 11.00000  0.06827   3.42
C038  2  0.42237  0.80937  0.67320 11.00000  0.04069   3.39
C039  2  0.53579  0.26025  0.66520 11.00000  0.02826   3.37
C03A  2  0.76673  0.48889  0.66872 11.00000  0.05635   3.25
C03B  2  0.98179  1.06662  0.46344 11.00000  0.01641   3.21
C03C  2  1.20015  0.80634  0.49897 11.00000  0.08008   3.14
C03D  2  0.01209  0.42101  0.65819 11.00000  0.08338   3.05
C03E  2  0.87845  0.55991  0.76625 11.00000  0.03763   3.05
C03F  2  0.55925  0.30622  0.67580 11.00000  0.12457   3.03
C03G  2  0.63943  0.79975  0.77169 11.00000  0.02326   3.02
HKLF 4
END
