TITL shelx03-merge_expF_1_5_expS_1_4_shelx03-merge_a.res in P1
REM Old TITL 1 in I 1 #-1
REM SHELXT solution in P1: R1 0.925, Rweak 0.254, Alpha 0.000
REM <I/s>   0.000 for    0 systematic absences,  Orientation as input
REM Flack x = -9.990 ( 1.774 ) from   272 Parsons' quotients
REM Formula found by SHELXT:  C37 N10 O32

CELL  0.71073   9.3100  15.1100  30.5000   90.000   90.000   90.000
ZERR   52.000   0.0019   0.0030   0.0061    0.000    0.000    0.000
LATT -2
SFAC H C N O ZR
UNIT 20 20 20 20 20
L.S. 10
BOND
LIST 6
FMAP 2
PLAN 20
ZR01  5  0.68271  0.14252  0.67910 11.00000  0.06751  27.94
ZR02  5  0.16348  0.13511  0.67401 11.00000  0.08356  24.71
O003  4  0.27054  0.13997  0.67403 11.00000  0.07477  23.92
O004  4  0.46483  0.69959  0.46566 11.00000  0.00010  22.93
O005  4  0.40259  0.66414  0.44920 11.00000  0.05864  22.19
O006  4  0.58250  0.66095  0.47112 11.00000  0.00357  21.22
O007  4  0.03426  0.16172  0.67943 11.00000  0.00228  19.81
O008  4  0.38834  0.09220  0.66763 11.00000  0.03363  19.50
O009  4  0.57844  0.63916  0.29023 11.00000  0.04780  18.95
O00A  4  0.61793  0.14369  0.78696 11.00000  0.03541  17.07
O00B  4 -0.08274  0.28888  0.75562 11.00000  0.04798  16.82
O00C  4  0.10863  0.64435  0.50805 11.00000  0.01244  16.56
C00D  2 -0.12641  0.27464  0.73145 11.00000  0.02503  15.14
O00E  4  0.65221  0.61117  0.48336 11.00000  0.05893  12.97
O00F  4  0.53468  0.83118  0.42051 11.00000  0.01656  12.57
O00G  4  1.35207  0.55962  0.60098 11.00000  0.01641  11.40
O00H  4  0.46626  0.43673  0.42881 11.00000  0.00010  10.96
C00I  2  0.60474  0.45610  0.42098 11.00000  0.00010  10.57
O00J  4  0.24039  0.26219  0.33979 11.00000  0.03575  10.32
C00K  2  0.51137  0.46329  0.23168 11.00000  0.03548   9.95
C00L  2  0.72065  0.82318  0.39224 11.00000  0.02019   9.77
O00M  4  1.15755  0.39282  0.53138 11.00000  0.04337   9.58
C00N  2  0.68835  0.77652  0.40423 11.00000  0.00010   9.40
N00O  3  0.21619  0.20036  0.34667 11.00000  0.02235   9.24
O00P  4  0.84933  0.49038  0.60830 11.00000  0.00693   9.03
C00Q  2  0.50137  0.92778  0.46450 11.00000  0.00010   8.87
O00R  4  0.11720  0.31179  0.33809 11.00000  0.00222   8.64
O00S  4  0.34048  0.49144  0.24748 11.00000  0.02624   8.45
O00T  4  0.16732  0.43534  0.38596 11.00000  0.08274   8.23
O00U  4  0.82330  0.61232  0.57457 11.00000  0.03970   8.22
O00V  4  0.77615  0.44733  0.42540 11.00000  0.02332   8.07
O00W  4 -0.06862  0.17482  0.59951 11.00000  0.03264   7.91
O00X  4 -0.13409  0.27650  0.62121 11.00000  0.02350   7.85
C00Y  2  0.26017  0.39106  0.38951 11.00000  0.00585   7.81
O00Z  4 -0.35207  0.07062  0.34154 11.00000  0.00166   7.77
C010  2  0.78852  0.51471  0.42372 11.00000  0.00010   7.69
C011  2 -0.08727  0.22917  0.60866 11.00000  0.00010   7.64
N012  3  1.07327  0.52972  0.57584 11.00000  0.02869   7.61
O013  4  0.40235  0.93177  0.45573 11.00000  0.00010   7.49
O014  4  0.87644  0.64734  0.42352 11.00000  0.00010   7.46
N015  3  0.25363  0.73107  0.53960 11.00000  0.01391   7.26
O016  4  0.60561  0.86071  0.39219 11.00000  0.05866   7.13
O017  4  0.79221  0.68906  0.41266 11.00000  0.04210   7.10
N018  3  0.17248  0.78022  0.50904 11.00000  0.05816   7.07
N019  3  0.77058  0.21090  0.22489 11.00000  0.00460   6.82
C01A  2 -0.03441  0.82682  0.36100 11.00000  0.03341   6.49
N01B  3  0.15441  0.11908  0.54777 11.00000  0.00566   6.46
C01C  2  0.61994  0.60241  0.61626 11.00000  0.04869   6.18
C01D  2  0.71661  0.72647  0.51562 11.00000  0.00010   5.90
C01E  2  0.76250  0.28456  0.21304 11.00000  0.02768   5.83
C01F  2 -0.23109  0.19266  0.36468 11.00000  0.00154   5.78
C01G  2  0.70728  0.53052  0.62004 11.00000  0.00010   5.78
C01H  2  1.13412  0.48159  0.60039 11.00000  0.00010   5.56
N01I  3  0.89650  0.49418  0.77434 11.00000  0.07119   5.33
C01J  2  0.41247  0.64637  0.52327 11.00000  0.00010   5.13
O01K  4  0.78887  0.61959  0.35753 11.00000  0.05055   4.97
O01L  4  0.57564  0.28314  0.70599 11.00000  0.06054   4.56
C01M  2  0.71693  0.39892  0.22978 11.00000  0.01915   4.52
C01N  2  0.95259  0.55804  0.37957 11.00000  0.00215   4.42
C01O  2  0.92752  0.33006  0.47317 11.00000  0.00010   4.29
C01P  2  0.65157  0.45545  0.62365 11.00000  0.01354   4.28
C01Q  2  0.69570  0.87691  0.54682 11.00000  0.02560   4.19
C01R  2  0.21029  0.52372  0.39108 11.00000  0.03569   4.16
C01S  2  0.21397  0.35233  0.66539 11.00000  0.00010   4.05
C01T  2  0.14079  0.17382  0.33323 11.00000  0.00302   3.91
C01U  2  0.46458  0.74833  0.59742 11.00000  0.04529   3.89
N01V  3  0.46630  0.31191  0.62387 11.00000  0.00841   3.70
C01W  2  0.37811  0.21006  0.34092 11.00000  0.00010   3.55
C01X  2  0.06457  0.53153  0.44909 11.00000  0.01502   3.49
C01Y  2  0.65693  0.37613  0.68486 11.00000  0.00010   3.42
O01Z  4 -0.13975  0.08566  0.42785 11.00000  0.01932   3.42
C020  2  0.21912  0.88996  0.42945 11.00000  0.02488   3.42
C021  2  0.12015  0.06823  0.40082 11.00000  0.02482   3.42
C022  2  0.11327  0.37229  0.74289 11.00000  0.00863   3.40
C023  2  0.66194  0.42162  0.77076 11.00000  0.06403   3.36
C024  2  0.58763  0.84953  0.61222 11.00000  0.00010   3.32
C025  2  0.87862  0.85694  0.56309 11.00000  0.00374   3.31
N026  3 -0.23117  0.32576  0.56351 11.00000  0.04383   3.28
C027  2 -0.28141  0.10434  0.41414 11.00000  0.00475   3.27
N028  3  0.06190  0.82769  0.37407 11.00000  0.01302   3.26
C029  2 -0.20748  0.19248  0.42723 11.00000  0.00010   3.02
HKLF 4
END
