TITL shelx03-merge_expF_1_3_expS_0_7_shelx03-merge_a.res in P1
REM Old TITL 1 in I 1 #-1
REM SHELXT solution in P1: R1 0.869, Rweak 0.133, Alpha 0.000
REM <I/s>   0.000 for    0 systematic absences,  Orientation as input
REM Flack x = -9.990 ( 1.170 ) from  1086 Parsons' quotients
REM Formula found by SHELXT:  C39 N23 O50

CELL  0.71073   9.3100  15.1100  30.5000   90.000   90.000   90.000
ZERR   52.000   0.0019   0.0030   0.0061    0.000    0.000    0.000
LATT -2
SFAC H C N O ZR
UNIT 20 20 20 20 20
L.S. 10
BOND
LIST 6
FMAP 2
PLAN 20
ZR01  5 -0.10578  0.90773  0.43624 11.00000  0.05640  25.30
O002  4  0.13747  0.90759  0.43693 11.00000  0.01363  23.88
O003  4  0.02312  0.89181  0.43312 11.00000  0.04976  23.05
O004  4  0.00525  0.48138  0.65648 11.00000  0.07783  22.66
O005  4  0.13320  0.48158  0.64090 11.00000  0.01521  22.40
N006  3  0.41820  0.42679  0.60612 11.00000  0.10982  21.47
O007  4 -0.24510  0.90857  0.43655 11.00000  0.02018  21.44
O008  4  0.27351  0.67772  0.57261 11.00000  0.03301  21.40
O009  4  0.60249  0.50562  0.62001 11.00000  0.08992  21.07
O00A  4  0.73024  0.52962  0.49034 11.00000  0.01220  20.64
O00B  4  0.28855  0.71710  0.59301 11.00000  0.05331  20.54
O00C  4  0.85194  0.54159  0.47651 11.00000  0.08392  19.50
O00D  4  0.29261  0.90147  0.42695 11.00000  0.00145  19.45
O00E  4  0.27059  0.39851  0.63464 11.00000  0.15186  19.33
O00F  4  0.21034  0.32670  0.59605 11.00000  0.03593  18.30
O00G  4  0.21646  0.37566  0.58813 11.00000  0.00990  18.27
O00H  4  0.63542  0.45569  0.61204 11.00000  0.03666  18.21
O00I  4 -0.34326  0.89832  0.42875 11.00000  0.00168  16.48
O00J  4  0.45890  0.89011  0.43914 11.00000  0.00533  15.94
O00K  4  0.40395  0.51749  0.36170 11.00000  0.02605  12.84
O00L  4  0.53921  0.51257  0.51768 11.00000  0.00010  12.17
O00M  4  0.80762  0.39897  0.61715 11.00000  0.05724  11.78
N00N  3  0.36578  0.39316  0.37653 11.00000  0.02300  11.52
O00O  4  0.47000  0.50005  0.62863 11.00000  0.06190  11.46
O00P  4  0.21844  0.43926  0.64008 11.00000  0.01796  11.23
O00Q  4 -0.15125  0.53500  0.66439 11.00000  0.02461  11.10
N00R  3 -0.20083  0.66398  0.69014 11.00000  0.00699  10.80
O00S  4  0.27431  0.66373  0.23372 11.00000  0.03482  10.74
O00T  4  0.62376  0.50307  0.74060 11.00000  0.03460  10.56
O00U  4  0.21661  0.57806  0.64647 11.00000  0.10001  10.48
O00V  4  0.16586  0.49220  0.51440 11.00000  0.01673  10.46
N00W  3  0.39708  0.40755  0.41074 11.00000  0.01972  10.01
O00X  4  0.74226  0.40503  0.53012 11.00000  0.03171  10.00
O00Y  4  0.43153  0.57444  0.59085 11.00000  0.08990   9.94
O00Z  4  0.85940  0.32302  0.54392 11.00000  0.12935   9.78
N010  3  0.26598  0.44064  0.22301 11.00000  0.01633   9.70
N011  3  0.21091  0.34509  0.22838 11.00000  0.09403   9.56
N012  3  0.26510  0.53684  0.43933 11.00000  0.03931   9.20
O013  4  0.31026  0.39111  0.21743 11.00000  0.05926   9.07
O014  4  0.35450  0.53896  0.52948 11.00000  0.03937   8.94
O015  4  0.09315  0.54305  0.44780 11.00000  0.05869   8.91
O016  4 -0.13038  0.63573  0.70387 11.00000  0.07533   8.91
N017  3  0.26472  0.38197  0.39486 11.00000  0.03315   8.84
O018  4  0.77119  0.29947  0.67414 11.00000  0.01926   8.45
O019  4  0.44872  0.80537  0.44207 11.00000  0.00010   8.45
C01A  2  0.12959  0.56121  0.37899 11.00000  0.03586   8.34
C01B  2  1.02610  0.20517  0.49554 11.00000  0.04805   8.34
O01C  4  0.50613  0.28816  0.65189 11.00000  0.02034   8.31
O01D  4  0.24169  0.49972  0.24411 11.00000  0.04070   8.25
O01E  4  0.56878  0.61407  0.64033 11.00000  0.00713   7.88
N01F  3  0.27271  0.62151  0.23275 11.00000  0.00400   7.87
N01G  3  0.17932  0.41918  0.40152 11.00000  0.09175   7.85
O01H  4 -0.13470  0.25446  0.25924 11.00000  0.02146   7.76
O01I  4  0.03067  0.70000  0.62614 11.00000  0.01505   7.71
O01J  4 -0.31260  0.67349  0.69859 11.00000  0.11271   7.64
O01K  4  0.30705  0.52914  0.71400 11.00000  0.05342   7.41
N01L  3 -0.13960  0.31425  0.27242 11.00000  0.00010   7.14
O01M  4  0.48066  0.41109  0.36313 11.00000  0.05389   6.98
O01N  4  0.21747  0.70858  0.38304 11.00000  0.04732   6.96
N01O  3  0.73993  0.64977  0.62369 11.00000  0.04528   6.84
N01P  3  0.75661  0.67937  0.56629 11.00000  0.00602   6.84
N01Q  3  0.56275  0.19897  0.38623 11.00000  0.03852   6.78
N01R  3  0.67476  0.41712  0.33014 11.00000  0.02436   6.77
C01S  2  0.78861  0.34143  0.69690 11.00000  0.02890   6.72
N01T  3  0.39671  0.47653  0.43603 11.00000  0.01627   6.67
N01U  3  0.79638  0.20905  0.39910 11.00000  0.04638   6.59
C01V  2  0.06657  0.27518  0.28728 11.00000  0.00586   6.36
C01W  2  0.81666  0.40831  0.73122 11.00000  0.00656   6.27
O01X  4  0.64851  0.63794  0.47463 11.00000  0.05533   6.27
C01Y  2  0.05067  0.43078  0.30704 11.00000  0.01954   6.18
C01Z  2  0.57805  0.19849  0.35453 11.00000  0.00010   6.16
N020  3  0.44651  0.91102  0.54940 11.00000  0.06336   6.14
C021  2  0.49884  0.30276  0.38492 11.00000  0.01872   6.12
C022  2  0.53941  0.68719  0.44352 11.00000  0.00682   6.02
C023  2  0.08763  0.21215  0.66679 11.00000  0.02379   5.95
C024  2  0.49435  0.73774  0.51310 11.00000  0.00010   5.68
N025  3  0.02129  0.40496  0.80942 11.00000  0.08413   5.66
C026  2  0.64922  0.41448  0.36361 11.00000  0.05164   5.62
C027  2  0.29803  0.65925  0.45600 11.00000  0.00708   5.46
C028  2  0.52588  0.22102  0.64624 11.00000  0.03205   5.25
C029  2  0.62156  0.57941  0.62255 11.00000  0.06894   5.22
O02A  4  0.03030  0.65333  0.42667 11.00000  0.01721   5.21
O02B  4 -0.17323  0.18223  0.19720 11.00000  0.02666   5.16
C02C  2  0.60655  0.23985  0.37115 11.00000  0.01994   5.09
N02D  3  0.65070  0.48020  0.33191 11.00000  0.03421   4.90
C02E  2  0.09839  0.22713  0.26357 11.00000  0.04349   4.83
C02F  2  0.12944  0.44963  0.19004 11.00000  0.00101   4.70
O02G  4  0.17411  0.17960  0.65123 11.00000  0.04089   4.66
C02H  2  1.28153  0.21867  0.42075 11.00000  0.06383   4.64
C02I  2 -0.00426  0.59994  0.39167 11.00000  0.11058   4.61
C02J  2  1.08274  0.24573  0.51506 11.00000  0.02050   4.56
N02K  3 -0.08358  0.40614  0.32216 11.00000  0.12086   4.54
C02L  2  0.37278  0.62189  0.23891 11.00000  0.00137   4.47
C02M  2  0.19002  0.63450  0.43290 11.00000  0.08121   4.47
C02N  2  0.03725  0.33307  0.67933 11.00000  0.08113   4.40
C02O  2  0.82407  0.57764  0.60439 11.00000  0.00891   4.34
C02P  2  0.58289  0.41814  0.76933 11.00000  0.04722   4.20
N02Q  3  1.07958  0.15370  0.46955 11.00000  0.03327   4.14
C02R  2 -0.16830  0.68903  0.70839 11.00000  0.04419   4.13
C02S  2  0.48033  0.37122  0.80996 11.00000  0.02568   4.12
C02T  2  0.09427  0.53067  0.34050 11.00000  0.00010   4.07
C02U  2  0.29889  0.38544  0.79232 11.00000  0.09826   3.95
N02V  3  0.77877  0.93255  0.54750 11.00000  0.00763   3.76
C02W  2 -0.10738  0.53513  0.26902 11.00000  0.04667   3.58
C02X  2  0.22844  0.19504  0.72137 11.00000  0.04087   3.56
O02Y  4  1.34326  0.23652  0.52240 11.00000  0.05699   3.53
C02Z  2  0.83621  0.17311  0.49292 11.00000  0.00817   3.43
C030  2  0.82494  0.06745  0.37899 11.00000  0.00344   3.33
C031  2  1.14828  0.20818  0.52033 11.00000  0.01176   3.21
C032  2  0.72586  0.08591  0.31617 11.00000  0.04800   3.19
C033  2 -0.23643  0.21793  0.21119 11.00000  0.00847   3.11
C034  2  0.56595  0.42506  0.80706 11.00000  0.09380   3.10
C035  2 -0.23349  0.84737  0.37040 11.00000  0.00660   3.08
HKLF 4
END
