TITL shelx03-merge_expF_1_2_expS_1_2_shelx03-merge_a.res in P1
REM Old TITL 1 in I 1 #-1
REM SHELXT solution in P1: R1 0.803, Rweak 0.180, Alpha 0.000
REM <I/s>   0.000 for    0 systematic absences,  Orientation as input
REM Flack x = -1.661 ( 0.767 ) from   414 Parsons' quotients
REM Formula found by SHELXT:  C49 N13 O29

CELL  0.71073   9.3100  15.1100  30.5000   90.000   90.000   90.000
ZERR   52.000   0.0019   0.0030   0.0061    0.000    0.000    0.000
LATT -2
SFAC H C N O ZR CL
UNIT 20 20 20 20 20 0
L.S. 10
BOND
LIST 6
FMAP 2
PLAN 20
CL01  6 -0.37958  0.57000  0.27374 11.00000  0.03273  21.50
CL02  6 -0.50735  0.59936  0.27531 11.00000  0.03666  20.22
CL03  6  0.01366  0.58616  0.27304 11.00000  0.05560  19.93
CL04  6  0.29253  0.59533  0.27679 11.00000  0.06124  19.02
CL05  6 -0.10695  0.59011  0.27333 11.00000  0.06045  18.50
CL06  6 -0.08940  0.58507  0.39431 11.00000  0.03265  17.42
CL07  6  0.08998  0.62974  0.54385 11.00000  0.03173  15.79
CL08  6  0.03535  0.55437  0.38259 11.00000  0.04038  15.36
CL09  6  0.14659  0.57539  0.27187 11.00000  0.06478  15.03
CL0A  6 -0.23325  0.59606  0.27057 11.00000  0.06078  14.60
CL0B  6  0.30811  0.57872  0.53631 11.00000  0.03975  12.97
N00C  3  0.20943  0.65229  0.55445 11.00000  0.00010  12.43
C00D  2  1.68946  0.22251  0.84254 11.00000  0.00010  11.36
C00E  2  0.86732  0.60083  0.64146 11.00000  0.02166  11.24
O00F  4 -0.32079  0.49617  0.42200 11.00000  0.08716  11.16
O00G  4 -0.18994  0.63756  0.40947 11.00000  0.00433  10.86
C00H  2 -0.43114  0.69434  0.29834 11.00000  0.00010  10.82
CL0I  6  1.55511  0.24939  0.83207 11.00000  0.08266  10.67
O00J  4 -0.20454  0.54943  0.44038 11.00000  0.00010  10.41
O00K  4  0.00061  0.09449  0.43068 11.00000  0.03888  10.18
O00L  4  0.82586  0.55203  0.65648 11.00000  0.05316   9.93
C00M  2  0.36045  0.10804  0.47828 11.00000  0.00839   9.57
O00N  4 -0.14840  0.41278  0.42435 11.00000  0.02667   9.56
N00O  3  0.40466  0.12511  0.46227 11.00000  0.00732   9.39
O00P  4  0.07098  0.73039  0.53202 11.00000  0.00612   9.12
O00Q  4  0.13549  0.47518  0.41142 11.00000  0.00212   9.08
O00R  4  0.96599  0.44741  0.61685 11.00000  0.00264   8.96
O00S  4  0.21204  0.14952  0.49566 11.00000  0.01842   8.88
O00T  4  1.22598  0.39064  0.74108 11.00000  0.02286   8.75
C00U  2  1.51251  0.47407  0.71913 11.00000  0.00010   8.52
O00V  4  0.26671  0.40265  0.54777 11.00000  0.04894   8.51
N00W  3  0.49619  0.17579  0.48730 11.00000  0.01109   8.48
O00X  4 -0.07795  0.51565  0.44866 11.00000  0.01967   8.32
O00Y  4  0.19646  0.59709  0.20680 11.00000  0.00010   8.23
O00Z  4 -0.68946  0.61045  0.40261 11.00000  0.01040   8.20
O010  4  0.32758  0.86143  0.46286 11.00000  0.00478   8.09
O011  4  0.04588  0.59353  0.48384 11.00000  0.00587   7.98
O012  4  1.00657  0.55460  0.61200 11.00000  0.00275   7.87
O013  4  1.45181  0.34112  0.78125 11.00000  0.05576   7.83
C014  2  1.18467  0.63913  0.68617 11.00000  0.00426   7.79
O015  4  0.61370  0.14380  0.47642 11.00000  0.09418   7.77
O016  4 -0.03385  0.34558  0.40609 11.00000  0.00334   7.74
O017  4  0.77739  0.10520  0.46138 11.00000  0.04310   7.69
O018  4  0.31609  0.75466  0.54148 11.00000  0.02899   7.63
O019  4  0.01248  0.36940  0.48877 11.00000  0.00010   7.47
N01A  3 -0.27208  0.38588  0.30510 11.00000  0.02482   7.36
N01B  3  0.32991  0.79940  0.53943 11.00000  0.00361   7.20
N01C  3 -0.23032  0.69135  0.38018 11.00000  0.03070   6.97
N01D  3  0.13682  0.44089  0.34532 11.00000  0.03022   6.93
N01E  3  0.25376  0.48281  0.48994 11.00000  0.00010   6.85
O01F  4  0.10635  0.19114  0.44727 11.00000  0.00010   6.74
N01G  3  0.45251  0.35346  0.53930 11.00000  0.02212   6.58
C01H  2  0.42210  0.85426  0.49530 11.00000  0.05664   6.45
C01I  2 -0.57875  0.46139  0.29570 11.00000  0.02055   6.45
C01J  2  0.58241  0.56807  0.64981 11.00000  0.10737   6.43
C01K  2 -0.12128  0.83287  0.61055 11.00000  0.04871   6.41
C01L  2  0.11375  0.52208  0.19701 11.00000  0.03406   6.33
C01M  2 -0.26353  0.44155  0.32861 11.00000  0.00952   6.05
C01N  2  0.44609  0.65268  0.60543 11.00000  0.00010   5.96
C01O  2 -0.03551  0.33195  0.45243 11.00000  0.02211   5.95
C01P  2  0.44819  0.33905  0.42424 11.00000  0.00010   5.92
C01Q  2  0.07286  0.37006  0.17070 11.00000  0.01179   5.57
C01R  2  1.16460  0.75201  0.68212 11.00000  0.03204   5.36
N01S  3  0.23411  0.42294  0.40510 11.00000  0.04995   5.17
O01T  4 -0.57094  0.75399  0.31372 11.00000  0.01956   5.17
N01U  3  0.70571  0.15108  0.35125 11.00000  0.00010   5.15
C01V  2 -0.54266  0.62587  0.41979 11.00000  0.02608   5.13
C01W  2  0.09197  0.82902  0.55656 11.00000  0.00010   5.06
O01X  4  0.43764  0.26174  0.42614 11.00000  0.04163   4.91
C01Y  2  0.10488  0.33785  0.38740 11.00000  0.00010   4.87
O01Z  4  1.35965  0.49076  0.72315 11.00000  0.02957   4.66
C020  2  0.39149  0.45398  0.49795 11.00000  0.00010   4.42
C021  2  0.39961  0.63372  0.49096 11.00000  0.00987   4.39
C022  2 -0.42708  0.41162  0.30278 11.00000  0.06640   4.37
C023  2 -0.31890  0.37510  0.31636 11.00000  0.00010   4.33
C024  2  0.61778  0.10271  0.52414 11.00000  0.02943   4.21
C025  2  0.13159  0.27295  0.18909 11.00000  0.00827   4.18
C026  2  0.58751  0.38910  0.54130 11.00000  0.03466   4.09
C027  2  1.44797  0.28360  0.77288 11.00000  0.01767   4.00
C028  2  0.26200  0.16292  0.45247 11.00000  0.00010   3.90
O029  4  1.27184  0.61084  0.68713 11.00000  0.05328   3.89
C02A  2  0.37895  0.51536  0.57710 11.00000  0.00106   3.84
C02B  2 -0.57977  0.66172  0.35582 11.00000  0.01716   3.78
C02C  2  1.08233  0.52054  0.69464 11.00000  0.00010   3.74
C02D  2 -0.48675  0.87421  0.31634 11.00000  0.03599   3.72
C02E  2  1.23563  0.45658  0.69287 11.00000  0.00010   3.70
C02F  2  0.87257  0.13692  0.58274 11.00000  0.00010   3.57
C02G  2  0.53897  0.97833  0.47478 11.00000  0.00010   3.51
C02H  2  0.57462  0.69366  0.62505 11.00000  0.00042   3.49
C02I  2 -0.25567  0.44241  0.23224 11.00000  0.00745   3.41
C02J  2  0.66224  0.37951  0.56269 11.00000  0.02007   3.37
C02K  2  0.65279  0.28608  0.51641 11.00000  0.00760   3.34
N02L  3  0.03293  0.41108  0.15746 11.00000  0.02234   3.33
C02M  2  1.11038  0.41153  0.67655 11.00000  0.00010   3.29
C02N  2  0.99805  0.02167  0.58313 11.00000  0.00663   3.25
C02O  2 -0.39057  0.59087  0.36721 11.00000  0.00010   3.22
N02P  3  0.13065  0.26876  0.21801 11.00000  0.02983   3.17
C02Q  2  0.33804  0.39349  0.40106 11.00000  0.01531   3.12
C02R  2  0.01556  0.60765  0.19800 11.00000  0.00020   3.07
C02S  2 -0.26793  0.73668  0.32416 11.00000  0.00010   3.05
C02T  2  1.52869  0.44229  0.76881 11.00000  0.04391   3.03
C02U  2  0.76003  0.29277  0.57771 11.00000  0.02718   3.03
C02V  2  1.08952  0.07726  0.58412 11.00000  0.02197   3.00
HKLF 4
END
