TITL shelx03-merge_expF_1_2_expS_1_3_shelx03-merge_a.res in P1
REM Old TITL 1 in I 1 #-1
REM SHELXT solution in P1: R1 0.798, Rweak 0.197, Alpha 0.000
REM <I/s>   0.000 for    0 systematic absences,  Orientation as input
REM Flack x = -9.990 ( 1.718 ) from   427 Parsons' quotients
REM Formula found by SHELXT:  C56 N14 O16

CELL  0.71073   9.3100  15.1100  30.5000   90.000   90.000   90.000
ZERR   52.000   0.0019   0.0030   0.0061    0.000    0.000    0.000
LATT -2
SFAC H C N O ZR CL
UNIT 20 20 20 20 20 0
L.S. 10
BOND
LIST 6
FMAP 2
PLAN 20
CL01  6 -0.05464  0.64339  0.37756 11.00000  0.04740  17.29
CL02  6  0.62392  0.62909  0.37730 11.00000  0.04589  15.67
CL03  6  0.50887  0.62910  0.37585 11.00000  0.04830  14.78
CL04  6  0.09186  0.61463  0.37865 11.00000  0.05363  14.76
O005  4  0.22481  0.62534  0.36768 11.00000  0.01339  12.19
O006  4  0.70214  0.59234  0.66662 11.00000  0.00010  11.27
O007  4  0.39769  0.60663  0.38065 11.00000  0.01822  10.59
N008  3  0.65720  0.61785  0.25980 11.00000  0.00620  10.18
O009  4  0.92874  0.63252  0.25339 11.00000  0.03520  10.03
N00A  3  0.74143  0.62973  0.37888 11.00000  0.00282   9.52
O00B  4 -0.01654  0.61858  0.58403 11.00000  0.01396   9.44
C00C  2  0.64997  0.63785  0.66465 11.00000  0.00010   9.30
O00D  4  0.74514  0.50769  0.65788 11.00000  0.01244   8.80
O00E  4 -0.06983  0.43236  0.38072 11.00000  0.02980   8.12
O00F  4  0.86311  0.61979  0.66317 11.00000  0.02111   7.74
O00G  4  0.27607  0.44672  0.32674 11.00000  0.05250   7.55
N00H  3  0.82260  0.54825  0.66578 11.00000  0.00010   7.53
C00I  2 -0.19732  0.26081  0.42782 11.00000  0.00010   7.49
O00J  4  0.55259  0.65174  0.25740 11.00000  0.02280   7.27
N00K  3 -0.11148  0.52167  0.39118 11.00000  0.00022   7.08
N00L  3  0.74233  0.50430  0.31243 11.00000  0.00242   6.99
N00M  3  0.04406  0.56498  0.58209 11.00000  0.01216   6.91
N00N  3  0.46172  0.66980  0.48426 11.00000  0.00010   6.80
N00O  3  0.34755  0.11828  0.54151 11.00000  0.00196   6.64
O00P  4  1.08155  0.64328  0.20784 11.00000  0.07483   6.55
N00Q  3  0.37681  0.67082  0.30653 11.00000  0.07973   6.54
C00R  2  0.44334  0.13970  0.55484 11.00000  0.00010   6.46
O00S  4 -0.18192  0.84148  0.31744 11.00000  0.04913   6.32
O00T  4  0.17248  0.63798  0.64231 11.00000  0.03264   6.31
C00U  2  0.22605  0.77462  0.32573 11.00000  0.00010   6.22
C00V  2  0.76504  0.58705  0.25155 11.00000  0.00103   6.21
O00W  4  0.36740  0.76636  0.42813 11.00000  0.02859   6.14
C00X  2  0.12700  0.79567  0.32876 11.00000  0.08153   5.84
C00Y  2  0.58948  0.61813  0.46958 11.00000  0.00010   5.67
C00Z  2  0.29661  0.57878  0.68177 11.00000  0.03903   5.64
C010  2  0.12628  0.50878  0.57463 11.00000  0.01843   5.59
C011  2  0.29399  0.05603  0.54330 11.00000  0.04358   5.56
C012  2  1.28496  0.61191  0.20844 11.00000  0.01288   5.44
C013  2 -0.02842  0.18914  0.42707 11.00000  0.02561   5.43
C014  2  0.78070  0.67405  0.25178 11.00000  0.01731   5.38
C015  2  0.60029  0.52491  0.31585 11.00000  0.03227   5.32
C016  2  0.33392  0.63053  0.47830 11.00000  0.00996   5.28
C017  2 -0.16412  0.72912  0.38567 11.00000  0.00697   5.27
C018  2  1.05979  0.35978  0.73439 11.00000  0.00010   5.21
C019  2  0.33947  0.61052  0.60402 11.00000  0.02293   5.18
C01A  2  0.48782  0.60965  0.49106 11.00000  0.01461   5.12
C01B  2  0.52030  0.50629  0.70186 11.00000  0.03555   5.11
N01C  3  0.80632  0.30082  0.67247 11.00000  0.03531   5.10
C01D  2  0.64279  0.48314  0.66887 11.00000  0.02107   5.08
C01E  2 -0.13046  0.79379  0.31836 11.00000  0.01456   5.04
C01F  2  0.35685  0.55980  0.70224 11.00000  0.03769   5.03
O01G  4 -0.28496  0.27501  0.43740 11.00000  0.02501   4.92
C01H  2  0.13891  0.37165  0.57544 11.00000  0.00010   4.91
C01I  2 -0.01188  0.94349  0.64476 11.00000  0.00010   4.81
C01J  2  0.36103  0.00824  0.55017 11.00000  0.00010   4.72
C01K  2  0.15361  0.42952  0.53620 11.00000  0.00850   4.67
C01L  2 -0.16954  0.99176  0.63502 11.00000  0.04344   4.56
C01M  2 -0.02414  0.82906  0.58618 11.00000  0.00010   4.52
C01N  2  0.48632  0.61796  0.72402 11.00000  0.01247   4.50
C01O  2  0.46395  0.72570  0.42305 11.00000  0.01267   4.47
C01P  2  0.48935  0.03988  0.56955 11.00000  0.00277   4.45
C01Q  2  0.33700  0.72116  0.50137 11.00000  0.00944   4.45
C01R  2  0.86782  0.48157  0.70752 11.00000  0.01142   4.39
N01S  3  0.35451  0.27748  0.28610 11.00000  0.00551   4.33
C01T  2  0.15433  0.88253  0.62146 11.00000  0.01965   4.32
C01U  2 -0.03018  0.23557  0.41589 11.00000  0.03185   4.28
C01V  2 -0.06865  0.90456  0.68386 11.00000  0.01732   4.28
C01W  2  0.18412  0.80294  0.48747 11.00000  0.00010   4.25
C01X  2  0.49705  0.91590  0.42073 11.00000  0.00010   4.22
C01Y  2  0.56590  0.46088  0.71710 11.00000  0.01140   4.15
C01Z  2  0.08004  0.38447  0.37259 11.00000  0.00289   4.12
C020  2  0.10881  0.33298  0.41091 11.00000  0.04788   4.10
N021  3  0.31327  0.42499  0.51294 11.00000  0.03553   4.08
C022  2  0.19361  0.30769  0.58390 11.00000  0.03256   3.90
O023  4  0.33345  0.76256  0.32850 11.00000  0.08239   3.88
C024  2  0.11659  0.87932  0.66001 11.00000  0.01272   3.87
C025  2  0.19727  0.36745  0.39063 11.00000  0.00010   3.78
C026  2  0.10997  0.86210  0.45987 11.00000  0.00010   3.74
C027  2  0.09994  0.29302  0.60709 11.00000  0.01203   3.73
C028  2  0.41395  0.38229  0.57908 11.00000  0.02649   3.70
C029  2  0.09436  0.71077  0.33468 11.00000  0.03168   3.42
C02A  2 -0.17849  0.18198  0.45712 11.00000  0.00010   3.40
N02B  3  0.32322  0.53603  0.79216 11.00000  0.05479   3.39
C02C  2  0.48684  0.71389  0.65564 11.00000  0.03087   3.32
C02D  2  0.52638  0.42513  0.61006 11.00000  0.00010   3.24
C02E  2  0.56067  0.77069  0.31259 11.00000  0.04389   3.24
N02F  3 -0.00216  0.34910  0.41753 11.00000  0.12219   3.24
C02G  2 -0.17032  0.91456  0.68737 11.00000  0.00010   3.20
C02H  2  0.46907  0.44625  0.48909 11.00000  0.04976   3.10
C02I  2  0.27069  0.76407  0.66459 11.00000  0.00010   3.01
HKLF 4
END
