TITL shelx03-merge_expF_1_2_expS_0_5_shelx03-merge_a.res in P1
REM Old TITL 1 in I 1 #-1
REM SHELXT solution in P1: R1 0.845, Rweak 0.141, Alpha 0.000
REM <I/s>   0.000 for    0 systematic absences,  Orientation as input
REM Flack x = -3.167 ( 0.423 ) from  1272 Parsons' quotients
REM Formula found by SHELXT:  C51 N20 O25

CELL  0.71073   9.3100  15.1100  30.5000   90.000   90.000   90.000
ZERR   52.000   0.0019   0.0030   0.0061    0.000    0.000    0.000
LATT -2
SFAC H C N O ZR CL
UNIT 20 20 20 20 20 0
L.S. 10
BOND
LIST 6
FMAP 2
PLAN 20
CL01  6  0.43904  0.41356  0.32613 11.00000  0.08015  19.36
CL02  6  0.97688  0.42450  0.32311 11.00000  0.10019  18.64
CL03  6  0.59585  0.40683  0.31991 11.00000  0.03736  18.40
CL04  6  0.83055  0.40233  0.32040 11.00000  0.05066  18.13
CL05  6  1.19471  0.40802  0.32299 11.00000  0.06390  17.56
O006  4  0.86711  0.42221  0.44688 11.00000  0.04149  16.92
CL07  6  1.09111  0.42579  0.32327 11.00000  0.04316  16.25
CL08  6 -0.24992  0.45346  0.58217 11.00000  0.06459  15.39
CL09  6  0.46412  0.45159  0.67850 11.00000  0.07114  14.73
CL0A  6  0.01847  0.32531  0.58488 11.00000  0.05107  14.16
CL0B  6 -0.08931  0.37281  0.59541 11.00000  0.09143  12.67
CL0C  6  0.69861  0.39230  0.31380 11.00000  0.08571  12.55
O00D  4  0.74632  0.77295  0.24586 11.00000  0.03732  12.40
O00E  4  0.35356  0.60701  0.55170 11.00000  0.01865  10.62
O00F  4  0.30681  0.26300  0.56436 11.00000  0.02682  10.58
C00G  2 -0.31477  0.35716  0.65302 11.00000  0.11202  10.46
C00H  2  0.76477  0.40178  0.45136 11.00000  0.12067  10.33
C00I  2  0.81817  0.92305  0.38138 11.00000  0.01701  10.29
O00J  4 -0.01999  0.49897  0.57745 11.00000  0.06731   9.86
C00K  2  0.55809  0.38634  0.44910 11.00000  0.07321   9.67
O00L  4  0.50241  0.78590  0.51458 11.00000  0.04539   9.59
C00M  2 -0.42421  0.07568  0.67132 11.00000  0.06259   9.42
O00N  4  0.05425  0.29229  0.61333 11.00000  0.02791   9.30
N00O  3  0.23988  0.35922  0.67521 11.00000  0.14840   9.27
O00P  4 -0.17794  0.40931  0.64482 11.00000  0.07259   9.27
O00Q  4  0.14223  0.45116  0.61440 11.00000  0.07655   9.19
O00R  4  0.40670  0.38763  0.67147 11.00000  0.13614   9.07
N00S  3  0.75121  0.65458  0.58573 11.00000  0.07878   8.81
N00T  3  0.81778  0.86344  0.37447 11.00000  0.07541   8.78
O00U  4  1.05178  0.60173  0.52016 11.00000  0.00290   8.46
O00V  4  0.64907  0.43913  0.31724 11.00000  0.03691   8.41
C00W  2  0.41848  0.57115  0.38572 11.00000  0.00842   8.41
O00X  4  0.31646  0.31380  0.61658 11.00000  0.07941   8.38
C00Y  2  0.56103  0.77266  0.26012 11.00000  0.01686   8.18
O00Z  4  0.76439  0.64051  0.64027 11.00000  0.06035   8.09
O010  4 -0.45997  0.14451  0.68143 11.00000  0.06324   7.99
N011  3  0.29717  0.55040  0.36024 11.00000  0.03363   7.98
C012  2  0.78705  0.32213  0.51866 11.00000  0.11114   7.73
N013  3  0.04142  0.37730  0.58685 11.00000  0.11044   7.62
O014  4  0.13884  0.42875  0.49228 11.00000  0.02087   7.53
O015  4 -0.11706  0.33904  0.64797 11.00000  0.12041   7.51
N016  3  0.35729  0.39590  0.55016 11.00000  0.01083   7.47
C017  2  0.17195  0.45427  0.53102 11.00000  0.07412   7.46
O018  4  0.14940  0.48965  0.65790 11.00000  0.10872   7.36
N019  3  0.32547  0.41376  0.60330 11.00000  0.02067   7.26
O01A  4  0.54724  0.42726  0.43346 11.00000  0.04219   7.25
N01B  3  0.62281  0.57082  0.37926 11.00000  0.02704   7.14
C01C  2  0.27859  0.21148  0.58247 11.00000  0.01310   6.97
N01D  3  0.49771  1.05755  0.31697 11.00000  0.00621   6.97
N01E  3  0.40836  0.85579  0.49515 11.00000  0.05600   6.87
N01F  3  1.05436  0.80539  0.39765 11.00000  0.03738   6.85
N01G  3  0.82853  0.63063  0.53546 11.00000  0.00010   6.71
O01H  4  0.38988  1.08269  0.30139 11.00000  0.06188   6.67
N01I  3  0.15110  0.64898  0.75748 11.00000  0.09568   6.60
C01J  2  0.47741  0.74907  0.27197 11.00000  0.01480   6.47
C01K  2  1.45997  1.11940  0.50097 11.00000  0.00272   6.31
C01L  2  0.61695  0.88070  0.39033 11.00000  0.05880   6.24
C01M  2  0.49153  0.85945  0.28541 11.00000  0.03319   6.09
C01N  2  0.55951  0.60784  0.65261 11.00000  0.06679   5.97
C01O  2  0.47562  0.46278  0.50580 11.00000  0.02667   5.84
N01P  3  0.92975  0.89366  0.51442 11.00000  0.02599   5.84
O01Q  4  0.30296  0.14331  0.61721 11.00000  0.07011   5.71
C01R  2  1.10651  1.16864  0.43951 11.00000  0.00807   5.56
N01S  3  0.97981  1.12136  0.44523 11.00000  0.13615   5.56
C01T  2  0.54446  0.58107  0.67241 11.00000  0.01651   5.44
N01U  3  0.19287  0.49165  0.55315 11.00000  0.00010   5.35
C01V  2  1.07888  0.72806  0.35977 11.00000  0.02474   5.25
C01W  2  0.79797  0.58098  0.30481 11.00000  0.06279   5.09
C01X  2  0.29622  0.89925  0.42839 11.00000  0.03020   5.08
C01Y  2  0.22801  0.58097  0.39188 11.00000  0.01574   5.06
N01Z  3 -0.39779 -0.10781  0.68336 11.00000  0.01197   4.97
C020  2  1.22509  1.03790  0.47131 11.00000  0.02046   4.91
C021  2 -0.34673  0.45011  0.60892 11.00000  0.02669   4.89
C022  2  0.26994  0.63804  0.74343 11.00000  0.02104   4.76
C023  2 -0.02815  0.45224  0.51805 11.00000  0.02939   4.74
O024  4  0.80278  1.04013  0.42520 11.00000  0.09769   4.68
N025  3  0.61699  0.54316  0.33261 11.00000  0.09324   4.68
C026  2  0.32493  0.43290  0.53535 11.00000  0.02795   4.62
C027  2  0.91683  1.04299  0.42538 11.00000  0.01303   4.53
C028  2  0.18287  0.19616  0.57339 11.00000  0.09889   4.50
C029  2  0.72493  0.75827  0.55378 11.00000  0.04851   4.46
C02A  2  0.64585  0.72824  0.24252 11.00000  0.08730   4.38
C02B  2  0.18534  0.52389  0.69745 11.00000  0.01975   4.37
C02C  2  0.95125  1.18489  0.47045 11.00000  0.08094   4.34
N02D  3 -0.32254 -0.21167  0.74403 11.00000  0.00891   4.11
C02E  2  0.56907  0.33441  0.57073 11.00000  0.04590   4.04
C02F  2  0.30659  0.61188  0.37614 11.00000  0.03102   4.01
C02G  2  1.00959  0.85072  0.34291 11.00000  0.11449   3.96
C02H  2  0.56218  0.36326  0.54792 11.00000  0.07821   3.83
C02I  2  0.88409  0.61243  0.61355 11.00000  0.07810   3.70
C02J  2 -0.40471  0.20152  0.62913 11.00000  0.04299   3.69
C02K  2  0.55672  0.99977  0.40469 11.00000  0.16065   3.68
C02L  2  0.37320  0.90688  0.44091 11.00000  0.05995   3.67
C02M  2  0.49162  0.66322  0.33427 11.00000  0.02062   3.67
O02N  4 -0.20788  0.21997  0.69052 11.00000  0.10381   3.57
C02O  2  0.05442  0.55218  0.37292 11.00000  0.05768   3.50
C02P  2  0.97937  0.63085  0.64839 11.00000  0.08997   3.47
C02Q  2  0.90412  0.37905  0.39570 11.00000  0.04011   3.45
O02R  4  0.89817  1.05238  0.34558 11.00000  0.14250   3.35
O02S  4  0.31962  0.56219  0.60432 11.00000  0.08300   3.29
C02T  2  1.04985  1.21167  0.40738 11.00000  0.10099   3.28
C02U  2  0.21160  0.60128  0.61314 11.00000  0.05767   3.16
N02V  3  0.80025  0.66379  0.42912 11.00000  0.09597   3.16
C02W  2  0.40732  0.97850  0.30921 11.00000  0.02319   3.15
C02X  2  0.45623  0.73916  0.47356 11.00000  0.14382   3.09
C02Y  2  1.09610  1.10262  0.35514 11.00000  0.02700   3.01
C02Z  2  0.84864  1.16713  0.53658 11.00000  0.04480   3.00
HKLF 4
END
