TITL shelx03-merge_expF_1_1_expS_0_7_shelx03-merge_a.res in P1
REM Old TITL 1 in I 1 #-1
REM SHELXT solution in P1: R1 0.744, Rweak 0.000, Alpha 0.000
REM <I/s>   0.000 for    0 systematic absences,  Orientation as input
REM Flack x = -1.501 ( 0.480 ) from  1212 Parsons' quotients
REM Formula found by SHELXT:  C62 N24 O34

CELL  0.71073   9.3100  15.1100  30.5000   90.000   90.000   90.000
ZERR   52.000   0.0019   0.0030   0.0061    0.000    0.000    0.000
LATT -2
SFAC H C N O ZR
UNIT 20 20 20 20 20
L.S. 10
BOND
LIST 6
FMAP 2
PLAN 20
ZR01  5  0.04430  0.58786  0.35335 11.00000  0.01103  29.76
ZR02  5  0.16944  0.58078  0.35198 11.00000  0.14573  26.65
N003  3  0.37543  0.61660  0.35721 11.00000  0.03411  21.23
O004  4 -0.27671  0.52710  0.28400 11.00000  0.14575  19.78
O005  4 -0.33219  0.71569  0.43315 11.00000  0.09347  18.61
N006  3 -0.15071  0.62629  0.28447 11.00000  0.05536  18.54
N007  3  0.28657  0.59632  0.35341 11.00000  0.01803  18.05
N008  3  0.60944  0.62757  0.37640 11.00000  0.05801  16.48
N009  3 -0.17346  0.66927  0.39820 11.00000  0.03172  15.14
O00A  4 -0.51717  0.08463  0.55819 11.00000  0.12895  14.62
O00B  4  0.53584  0.60487  0.49685 11.00000  0.10333  14.18
O00C  4  0.62303  0.58432  0.46135 11.00000  0.06074  13.91
O00D  4  0.55097  0.71751  0.49873 11.00000  0.11353  13.49
O00E  4  0.40940  0.81541  0.48992 11.00000  0.10253  12.81
O00F  4  0.46901  0.58490  0.35464 11.00000  0.04824  12.60
O00G  4 -0.06778  0.46610  0.44511 11.00000  0.07306  11.89
O00H  4  0.29605  0.57943  0.44326 11.00000  0.08087  11.04
N00I  3 -0.11041  0.71840  0.40886 11.00000  0.10087  10.21
O00J  4  0.39017  0.46439  0.40421 11.00000  0.03587   9.97
O00K  4  0.79857  0.72541  0.56350 11.00000  0.09903   9.85
C00L  2 -0.52853  0.28137  0.53606 11.00000  0.13744   9.79
N00M  3  0.34897  0.43442  0.35372 11.00000  0.07820   9.59
O00N  4 -0.20341  0.23770  0.44251 11.00000  0.24492   9.47
O00O  4 -0.19199  0.40771  0.49724 11.00000  0.11958   9.19
O00P  4 -0.57183  0.36361  0.50435 11.00000  0.07800   9.11
O00Q  4  0.15940  0.72409  0.48180 11.00000  0.05103   9.10
N00R  3  0.02893  0.63300  0.35358 11.00000  0.03068   8.81
C00S  2  0.31811  0.52490  0.06498 11.00000  0.13095   8.78
C00T  2 -0.03316  0.77829  0.46792 11.00000  0.04000   8.66
O00U  4  0.08397  0.62718  0.47227 11.00000  0.10666   8.57
C00V  2  1.00234  0.43759  0.64804 11.00000  0.03924   8.27
O00W  4 -0.48616  0.50223  0.29096 11.00000  0.05389   8.00
O00X  4 -0.26944  0.62664  0.22807 11.00000  0.06803   7.87
O00Y  4  0.55887  0.61139  0.46349 11.00000  0.12915   7.85
O00Z  4  0.47873  0.64188  0.38765 11.00000  0.08914   7.77
O010  4  2.08501  0.45125  0.87170 11.00000  0.08203   7.65
O011  4  0.32692  0.60712  0.48277 11.00000  0.11093   7.61
C012  2  1.54976  0.44238  0.66412 11.00000  0.05244   7.37
O013  4 -0.24423  0.57174  0.22584 11.00000  0.06766   7.30
O014  4 -0.61992  0.06160  0.58673 11.00000  0.20975   7.29
N015  3  0.00534  0.73952  0.40628 11.00000  0.06196   7.20
C016  2  1.10706  0.56232  0.68550 11.00000  0.14398   7.14
N017  3  1.63796  0.82004  0.80066 11.00000  0.07101   6.86
N018  3 -0.24733  0.45846  0.27001 11.00000  0.04128   6.86
N019  3 -0.32350  0.41674  0.32019 11.00000  0.03608   6.83
N01A  3  0.10888  0.92801  0.40093 11.00000  0.09767   6.74
O01B  4  0.01812  0.61724  0.15870 11.00000  0.11864   6.64
N01C  3  0.17899  0.56999  0.13778 11.00000  0.08505   6.57
N01D  3  1.58394  0.64534  0.84367 11.00000  0.09288   6.56
N01E  3 -1.08501  0.13494  0.51642 11.00000  0.12283   6.55
N01F  3  0.11583  0.35739  0.16494 11.00000  0.06641   6.50
C01G  2  2.07045  0.41106  0.83362 11.00000  0.06830   6.49
C01H  2 -0.67002  0.23199  0.50519 11.00000  0.09857   6.48
N01I  3  0.03862  0.82377  0.35175 11.00000  0.12377   6.29
C01J  2  0.31182  0.63932  0.21386 11.00000  0.05944   6.17
C01K  2  0.70845  0.52660  0.38461 11.00000  0.02264   6.14
C01L  2 -0.12033  0.68799  0.33515 11.00000  0.07493   6.11
C01M  2  0.39595  0.58771  0.53260 11.00000  0.06316   6.00
C01N  2 -0.37827  0.34236  0.50178 11.00000  0.04534   6.00
C01O  2  0.19175  0.53125  0.34591 11.00000  0.02109   5.87
C01P  2  0.87078  0.49778  0.64437 11.00000  0.07969   5.78
N01Q  3  0.10958  0.66294  0.15300 11.00000  0.08680   5.68
C01R  2  0.06274  0.55973  0.47195 11.00000  0.05176   5.66
C01S  2 -0.24798  0.84031  0.42336 11.00000  0.04703   5.66
C01T  2 -0.20898  0.45832  0.28903 11.00000  0.07755   5.64
N01U  3 -0.10765  0.66084  0.17115 11.00000  0.06676   5.63
C01V  2  1.03719  0.75904  0.56326 11.00000  0.09998   5.53
C01W  2 -0.72776  0.25039  0.46722 11.00000  0.02970   5.41
N01X  3 -0.34684  0.38934  0.50025 11.00000  0.07241   5.40
C01Y  2  1.49795  0.30732  0.61557 11.00000  0.03189   5.31
C01Z  2  0.86361  0.31388  0.67805 11.00000  0.11412   5.25
C020  2  0.84295  0.95230  0.67746 11.00000  0.05745   5.24
C021  2  0.38274  0.58082  0.35058 11.00000  0.01463   5.16
C022  2  1.38050  0.45669  0.82657 11.00000  0.04382   5.15
C023  2  0.17053  0.48156  0.11114 11.00000  0.07369   5.09
C024  2  1.32606  0.67008  0.72147 11.00000  0.06850   5.02
C025  2  1.45576  0.43040  0.63515 11.00000  0.04183   5.01
C026  2  0.50231  0.43423  0.39326 11.00000  0.07090   4.99
N027  3  1.41288  0.37847  0.68814 11.00000  0.05114   4.98
C028  2  1.21262  0.35984  0.62806 11.00000  0.04903   4.91
C029  2 -0.58310  0.28962  0.51268 11.00000  0.03141   4.84
N02A  3 -0.75076  0.04770  0.55336 11.00000  0.14065   4.81
C02B  2  0.62350  0.57019  0.42820 11.00000  0.04793   4.57
C02C  2  1.79396  0.58725  0.73799 11.00000  0.05141   4.52
C02D  2  1.46978  0.54583  0.61538 11.00000  0.05228   4.52
C02E  2 -0.91637  0.24280  0.50932 11.00000  0.07701   4.44
C02F  2 -0.20493  0.66162  0.49293 11.00000  0.05741   4.43
C02G  2  1.63591  0.72512  0.84877 11.00000  0.07870   4.38
C02H  2 -0.35994  0.49310  0.28228 11.00000  0.06221   4.30
O02I  4  1.23368  0.59172  0.78697 11.00000  0.09820   4.30
O02J  4  1.86531  0.57795  0.80733 11.00000  0.15622   4.28
C02K  2  1.68686  0.46977  0.76743 11.00000  0.03732   4.25
C02L  2  1.34036  0.45440  0.58942 11.00000  0.05062   4.23
C02M  2  1.74601  0.59472  0.72696 11.00000  0.05155   4.20
O02N  4  2.02159  0.68851  0.92343 11.00000  0.09033   4.17
C02O  2 -0.95298  0.20192  0.49989 11.00000  0.11557   4.09
C02P  2  0.94740  0.88437  0.66775 11.00000  0.05569   4.08
C02Q  2  2.01820  0.44481  0.86705 11.00000  0.08812   4.07
O02R  4 -0.37480  0.58712  0.23132 11.00000  0.06744   4.04
C02S  2  0.89019  0.77649  0.61134 11.00000  0.08565   4.04
C02T  2  1.24119  0.82080  0.60819 11.00000  0.06267   4.04
C02U  2  1.44152  0.67778  0.71265 11.00000  0.03987   3.97
O02V  4  1.82907  0.65519  0.72416 11.00000  0.08852   3.96
O02W  4  0.63367  0.80854  0.55274 11.00000  0.09485   3.79
N02X  3  1.19523  0.36245  0.66715 11.00000  0.10007   3.78
C02Y  2 -0.05494  0.67305  0.47293 11.00000  0.04014   3.76
C02Z  2  1.23450  0.68628  0.61630 11.00000  0.06182   3.71
C030  2  1.48337  0.59565  0.78070 11.00000  0.03110   3.68
C031  2  0.63797  0.67041  0.59749 11.00000  0.06171   3.65
O032  4 -0.90295  0.06483  0.56781 11.00000  0.08917   3.47
C033  2  1.14443  0.70858  0.70749 11.00000  0.04714   3.46
C034  2  2.05225  0.45777  0.83448 11.00000  0.03735   3.42
C035  2  1.77687  0.62471  0.75814 11.00000  0.08061   3.39
O036  4  1.39604  0.49962  0.79019 11.00000  0.14796   3.38
C037  2  1.89415  0.70903  0.88540 11.00000  0.06028   3.36
C038  2  0.75670  0.56627  0.63868 11.00000  0.05296   3.30
C039  2  0.93400  0.84278  0.67793 11.00000  0.05039   3.27
C03A  2 -0.87361  0.12291  0.61734 11.00000  0.03882   3.09
C03B  2  1.40294  0.41574  0.58279 11.00000  0.15353   3.09
C03C  2  2.01428  0.63562  0.93502 11.00000  0.03566   3.07
C03D  2 -0.68530  0.35140  0.47200 11.00000  0.09164   3.04
C03E  2 -0.14777  0.30204  0.49363 11.00000  0.04375   3.02
HKLF 4
END
