TITL shelx03-merge_expF_0_8_expS_1_3_shelx03-merge_a.res in P1
REM Old TITL 1 in I 1 #-1
REM SHELXT solution in P1: R1 0.687, Rweak 0.162, Alpha 0.000
REM <I/s>   0.000 for    0 systematic absences,  Orientation as input
REM Flack x = -5.650 ( 0.661 ) from   302 Parsons' quotients
REM Formula found by SHELXT:  C72 N32 O25

CELL  0.71073   9.3100  15.1100  30.5000   90.000   90.000   90.000
ZERR   52.000   0.0019   0.0030   0.0061    0.000    0.000    0.000
LATT -2
SFAC H C N O ZR CL
UNIT 20 20 20 20 20 0
L.S. 10
BOND
LIST 6
FMAP 2
PLAN 20
CL01  6  0.30079  1.05407  0.60271 11.00000  0.04382  15.90
CL02  6  0.64810 -0.25741  0.30840 11.00000  0.03889  14.18
CL03  6  0.04570  0.41396  0.47887 11.00000  0.05031  13.45
CL04  6  0.18251  0.39909  0.48093 11.00000  0.03916  12.90
N005  3 -0.22172  1.08194  0.72836 11.00000  0.00749  12.50
O006  4  0.84713  0.41203  0.48666 11.00000  0.00010  11.77
O007  4  0.41289 -0.09200  0.25412 11.00000  0.00010  11.66
N008  3  0.45836  0.42725  0.48839 11.00000  0.00010  11.51
O009  4  0.15096  1.09334  0.61148 11.00000  0.00021  11.26
O00A  4  0.77161 -0.26488  0.30476 11.00000  0.02126  11.21
N00B  3  0.56589  0.39896  0.36436 11.00000  0.00183   9.93
O00C  4  0.01643  0.92123  0.65079 11.00000  0.01658   9.83
O00D  4  0.29277 -0.07336  0.25004 11.00000  0.02428   9.79
C00E  2 -0.34887  1.10489  0.72981 11.00000  0.02907   9.64
O00F  4  1.08589  0.85164  0.53830 11.00000  0.00459   9.45
O00G  4  0.23922  0.53571  0.41618 11.00000  0.01829   9.30
O00H  4  0.02951  1.03114  0.67691 11.00000  0.07569   9.21
N00I  3  0.40599  1.07185  0.60058 11.00000  0.00148   9.11
N00J  3  0.35321  0.08024  0.25195 11.00000  0.01480   9.04
N00K  3  0.54890  0.41814  0.47308 11.00000  0.04373   8.89
O00L  4  0.27025  0.83606  0.60699 11.00000  0.02189   8.76
N00M  3  0.93566 -0.28965  0.30606 11.00000  0.01436   8.70
O00N  4  0.10856  0.35910  0.47523 11.00000  0.02016   8.59
C00O  2  0.95549  0.52335  0.50414 11.00000  0.03356   8.58
N00P  3 -0.03695  0.44798  0.33868 11.00000  0.01979   8.49
N00Q  3  0.31202  0.42931  0.47912 11.00000  0.04228   8.46
O00R  4  0.39908 -0.34373  0.35231 11.00000  0.01539   8.32
O00S  4  0.89399  0.86250  0.55456 11.00000  0.01235   8.27
N00T  3  0.29385  0.45210  0.34432 11.00000  0.02933   8.15
C00U  2  0.68275  1.09499  0.56039 11.00000  0.00010   8.12
N00V  3  0.32322  0.16444  0.26071 11.00000  0.00010   8.11
N00W  3  0.50626 -0.17720  0.31129 11.00000  0.01105   8.04
O00X  4  0.60920 -0.42945  0.35796 11.00000  0.00010   7.98
O00Y  4  0.32175  0.46482  0.28008 11.00000  0.01770   7.98
N00Z  3  0.32318 -0.22691  0.34039 11.00000  0.00010   7.95
N010  3  0.56812 -0.27195  0.30917 11.00000  0.00010   7.94
N011  3  0.25106  0.99188  0.65936 11.00000  0.00010   7.89
O012  4 -0.00569  0.84518  0.65972 11.00000  0.02498   7.86
N013  3  1.00987 -0.27934  0.33916 11.00000  0.00010   7.73
O014  4  0.36307  1.36565  0.65247 11.00000  0.02428   7.70
C015  2  0.33913  0.56118  0.42379 11.00000  0.00010   7.53
N016  3  0.11448  0.44533  0.34555 11.00000  0.01433   7.33
N017  3  0.65022  0.85417  0.60238 11.00000  0.00972   7.32
O018  4 -0.20068  0.42638  0.37331 11.00000  0.06286   7.26
O019  4  0.82306  0.58984  0.51997 11.00000  0.01259   7.17
N01A  3  0.42410  0.42863  0.34466 11.00000  0.00010   7.15
O01B  4  0.21026  0.95980  0.55402 11.00000  0.00010   7.15
O01C  4 -0.09941  0.40896  0.31290 11.00000  0.00056   7.13
N01D  3  0.41356  0.83803  0.59945 11.00000  0.01098   7.11
N01E  3  0.33836 -0.27225  0.30923 11.00000  0.00010   7.09
C01F  2  0.21455  0.08186  0.28085 11.00000  0.03263   6.88
N01G  3  0.62605  0.92097  0.60467 11.00000  0.03042   6.84
N01H  3  0.53842 -0.37292  0.33821 11.00000  0.05293   6.81
C01I  2  0.32877  0.91158  0.55240 11.00000  0.00983   6.79
N01J  3  0.15434  0.39975  0.27497 11.00000  0.08816   6.73
C01K  2 -0.00377  1.10075  0.73788 11.00000  0.00611   6.69
N01L  3  0.49851 -0.06747  0.25366 11.00000  0.00010   6.56
C01M  2 -0.00382  0.97634  0.67522 11.00000  0.00509   6.43
C01N  2  0.47464  0.23444  0.54920 11.00000  0.00010   6.32
C01O  2 -0.19574  1.15420  0.73974 11.00000  0.01207   6.29
O01P  4 -0.38949  1.16148  0.72054 11.00000  0.01852   6.25
C01Q  2  0.13514  1.06270  0.66776 11.00000  0.00271   6.17
C01R  2  0.87212 -0.21722  0.34396 11.00000  0.00010   6.17
C01S  2  0.38517  1.03257  0.68324 11.00000  0.00010   6.15
C01T  2  0.64864  0.34265  0.38638 11.00000  0.00010   6.05
C01U  2  0.61654 -0.17265  0.27798 11.00000  0.00010   6.00
C01V  2 -0.17300  1.22688  0.67844 11.00000  0.06207   5.99
C01W  2  0.35931 -0.00853  0.25763 11.00000  0.04638   5.94
C01X  2  0.73278 -0.35588  0.35931 11.00000  0.03824   5.86
C01Y  2  0.54985  0.87843  0.62930 11.00000  0.06913   5.76
C01Z  2  1.12938  0.83620  0.41969 11.00000  0.01939   5.76
C020  2  1.30292  0.92647  0.46667 11.00000  0.00010   5.66
O021  4  0.75856  1.14826  0.56793 11.00000  0.04556   5.62
C022  2  0.25504  0.53215  0.35348 11.00000  0.01198   5.52
C023  2  0.91745  0.82977  0.46270 11.00000  0.00027   5.42
C024  2  1.00023  0.66559  0.54278 11.00000  0.03786   5.42
C025  2  0.70169  0.39689  0.59866 11.00000  0.00010   5.41
C026  2 -0.16341  0.38013  0.37851 11.00000  0.00010   5.35
C027  2  0.22456  1.17084  0.49003 11.00000  0.00010   5.29
C028  2  1.06749 -0.10862  0.33865 11.00000  0.00010   5.23
C029  2  0.71646  0.41866  0.49661 11.00000  0.01970   5.22
C02A  2  0.87789  0.70306  0.56111 11.00000  0.01601   5.20
N02B  3  1.03955  0.53448  0.52628 11.00000  0.04193   5.20
C02C  2  0.79238  0.86753  0.61277 11.00000  0.00010   5.18
C02D  2  0.81787  0.08250  0.38844 11.00000  0.04194   5.12
N02E  3  0.01445  0.16158  0.32022 11.00000  0.01481   5.12
C02F  2  0.18994  1.38773  0.66196 11.00000  0.01799   5.10
C02G  2  0.36538  1.42945  0.67773 11.00000  0.02241   5.03
C02H  2  0.47064  0.12947  0.27112 11.00000  0.00245   5.03
N02I  3  0.12774  1.07873  0.73147 11.00000  0.02445   5.02
C02J  2  0.75459  0.56158  0.49412 11.00000  0.01756   4.98
N02K  3  0.77143  1.03484  0.59212 11.00000  0.02293   4.96
C02L  2  0.94445 -0.37038  0.31373 11.00000  0.00256   4.95
C02M  2  0.63200 -0.10819  0.25102 11.00000  0.00010   4.83
C02N  2  0.39582  1.10671  0.49178 11.00000  0.04988   4.80
C02O  2  0.45269  0.96597  0.60979 11.00000  0.00010   4.73
C02P  2  0.90588  0.49033  0.45505 11.00000  0.00010   4.71
C02Q  2  1.38949  0.84486  0.46503 11.00000  0.00309   4.69
C02R  2  0.92563  0.95490  0.52009 11.00000  0.02988   4.65
C02S  2  0.73059  0.53117  0.45721 11.00000  0.02316   4.64
O02T  4  0.14496  1.07674  0.52660 11.00000  0.01913   4.58
N02U  3 -0.28341  1.35290  0.68600 11.00000  0.02354   4.58
C02V  2  0.25456  0.38762  0.37309 11.00000  0.00608   4.56
C02W  2 -0.11795  1.24963  0.61662 11.00000  0.00010   4.53
N02X  3  0.44978  0.66274  0.66485 11.00000  0.00045   4.52
C02Y  2  0.59822  0.33729  0.48630 11.00000  0.05818   4.49
O02Z  4  0.67026  0.56805  0.43652 11.00000  0.05809   4.46
C030  2 -0.02468  0.41979  0.36963 11.00000  0.00010   4.45
C031  2  0.30701  1.00396  0.74996 11.00000  0.00010   4.32
C032  2  0.73151  0.34380  0.45470 11.00000  0.04837   4.24
C033  2  0.63816  0.68335  0.50199 11.00000  0.00010   4.23
C034  2  0.69146  0.97994  0.50607 11.00000  0.02145   4.19
C035  2 -0.09295  1.12977  0.72749 11.00000  0.00010   4.07
C036  2  0.41896  1.14745  0.63474 11.00000  0.00010   4.00
C037  2  0.43505 -0.21729  0.29170 11.00000  0.00010   3.94
C038  2  0.84224  0.00533  0.37648 11.00000  0.04066   3.93
C039  2  1.10984  0.74461  0.53556 11.00000  0.00010   3.87
C03A  2  0.14735  0.29492  0.27827 11.00000  0.00265   3.74
C03B  2  0.71015 -0.12265  0.33404 11.00000  0.00553   3.70
N03C  3  0.94431  0.13584  0.45136 11.00000  0.09889   3.70
C03D  2  0.38231  0.95358  0.67566 11.00000  0.00010   3.70
C03E  2  0.61216  0.28053  0.43295 11.00000  0.00010   3.68
C03F  2  0.28114  0.18351  0.28294 11.00000  0.00375   3.64
C03G  2  0.50908  0.47789  0.50559 11.00000  0.01522   3.60
C03H  2  0.71940  0.43097  0.54534 11.00000  0.04551   3.42
C03I  2  0.41598  0.89378  0.60818 11.00000  0.03531   3.39
C03J  2  0.51011  1.22681  0.64600 11.00000  0.00535   3.37
C03K  2  0.67087  0.99322  0.59734 11.00000  0.00178   3.23
C03L  2  1.13793  0.43188  0.54631 11.00000  0.00010   3.16
C03M  2  0.38964  0.95195  0.63676 11.00000  0.00010   3.11
C03N  2  0.71074  0.29713  0.38875 11.00000  0.00010   3.09
C03O  2  0.69464  0.77840  0.57006 11.00000  0.02287   3.04
C03P  2  0.50549  0.32032  0.51342 11.00000  0.00010   3.02
HKLF 4
END
