TITL shelx03-merge_expF_0_6_expS_1_5_shelx03-merge_a.res in P1
REM Old TITL 1 in I 1 #-1
REM SHELXT solution in P1: R1 0.712, Rweak 0.180, Alpha 0.000
REM <I/s>   0.000 for    0 systematic absences,  Orientation as input
REM Flack x =  0.402 ( 0.429 ) from   237 Parsons' quotients
REM Formula found by SHELXT:  C85 N24 O42

CELL  0.71073   9.3100  15.1100  30.5000   90.000   90.000   90.000
ZERR   52.000   0.0019   0.0030   0.0061    0.000    0.000    0.000
LATT -2
SFAC H C N O ZR CL
UNIT 20 20 20 20 20 0
L.S. 10
BOND
LIST 6
FMAP 2
PLAN 20
CL01  6  0.27800  0.29854  0.56134 11.00000  0.03955  18.00
CL02  6  0.66621  0.28844  0.55298 11.00000  0.10264  16.96
CL03  6  0.40323  0.29689  0.56006 11.00000  0.03135  15.92
CL04  6  0.31340  0.91003  0.44309 11.00000  0.02811  15.51
CL05  6  0.12835  0.30235  0.56386 11.00000  0.01217  15.03
CL06  6  0.01156  0.29725  0.55786 11.00000  0.03362  14.72
CL07  6  0.34385  0.26652  0.43622 11.00000  0.05150  14.40
CL08  6  0.40772  0.35943  0.57205 11.00000  0.01958  14.39
CL09  6  0.33171  0.83160  0.43743 11.00000  0.10762  14.00
CL0A  6 -0.28349  0.80497  0.39806 11.00000  0.03911  13.49
CL0B  6  0.91891  0.36976  0.68406 11.00000  0.05653  12.93
N00C  3  0.01541  0.20657  0.43227 11.00000  0.07616  12.38
O00D  4  0.82949  0.36369  0.59847 11.00000  0.01007  12.04
C00E  2  0.06614  0.84853  0.41095 11.00000  0.00010  11.82
C00F  2  0.53010  0.08222  0.50418 11.00000  0.00010  11.45
N00G  3  0.23044  0.28906  0.42930 11.00000  0.00010  11.13
N00H  3  0.35814  0.76096  0.42306 11.00000  0.05537  10.55
N00I  3  0.85294  0.18958  0.74890 11.00000  0.00554  10.39
O00J  4  0.14443  0.39912  0.19567 11.00000  0.06613  10.35
O00K  4 -0.15165  0.52624  0.43194 11.00000  0.02136  10.31
O00L  4  0.97417  0.30877  0.62848 11.00000  0.02506  10.18
O00M  4  1.06535  0.37199  0.68114 11.00000  0.00010  10.13
O00N  4  0.06111  0.41824  0.20376 11.00000  0.00025  10.09
CL0O  6  0.11166  0.81396  0.50810 11.00000  0.04278  10.07
O00P  4  0.71184  0.24684  0.72776 11.00000  0.00593  10.06
O00Q  4  0.89566  0.44655  0.65449 11.00000  0.00319   9.97
CL0R  6 -0.18013  0.37550  0.27686 11.00000  0.05734   9.90
O00S  4 -0.05784  0.91192  0.38603 11.00000  0.00010   9.88
O00T  4 -0.19932  0.71204  0.43859 11.00000  0.03462   9.87
O00U  4 -0.26788  0.49046  0.42628 11.00000  0.10192   9.79
C00V  2  0.96122  0.16042  0.75369 11.00000  0.00010   9.70
O00W  4  0.33874  0.69592  0.51494 11.00000  0.05090   9.65
O00X  4  0.52176  0.65301  0.48820 11.00000  0.08228   9.47
N00Y  3  0.83104  0.28741  0.62695 11.00000  0.03319   9.31
O00Z  4  1.08995  0.52042  0.83050 11.00000  0.04505   9.19
N010  3  0.21930  0.13126  0.43047 11.00000  0.01849   9.17
C011  2  0.24288  0.37292  0.28570 11.00000  0.00010   9.15
O012  4  0.81159  0.24052  0.53918 11.00000  0.01120   9.12
O013  4 -0.20914  0.17433  0.45192 11.00000  0.00010   9.00
O014  4  0.89801  0.62671  0.69577 11.00000  0.04176   8.95
C015  2  0.03360  0.41325  0.45633 11.00000  0.00010   8.83
O016  4  0.35202  0.42477  0.50235 11.00000  0.00010   8.82
O017  4 -0.06235  0.46682  0.48111 11.00000  0.01679   8.75
N018  3  1.18570  0.77539  0.82113 11.00000  0.01332   8.68
N019  3  0.10012  0.28582  0.43860 11.00000  0.00010   8.65
O01A  4 -0.39939  0.77737  0.40854 11.00000  0.00010   8.63
N01B  3  0.55239  0.36073  0.67641 11.00000  0.00010   8.46
O01C  4 -0.14029  0.52116  0.25665 11.00000  0.11652   8.40
O01D  4  0.58805  0.03486  0.50619 11.00000  0.00015   8.36
O01E  4 -0.04526  0.90028  0.49854 11.00000  0.00010   8.34
O01F  4  0.53302  0.29692  0.63557 11.00000  0.04637   8.25
N01G  3 -0.11449  0.88595  0.40110 11.00000  0.00010   8.25
O01H  4  1.18335  0.41805  0.62982 11.00000  0.05150   8.24
O01I  4  0.58735  0.67737  0.83019 11.00000  0.00317   8.17
O01J  4  0.06251  0.22266  0.22908 11.00000  0.00010   8.16
O01K  4  0.40662  0.14759  0.46877 11.00000  0.03771   8.10
N01L  3  0.01558  0.62422  0.52775 11.00000  0.00010   8.08
O01M  4  0.23715  0.19251  0.63453 11.00000  0.00346   7.95
O01N  4 -0.03813  0.92735  0.44398 11.00000  0.00010   7.91
O01O  4  0.79861  0.10965  0.50977 11.00000  0.00974   7.83
O01P  4  0.97078  0.65516  0.77829 11.00000  0.11503   7.79
N01Q  3  0.58784  0.27067  0.57898 11.00000  0.00010   7.76
O01R  4  0.46765  0.89584  0.44332 11.00000  0.05953   7.71
N01S  3  0.58848  0.35256  0.54095 11.00000  0.00379   7.71
N01T  3  0.74714  0.35989  0.53607 11.00000  0.01897   7.71
N01U  3  0.20570  0.09419  0.47009 11.00000  0.00411   7.68
N01V  3  0.36773  0.69100  0.41070 11.00000  0.00010   7.65
O01W  4  0.30863  0.36873  0.39664 11.00000  0.04704   7.54
O01X  4  0.76895 -0.00373  0.50639 11.00000  0.02629   7.44
O01Y  4 -0.11958  0.30139  0.13017 11.00000  0.00621   7.38
O01Z  4 -0.26222  0.36728  0.13769 11.00000  0.01531   7.16
C020  2  0.72216  0.45750  0.67018 11.00000  0.02157   7.05
N021  3  0.30206  0.23489  0.74360 11.00000  0.00010   7.00
N022  3  0.54263  0.42838  0.51119 11.00000  0.00010   6.99
N023  3  0.76058  0.32726  0.66235 11.00000  0.00010   6.92
C024  2 -0.05825  0.23660  0.23087 11.00000  0.00010   6.90
N025  3 -0.32837  0.18898  0.40331 11.00000  0.09242   6.72
N026  3  0.54065  0.36875  0.58900 11.00000  0.04660   6.67
N027  3  1.10363  0.28284  0.77743 11.00000  0.04093   6.62
C028  2  0.55677  0.47729  0.34380 11.00000  0.00368   6.50
C029  2  0.19719  0.86618  0.42924 11.00000  0.00010   6.48
O02A  4  0.86279  0.43513  0.82269 11.00000  0.00010   6.36
O02B  4  0.02021  0.39558  0.14801 11.00000  0.05263   6.31
N02C  3  0.94052  0.47605  0.82468 11.00000  0.00010   6.30
C02D  2  0.14587  0.26199  0.60515 11.00000  0.00010   6.30
C02E  2 -0.10518  0.67680  0.53217 11.00000  0.00402   6.29
C02F  2 -0.27382  0.43011  0.26375 11.00000  0.02029   6.25
C02G  2  0.15215  0.81434  0.40329 11.00000  0.00010   6.25
C02H  2  0.37484  0.38261  0.27908 11.00000  0.00010   6.24
C02I  2  0.55775  0.32516  0.71955 11.00000  0.01492   6.23
C02J  2  0.25535  1.00373  0.39827 11.00000  0.00226   6.20
C02K  2  1.07444  0.28169  0.70695 11.00000  0.00010   6.12
C02L  2  0.97140  0.14980  0.64324 11.00000  0.00259   6.10
C02M  2  0.99499  0.68717  0.69543 11.00000  0.00010   6.08
C02N  2  1.03737  0.77994  0.83695 11.00000  0.01302   6.02
C02O  2  0.26324  0.58904  0.37915 11.00000  0.01426   6.00
C02P  2  0.09163  0.32546  0.43241 11.00000  0.00010   5.98
C02Q  2  0.20329  0.45753  0.23976 11.00000  0.00010   5.94
O02R  4  1.10144  0.11973  0.60045 11.00000  0.04687   5.93
N02S  3 -0.01104  0.60211  0.43156 11.00000  0.00831   5.92
C02T  2  0.20922  0.53618  0.22281 11.00000  0.00010   5.87
C02U  2  1.41016  0.03362  0.57076 11.00000  0.01213   5.81
C02V  2  0.10159  0.57005  0.58079 11.00000  0.00010   5.72
C02W  2  0.38049  0.47720  0.50048 11.00000  0.00114   5.55
C02X  2  0.99716  0.11880  0.74570 11.00000  0.04250   5.54
C02Y  2  0.40506  0.39644  0.19784 11.00000  0.00010   5.50
C02Z  2  0.35782  0.46616  0.42040 11.00000  0.00019   5.39
C030  2  0.66014  0.28507  0.51443 11.00000  0.00010   5.36
C031  2  0.26099  0.64258  0.65189 11.00000  0.00010   5.27
C032  2  0.47808  0.39511  0.48070 11.00000  0.00176   5.23
C033  2 -0.06092  0.39887  0.43166 11.00000  0.02776   5.23
C034  2  0.35768  0.76747  0.35491 11.00000  0.01731   5.20
C035  2  1.22692  0.62559  0.76986 11.00000  0.09323   5.12
C036  2  0.28454  0.44218  0.74844 11.00000  0.00010   5.07
C037  2  1.23537  0.54285  0.83643 11.00000  0.00010   5.07
C038  2  0.42541  0.27101  0.72614 11.00000  0.00867   5.03
C039  2  0.06276  0.13105  0.46989 11.00000  0.00133   4.97
C03A  2  0.94373  0.25199  0.51302 11.00000  0.00010   4.95
C03B  2  0.50882  0.59293  0.40669 11.00000  0.00010   4.88
C03C  2  0.43235  0.33978  0.69297 11.00000  0.01897   4.87
C03D  2 -0.23074  0.68792  0.53115 11.00000  0.00010   4.86
C03E  2  0.85965  0.55091  0.64149 11.00000  0.00010   4.82
C03F  2  0.22738  0.58875  0.57239 11.00000  0.07745   4.78
C03G  2 -0.01490  0.59154  0.52034 11.00000  0.00010   4.71
C03H  2  1.02482  0.72394  0.71883 11.00000  0.01270   4.70
C03I  2  0.46724  0.53997  0.79620 11.00000  0.04499   4.65
C03J  2  0.53706  0.55170  0.86983 11.00000  0.00132   4.51
C03K  2  0.56081  0.31691  0.56246 11.00000  0.00010   4.41
C03L  2  0.08937  0.64027  0.31895 11.00000  0.00010   4.40
C03M  2  1.20065  0.69086  0.82566 11.00000  0.00533   4.33
C03N  2  0.22264  0.51357  0.16331 11.00000  0.00010   4.29
C03O  2 -0.41016  0.79735  0.38056 11.00000  0.00010   4.28
C03P  2  0.61786  0.40503  0.67855 11.00000  0.00010   4.26
C03Q  2  0.02153  0.64233  0.27531 11.00000  0.00805   4.26
C03R  2  0.20144  0.42539  0.34707 11.00000  0.11303   4.21
C03S  2  0.86932  0.19331  0.68999 11.00000  0.00010   4.21
O03T  4  0.51702  0.14015  0.65916 11.00000  0.06696   4.19
C03U  2 -0.25999  0.25193  0.39621 11.00000  0.00010   4.17
C03V  2  0.24129  0.77406  0.41113 11.00000  0.00010   4.17
C03W  2 -0.26982  0.65044  0.45813 11.00000  0.01330   4.05
C03X  2  0.79528  0.23965  0.59971 11.00000  0.00010   4.04
C03Y  2  0.16271  0.58546  0.39196 11.00000  0.00010   4.04
C03Z  2  0.49546  0.48849  0.55331 11.00000  0.00732   4.03
C040  2  0.47013  0.44032  0.74748 11.00000  0.04549   3.95
C041  2  0.45451  0.51604  0.36375 11.00000  0.00010   3.91
C042  2  0.83041  0.76344  0.84136 11.00000  0.00010   3.89
C043  2  0.37989  0.17516  0.61893 11.00000  0.01048   3.84
O044  4  0.20015  0.31055  0.25852 11.00000  0.01734   3.82
C045  2 -0.12007  0.34327  0.40513 11.00000  0.00878   3.81
C046  2  0.17540  0.69521  0.49245 11.00000  0.03079   3.80
C047  2  0.07441  0.52161  0.23161 11.00000  0.02221   3.78
C048  2 -0.26353  0.38863  0.17326 11.00000  0.00106   3.76
C049  2  0.67225  0.57424  0.83347 11.00000  0.03880   3.74
C04A  2  1.01355  0.74078  0.78033 11.00000  0.13940   3.61
C04B  2  0.30010  0.09676  0.46169 11.00000  0.00010   3.58
C04C  2  0.34777  0.76624  0.54890 11.00000  0.00759   3.55
C04D  2  1.19367  0.03262  0.57474 11.00000  0.00010   3.29
C04E  2 -0.09288  0.61203  0.47737 11.00000  0.04366   3.12
C04F  2  0.85407  0.58856  0.81833 11.00000  0.02027   3.09
C04G  2  0.79187  0.66923  0.79212 11.00000  0.05582   3.08
C04H  2 -0.32776  0.65350  0.53659 11.00000  0.01355   3.06
C04I  2 -0.25628  0.66038  0.48026 11.00000  0.04087   3.06
C04J  2  0.33551  0.37668  0.82235 11.00000  0.01223   3.04
C04K  2  0.46099  0.44004  0.79697 11.00000  0.02305   3.04
HKLF 4
END
