TITL shelx03-merge_expF_0_5_expS_1_2_shelx03-merge_a.res in P1
REM Old TITL 1 in I 1 #-1
REM SHELXT solution in P1: R1 0.740, Rweak 0.252, Alpha 0.000
REM <I/s>   0.000 for    0 systematic absences,  Orientation as input
REM Flack x = -9.990 ( 3.834 ) from   611 Parsons' quotients
REM Formula found by SHELXT:  C93 N31 O28

CELL  0.71073   9.3100  15.1100  30.5000   90.000   90.000   90.000
ZERR   52.000   0.0019   0.0030   0.0061    0.000    0.000    0.000
LATT -2
SFAC H C N O ZR
UNIT 20 20 20 20 20
L.S. 10
BOND
LIST 6
FMAP 2
PLAN 20
O001  4  0.31282  0.54701  0.65014 11.00000  0.00010  13.81
C002  2  0.83128 -0.13932  0.62757 11.00000  0.02862  12.96
C003  2  0.22476  0.78047  0.50710 11.00000  0.00657  12.69
O004  4 -0.00737  0.56002  0.65404 11.00000  0.00670  12.46
N005  3 -0.19136  0.59885  0.36623 11.00000  0.00010  11.46
O006  4 -0.14644  0.54409  0.36272 11.00000  0.00010  11.31
O007  4 -0.19314  1.20572  0.53789 11.00000  0.00010  10.95
O008  4  0.79054  0.42360  0.54709 11.00000  0.01005  10.86
O009  4  0.69365  0.57573  0.21747 11.00000  0.01610  10.11
N00A  3  0.04472  0.58681  0.38436 11.00000  0.00010  10.05
N00B  3  0.49200  0.54576  0.64622 11.00000  0.00136   9.91
O00C  4  0.79973  0.76881  0.32125 11.00000  0.05942   9.83
O00D  4  0.10766  0.53946  0.64892 11.00000  0.00010   9.78
O00E  4  0.70582  0.27205  0.20477 11.00000  0.07361   9.69
N00F  3  0.72988  0.54202  0.65091 11.00000  0.05065   9.61
N00G  3  0.75601  0.44516  0.67924 11.00000  0.03729   9.56
O00H  4  0.48507  1.05316  0.50446 11.00000  0.00010   9.49
C00I  2  0.56791  1.02723  0.48985 11.00000  0.00010   9.45
O00J  4  0.03112  0.51674  0.38293 11.00000  0.02584   8.99
C00K  2  0.73214  0.73561  0.50020 11.00000  0.00453   8.58
N00L  3  0.59318  0.59953  0.46995 11.00000  0.09509   8.41
O00M  4  0.29673  0.73678  0.39422 11.00000  0.00505   8.34
N00N  3  0.81223  0.32270  0.76706 11.00000  0.11601   8.30
O00O  4  0.58762  0.51354  0.29349 11.00000  0.02987   8.22
O00P  4  0.00191  0.59285  0.44644 11.00000  0.01615   8.20
C00Q  2  0.29103  0.84142  0.56559 11.00000  0.01307   8.11
N00R  3  0.90828  0.52073  0.29855 11.00000  0.04792   7.99
O00S  4  0.30145  0.69411  0.45413 11.00000  0.10586   7.94
N00T  3  0.66622  0.81669  0.29845 11.00000  0.08113   7.90
O00U  4  0.19275  0.84661  0.56493 11.00000  0.00206   7.83
O00V  4  0.89972  0.28842  0.20793 11.00000  0.04384   7.75
O00W  4  1.31905  0.22810  0.65000 11.00000  0.06338   7.73
N00X  3  0.63690  0.56682  0.64989 11.00000  0.00010   7.72
O00Y  4  0.13353  0.69844  0.59433 11.00000  0.02279   7.63
N00Z  3  0.63192  0.70240  0.49891 11.00000  0.00897   7.55
O010  4  0.69445  0.56604  0.74783 11.00000  0.02409   7.53
N011  3  0.77992  0.29064  0.68927 11.00000  0.00021   7.46
N012  3  0.13172  0.53652  0.32267 11.00000  0.01398   7.39
O013  4  0.56715  0.37206  0.68867 11.00000  0.00010   7.23
O014  4 -0.01892  0.70683  0.31403 11.00000  0.01708   7.22
C015  2  0.47316  0.72723  0.32626 11.00000  0.00224   7.22
N016  3  0.74492  0.40242  0.65705 11.00000  0.00761   7.20
O017  4  0.22552  0.72561  0.51167 11.00000  0.00638   7.15
N018  3 -0.21994  0.54621  0.42480 11.00000  0.00010   7.12
N019  3  0.23556  0.58600  0.61948 11.00000  0.06289   6.97
N01A  3  0.47496  0.65722  0.66180 11.00000  0.00010   6.96
N01B  3  0.53159  0.83356  0.32568 11.00000  0.01768   6.92
N01C  3  0.46940  0.06771  0.63093 11.00000  0.02846   6.85
N01D  3 -0.19186  0.69828  0.40838 11.00000  0.06271   6.82
N01E  3 -0.12502  1.02235  0.49874 11.00000  0.00988   6.81
N01F  3 -0.31905  0.47692  0.37320 11.00000  0.01226   6.78
C01G  2  1.30926  0.28912  0.62846 11.00000  0.02029   6.77
C01H  2  0.45077  0.68026  0.46465 11.00000  0.00269   6.77
N01I  3  0.58470  0.48667  0.22360 11.00000  0.10574   6.76
N01J  3  0.63907  0.51731  0.68652 11.00000  0.05574   6.72
N01K  3  0.66851  0.09761  0.66006 11.00000  0.05660   6.71
C01L  2  0.40339  0.73591  0.50646 11.00000  0.00010   6.60
N01M  3  0.88946  0.94536  0.30284 11.00000  0.02835   6.58
N01N  3  0.08792  0.65825  0.32318 11.00000  0.03204   6.53
C01O  2  0.32943  1.19220  0.42809 11.00000  0.02351   6.48
C01P  2  0.29619  0.56668  0.32559 11.00000  0.00010   6.43
C01Q  2  0.99993  0.91472  0.31326 11.00000  0.00010   6.43
C01R  2  0.50862  1.17952  0.36731 11.00000  0.01898   6.39
O01S  4  0.46628  1.04808  0.31617 11.00000  0.05594   6.36
C01T  2  0.25468  0.47082  0.39908 11.00000  0.00010   6.36
C01U  2  0.12117  1.14155  0.52971 11.00000  0.00010   6.27
C01V  2 -0.23611  1.10035  0.45756 11.00000  0.02639   6.22
C01W  2  0.61448  0.70789  0.27632 11.00000  0.01426   6.20
C01X  2 -0.22262  0.37347  0.33903 11.00000  0.00360   6.17
C01Y  2  0.51711  0.53382  0.48857 11.00000  0.00682   6.13
C01Z  2  0.95286  0.43580  0.24783 11.00000  0.00433   6.11
N020  3  0.96505 -0.05816  0.59891 11.00000  0.01980   6.11
C021  2  0.74650  0.60810  0.30426 11.00000  0.03394   6.11
C022  2  0.79037  0.25508  0.78416 11.00000  0.02908   6.04
C023  2  0.12692  0.56002  0.45718 11.00000  0.03270   6.02
C024  2  0.70981 -0.01430  0.62671 11.00000  0.03713   5.92
C025  2  0.69390  0.37606  0.24385 11.00000  0.00010   5.87
C026  2  0.82946  0.39779  0.80638 11.00000  0.05306   5.80
C027  2  0.78785  0.62371  0.70930 11.00000  0.03435   5.77
C028  2 -0.28003  1.05704  0.40257 11.00000  0.03036   5.76
C029  2 -0.12407  1.05645  0.55129 11.00000  0.00010   5.76
C02A  2  0.50834  0.56690  0.73611 11.00000  0.01221   5.71
C02B  2  0.84976  0.74733  0.50144 11.00000  0.04176   5.70
C02C  2 -0.13971  0.77063  0.39351 11.00000  0.00010   5.70
C02D  2  0.83065  0.61731  0.23522 11.00000  0.00010   5.69
C02E  2  0.65342  1.23656  0.36720 11.00000  0.00073   5.67
C02F  2  0.85178  0.36072  0.64059 11.00000  0.00010   5.61
C02G  2  0.55010  0.77235  0.46365 11.00000  0.03429   5.51
C02H  2  0.42810  1.13287  0.45594 11.00000  0.00010   5.50
O02I  4  0.90693  1.21750  0.34962 11.00000  0.14040   5.48
C02J  2  0.80037 -0.22612  0.61604 11.00000  0.00127   5.42
C02K  2  0.62407  0.84907  0.52830 11.00000  0.00450   5.40
C02L  2  0.55561  1.18007  0.47076 11.00000  0.00010   5.40
N02M  3  0.45377  0.58292  0.34189 11.00000  0.01734   5.39
C02N  2  0.60540  1.16948  0.27365 11.00000  0.07343   5.36
C02O  2  1.05683  0.23112  0.60470 11.00000  0.04460   5.36
C02P  2  0.06113  0.43557  0.39217 11.00000  0.00010   5.33
C02Q  2  1.24660  0.33823  0.68095 11.00000  0.02654   5.31
C02R  2  0.59891  0.80445  0.49467 11.00000  0.00026   5.29
C02S  2  0.12693  0.88454  0.42501 11.00000  0.05099   5.28
C02T  2  0.88214  0.80015  0.71110 11.00000  0.07600   5.27
C02U  2  0.40927  0.80655  0.45946 11.00000  0.00010   5.25
O02V  4  0.60773  0.94357  0.34814 11.00000  0.01043   5.21
C02W  2  0.95959  0.24543  0.67903 11.00000  0.00010   5.20
C02X  2  0.62252  0.41995  0.54482 11.00000  0.00010   5.11
C02Y  2  0.81009 -0.28944  0.59900 11.00000  0.00010   5.10
C02Z  2  0.85707  0.48227  0.58032 11.00000  0.01415   5.01
C030  2  0.55046  0.88971  0.28957 11.00000  0.00010   5.00
C031  2  0.63797  0.58212  0.29211 11.00000  0.09377   4.96
C032  2  0.81020  0.20700  0.66500 11.00000  0.01151   4.92
C033  2  0.56976  0.97681  0.55077 11.00000  0.00010   4.82
C034  2  0.47749  0.52739  0.30318 11.00000  0.00010   4.76
C035  2  0.25760  0.92408  0.40038 11.00000  0.00806   4.75
C036  2  0.45927  1.07576  0.40902 11.00000  0.01353   4.74
C037  2  0.37511  0.45327  0.32259 11.00000  0.04187   4.72
C038  2  0.14810  0.62561  0.38215 11.00000  0.00010   4.65
C039  2  0.18318  0.40348  0.57346 11.00000  0.01962   4.65
C03A  2  0.54962  0.57696  0.32184 11.00000  0.03822   4.61
C03B  2  0.02466  0.96993  0.52975 11.00000  0.02782   4.56
C03C  2  0.61434  0.63206  0.20015 11.00000  0.00010   4.55
C03D  2 -0.03263  0.66221  0.38596 11.00000  0.00010   4.48
C03E  2  0.07662  0.74351  0.31860 11.00000  0.00264   4.47
C03F  2  1.07479  1.00048  0.30377 11.00000  0.04813   4.42
C03G  2  0.40076  1.10643  0.33679 11.00000  0.02531   4.42
O03H  4  0.12880  1.21978  0.52470 11.00000  0.01633   4.36
C03I  2  0.53301  0.50367  0.57140 11.00000  0.02788   4.32
C03J  2  0.79640  0.85264  0.47147 11.00000  0.01556   4.28
C03K  2  0.84803  0.42444  0.64601 11.00000  0.02830   4.27
C03L  2  0.76203  0.36581  0.19362 11.00000  0.00010   4.20
N03M  3  0.36734  0.71660  0.52499 11.00000  0.03030   4.15
C03N  2  0.54144  1.00787  0.25611 11.00000  0.06679   4.14
C03O  2  0.71827  0.42757  0.72985 11.00000  0.00010   4.14
C03P  2  0.84923  0.51195  0.24482 11.00000  0.00859   4.05
C03Q  2  0.18783  0.53588  0.56729 11.00000  0.03936   3.95
C03R  2  0.18511  1.02532  0.53985 11.00000  0.00010   3.92
C03S  2  0.48503  0.71207  0.35549 11.00000  0.01984   3.88
C03T  2  0.85159  0.25441  0.68974 11.00000  0.08616   3.83
O03U  4  0.65345  0.51184  0.52738 11.00000  0.02906   3.80
C03V  2  0.52498  0.91855  0.34763 11.00000  0.00317   3.80
C03W  2  0.06540  0.77600  0.53355 11.00000  0.09414   3.74
C03X  2  0.02800  1.05516  0.40929 11.00000  0.09557   3.73
C03Y  2  0.72585  0.46160  0.23726 11.00000  0.02197   3.71
C03Z  2  0.32926  0.85942  0.41846 11.00000  0.01458   3.63
C040  2  0.50850  1.28944  0.32210 11.00000  0.00010   3.62
C041  2  0.67961  0.68626  0.68257 11.00000  0.00010   3.46
C042  2  0.41328  0.52162  0.42399 11.00000  0.00010   3.37
C043  2  0.40568  0.64729  0.33985 11.00000  0.02358   3.34
N044  3  0.96106  0.85112  0.32143 11.00000  0.02359   3.23
C045  2  0.83036  0.39456  0.73524 11.00000  0.01029   3.23
C046  2  0.66685  0.48949  0.61937 11.00000  0.14423   3.16
C047  2  0.32528  0.99990  0.49885 11.00000  0.02682   3.11
C048  2  0.42241  0.30892  0.51862 11.00000  0.06722   3.09
HKLF 4
END
