TITL shelx03-merge_expF_0_8_expS_1_4_shelx03-merge_a.res in P1
REM Old TITL 1 in I 1 #-1
REM SHELXT solution in P1: R1 0.721, Rweak 0.188, Alpha 0.000
REM <I/s>   0.000 for    0 systematic absences,  Orientation as input
REM Flack x =  0.154 ( 0.410 ) from   238 Parsons' quotients
REM Formula found by SHELXT:  C83 N40 O40

CELL  0.71073   9.3100  15.1100  30.5000   90.000   90.000   90.000
ZERR   52.000   0.0019   0.0030   0.0061    0.000    0.000    0.000
LATT -2
SFAC H C N O ZR
UNIT 20 20 20 20 20
L.S. 10
BOND
LIST 6
FMAP 2
PLAN 20
ZR01  5  0.58806  0.43690  0.70885 11.00000  0.05760  25.89
ZR02  5  0.24147  0.42961  0.71049 11.00000  0.01205  24.09
N003  3  0.74582  0.47290  0.71034 11.00000  0.00010  22.43
N004  3  0.70538  0.41135  0.70869 11.00000  0.00010  20.91
O005  4  0.09821  0.43215  0.71191 11.00000  0.01145  20.62
N006  3 -0.06907  0.45964  0.72024 11.00000  0.00010  20.49
N007  3  0.35872  0.43933  0.70374 11.00000  0.00010  19.33
O008  4  1.35785  0.43367  0.36748 11.00000  0.00010  18.92
O009  4  0.80180  0.42699  0.59012 11.00000  0.00010  17.69
N00A  3 -0.11308  0.53095  0.72865 11.00000  0.00066  17.03
O00B  4  1.49435  0.55738  0.34963 11.00000  0.05739  16.08
O00C  4  0.60282  0.57739  0.63138 11.00000  0.07740  15.86
N00D  3 -0.07183  0.63324  0.76485 11.00000  0.02514  15.41
N00E  3  1.39595  0.36699  0.37344 11.00000  0.02468  14.68
O00F  4  0.39203  0.58441  0.65804 11.00000  0.00010  14.58
O00G  4  0.85606  0.47965  0.44663 11.00000  0.07695  13.44
N00H  3  0.89444  0.64537  0.41814 11.00000  0.00432  13.20
N00I  3 -0.20363  0.68312  0.76790 11.00000  0.00407  13.19
N00J  3  0.79334  0.56798  0.28759 11.00000  0.01865  13.14
O00K  4  0.42995  0.43531  0.49930 11.00000  0.03096  12.89
O00L  4  1.19154  0.44681  0.35201 11.00000  0.01177  12.82
N00M  3  0.48845  0.50282  0.70705 11.00000  0.03204  12.77
O00N  4  0.54435  0.38897  0.68378 11.00000  0.00010  12.19
O00O  4  1.30611  0.49121  0.42996 11.00000  0.01177  12.15
O00P  4  1.61058  0.51714  0.34805 11.00000  0.00822  11.97
O00Q  4  1.09568  0.43010  0.62452 11.00000  0.00010  11.61
O00R  4  0.82499  0.42487  0.66019 11.00000  0.12524  11.54
O00S  4 -0.37255  0.76242  0.70496 11.00000  0.00323  11.44
N00T  3  1.13146  0.42738  0.29242 11.00000  0.02019  10.96
O00U  4 -0.34389  0.43509  0.82944 11.00000  0.04796  10.95
O00V  4  0.28026  0.78621  0.55531 11.00000  0.07801  10.55
O00W  4  0.13749  0.75420  0.62697 11.00000  0.01955  10.19
O00X  4  1.73469  0.12074  0.51695 11.00000  0.00010  10.13
O00Y  4  0.98544  0.31919  0.44979 11.00000  0.00010   9.96
N00Z  3  0.62117  0.70568  0.47720 11.00000  0.00010   9.80
O010  4  0.20609  0.36874  0.72235 11.00000  0.00790   9.79
N011  3 -0.27598  0.64015  0.70607 11.00000  0.00010   9.77
N012  3 -0.09105  0.55761  0.77367 11.00000  0.03843   9.62
C013  2  0.23869  0.69622  0.66723 11.00000  0.05835   9.57
O014  4  1.31647  0.67533  0.35201 11.00000  0.04069   9.55
C015  2  0.63691  0.41983  0.63664 11.00000  0.00010   9.46
O016  4  1.65300  0.15680  0.51051 11.00000  0.08752   9.44
N017  3 -0.19731  0.72347  0.71984 11.00000  0.02651   9.44
N018  3  0.80732  0.41413  0.41971 11.00000  0.02789   9.40
O019  4  0.93821  0.70691  0.26570 11.00000  0.01232   9.33
C01A  2  0.83997  0.74949  0.44888 11.00000  0.03338   9.32
O01B  4 -0.42360  0.70679  0.76440 11.00000  0.06967   9.31
N01C  3 -0.10119  0.50077  0.78206 11.00000  0.01253   9.15
N01D  3  1.01009  0.57544  0.39735 11.00000  0.00010   9.02
O01E  4  1.02475  0.21270  0.40510 11.00000  0.04383   8.85
O01F  4 -0.45745  0.58313  0.75992 11.00000  0.01181   8.62
O01G  4  0.02246  0.82001  0.64367 11.00000  0.05400   8.52
O01H  4 -0.01227  0.87783  0.63306 11.00000  0.02280   8.49
N01I  3  1.17194  0.52941  0.39633 11.00000  0.06954   8.42
O01J  4  1.58450  0.26849  0.25281 11.00000  0.06000   8.39
O01K  4  0.06137  0.61696  0.60756 11.00000  0.03387   8.39
O01L  4  1.67450  0.39011  0.34547 11.00000  0.05180   8.38
O01M  4  0.65698  0.96694  0.52851 11.00000  0.06244   8.26
N01N  3 -0.16985  0.59218  0.72093 11.00000  0.00010   8.25
O01O  4  1.31255  0.30661  0.36654 11.00000  0.00037   8.24
O01P  4  1.40998  0.74212  0.33833 11.00000  0.06944   8.10
N01Q  3  0.82039  0.61982  0.24821 11.00000  0.00010   7.99
O01R  4  0.72059  0.71261  0.21702 11.00000  0.03124   7.73
N01S  3  0.21347  0.60368  0.62727 11.00000  0.00265   7.72
O01T  4  0.84005  0.42855  0.23714 11.00000  0.05471   7.72
N01U  3  0.19553  0.65712  0.60474 11.00000  0.02906   7.61
O01V  4  0.63200  0.94693  0.46461 11.00000  0.02933   7.60
O01W  4 -0.54358  0.47822  0.84135 11.00000  0.01402   7.60
N01X  3  0.61902  0.39978  0.51807 11.00000  0.00010   7.45
C01Y  2 -0.27604  0.59996  0.78553 11.00000  0.00010   7.32
N01Z  3  1.10439  0.53732  0.24751 11.00000  0.00231   7.23
C020  2  0.93200  0.55626  0.28256 11.00000  0.03937   7.18
N021  3  0.56502  0.51480  0.52816 11.00000  0.03066   7.12
C022  2 -0.35177  0.63706  0.77782 11.00000  0.08284   7.07
N023  3  0.98475  0.44625  0.43056 11.00000  0.00316   7.00
N024  3  0.83877  0.38614  0.44361 11.00000  0.00010   6.97
N025  3  0.68966  0.37184  0.53279 11.00000  0.00010   6.91
N026  3  1.18750  0.35418  0.36003 11.00000  0.00406   6.90
N027  3  1.00618  0.39678  0.55260 11.00000  0.00010   6.78
N028  3  0.65886  0.65732  0.39505 11.00000  0.00010   6.76
N029  3  1.02444  0.43209  0.49364 11.00000  0.03314   6.71
N02A  3  0.97544  0.54152  0.38811 11.00000  0.00237   6.62
N02B  3  0.68988  0.30709  0.67741 11.00000  0.00010   6.61
N02C  3  1.07859  0.50752  0.27594 11.00000  0.03145   6.58
O02D  4  0.14878  0.70251  0.65867 11.00000  0.03750   6.49
N02E  3  0.49977  0.62043  0.51208 11.00000  0.00857   6.47
C02F  2 -0.23684  0.93080  0.65636 11.00000  0.00010   6.38
C02G  2  0.52210  0.26834  0.63303 11.00000  0.00010   6.36
N02H  3  0.71508  0.65325  0.26716 11.00000  0.00010   6.36
C02I  2  1.24943  0.53639  0.22263 11.00000  0.00644   6.28
C02J  2 -0.72404  0.38896  0.81518 11.00000  0.02322   6.27
C02K  2  1.36299  0.62396  0.23720 11.00000  0.00010   6.25
C02L  2  1.08102  0.36264  0.26135 11.00000  0.00010   6.23
C02M  2  1.46513  0.58620  0.22329 11.00000  0.00185   6.20
C02N  2  1.57412  0.30615  0.38803 11.00000  0.00010   6.17
C02O  2  0.63975  0.70308  0.50614 11.00000  0.03166   6.14
C02P  2  1.46586  0.54690  0.16035 11.00000  0.01454   5.96
C02Q  2  0.89626  0.79122  0.53183 11.00000  0.03805   5.84
C02R  2  0.33435  0.56775  0.56358 11.00000  0.01039   5.83
C02S  2  0.51828  0.97987  0.46100 11.00000  0.00010   5.83
C02T  2 -0.56504  0.42765  0.87366 11.00000  0.00010   5.81
C02U  2  1.52371  0.17766  0.52804 11.00000  0.00010   5.71
C02V  2 -0.61077  0.58920  0.82481 11.00000  0.00010   5.64
C02W  2  1.14701  0.57223  0.15246 11.00000  0.00010   5.47
C02X  2  0.71714  0.76132  0.43170 11.00000  0.00010   5.47
C02Y  2  1.21296  0.62207  0.20807 11.00000  0.00010   5.45
C02Z  2 -0.63984  0.26845  0.85601 11.00000  0.03146   5.43
C030  2 -0.73469  0.56971  0.73029 11.00000  0.00010   5.38
C031  2  0.62077  0.67514  0.16308 11.00000  0.01961   5.35
C032  2  0.25556  0.91491  0.56381 11.00000  0.04058   5.33
C033  2  0.89752  0.49118  0.59770 11.00000  0.00010   5.30
C034  2  0.68496  0.54985  0.13460 11.00000  0.00010   5.20
C035  2  0.01630  0.52008  0.74919 11.00000  0.04245   5.19
C036  2 -0.73308  0.63234  0.80824 11.00000  0.00072   5.09
C037  2  0.61909  0.67668  0.12634 11.00000  0.00010   5.07
C038  2  0.34180  0.78737  0.46810 11.00000  0.00896   5.04
C039  2  0.05055  0.58149  0.76812 11.00000  0.01212   4.97
C03A  2 -0.64442  0.55364  0.77779 11.00000  0.01302   4.96
C03B  2  1.18675  0.58310  0.42708 11.00000  0.05159   4.86
C03C  2  1.23529  0.27921  0.50915 11.00000  0.00010   4.69
C03D  2  0.52843 -0.02268  0.60992 11.00000  0.02767   4.51
C03E  2  0.27476  0.97596  0.55869 11.00000  0.00401   4.48
C03F  2  1.38964  0.11615  0.42756 11.00000  0.00010   4.45
C03G  2  1.26871  0.13337  0.49796 11.00000  0.00010   4.44
C03H  2  0.44364  0.77619  0.50800 11.00000  0.00040   4.41
C03I  2  0.66589  0.62258  0.58265 11.00000  0.02004   4.38
C03J  2  0.48663  0.07009  0.58070 11.00000  0.00525   4.37
C03K  2 -0.15716  0.96179  0.59260 11.00000  0.03147   4.28
C03L  2  1.33208  0.55925  0.22652 11.00000  0.00964   4.27
C03M  2  0.86573  0.68069  0.49325 11.00000  0.00010   4.20
C03N  2  1.18294  0.28256  0.56116 11.00000  0.00966   4.17
C03O  2  0.87007  0.56900  0.52981 11.00000  0.02711   4.15
C03P  2  0.98592  0.47271  0.39343 11.00000  0.00010   4.13
C03Q  2  1.17469  0.77597  0.37165 11.00000  0.01382   4.10
C03R  2 -0.62504  0.72095  0.83737 11.00000  0.00776   4.09
C03S  2  1.55162  0.41198  0.29106 11.00000  0.00010   4.02
C03T  2  0.80242  0.84389  0.48490 11.00000  0.00148   3.98
C03U  2  1.34864  0.26849  0.52477 11.00000  0.01631   3.96
C03V  2 -0.18615  0.83924  0.65463 11.00000  0.01964   3.94
C03W  2  0.93622  0.48525  0.47787 11.00000  0.00628   3.93
C03X  2  1.22908  0.22395  0.50269 11.00000  0.00010   3.88
C03Y  2  0.12525  1.00756  0.53491 11.00000  0.00464   3.82
C03Z  2  0.58203  0.80954  0.46754 11.00000  0.05267   3.78
C040  2  0.43483  0.17610  0.60928 11.00000  0.00010   3.69
C041  2  1.52685  0.42977  0.32434 11.00000  0.01582   3.67
C042  2  1.30802  0.69126  0.40206 11.00000  0.00423   3.66
C043  2  0.62932  0.47857  0.42050 11.00000  0.00010   3.65
C044  2  1.35887  0.16635  0.39335 11.00000  0.08451   3.64
C045  2  0.80291  0.75654  0.26987 11.00000  0.00010   3.62
C046  2  0.35114  0.55493  0.54220 11.00000  0.06878   3.61
C047  2  1.11824  0.41363  0.56815 11.00000  0.00010   3.60
C048  2  1.60697  0.27291  0.42011 11.00000  0.00010   3.57
C049  2  1.36371  0.62337  0.34094 11.00000  0.04168   3.54
C04A  2  0.61136  0.40059  0.46423 11.00000  0.00024   3.47
C04B  2  1.55066  0.38973  0.34561 11.00000  0.09002   3.43
C04C  2  0.22869  0.60400  0.55599 11.00000  0.00010   3.37
C04D  2  0.57319  0.44984  0.61745 11.00000  0.05631   3.31
C04E  2 -0.02600  1.02268  0.45468 11.00000  0.00010   3.26
C04F  2  0.07757  0.90377  0.54056 11.00000  0.00792   3.17
C04G  2  0.59053  0.49034  0.61371 11.00000  0.01371   3.09
C04H  2  0.75418  0.46528  0.29025 11.00000  0.13778   3.02
C04I  2 -0.38736  0.85902  0.68748 11.00000  0.02338   3.02
C04J  2  1.06613  0.23243  0.49245 11.00000  0.00767   3.02
N04K  3  1.13450  0.87414  0.40495 11.00000  0.02119   3.01
C04L  2  0.69031  0.30494  0.70959 11.00000  0.00010   3.01
HKLF 4
END
