TITL shelx03-merge_expF_1_4_expS_1_5_shelx03-merge_a.res in P1
REM Old TITL 1 in I 1 #-1
REM SHELXT solution in P1: R1 0.887, Rweak 0.131, Alpha 0.000
REM <I/s>   0.000 for    0 systematic absences,  Orientation as input
REM Flack x = -9.990 ( 1.118 ) from   249 Parsons' quotients
REM Formula found by SHELXT:  C37 N13 O18

CELL  0.71073   9.3100  15.1100  30.5000   90.000   90.000   90.000
ZERR   52.000   0.0019   0.0030   0.0061    0.000    0.000    0.000
LATT -2
SFAC H C N O ZR CL
UNIT 20 20 20 20 20 0
L.S. 10
BOND
LIST 6
FMAP 2
PLAN 20
CL01  6  1.19513  0.57736  0.34299 11.00000  0.06228  18.55
CL02  6  0.85781  0.56658  0.34217 11.00000  0.08637  17.71
CL03  6  0.71394  0.57655  0.34669 11.00000  0.06031  17.52
CL04  6  1.00191  0.61144  0.47805 11.00000  0.08393  14.36
CL05  6  1.09186  0.55894  0.34442 11.00000  0.05038  14.05
CL06  6  1.32464  0.55652  0.34606 11.00000  0.03499  14.02
CL07  6  0.96088  0.54440  0.33689 11.00000  0.06458  13.78
CL08  6  1.43946  0.58161  0.34067 11.00000  0.08263  13.56
CL09  6  0.19322  0.49301  0.64360 11.00000  0.06895  13.17
CL0A  6  0.33116  0.51805  0.64424 11.00000  0.09819  12.74
O00B  4  0.83324  0.57116  0.55198 11.00000  0.01420  12.29
N00C  3  0.72440  0.58356  0.56486 11.00000  0.00020  12.17
CL0D  6 -0.16671  0.36097  0.55030 11.00000  0.05363  11.93
N00E  3  0.11913  0.54387  0.65676 11.00000  0.01158  11.61
O00F  4  0.21128  0.56718  0.23029 11.00000  0.01523  11.19
O00G  4  0.68841  0.52175  0.59183 11.00000  0.03289  10.81
O00H  4  0.01265  0.55707  0.62365 11.00000  0.04173  10.32
N00I  3  0.01072  0.50200  0.65937 11.00000  0.00010  10.25
C00J  2  1.02303  0.39944  0.29006 11.00000  0.00010  10.17
O00K  4  0.79813  0.58438  0.22692 11.00000  0.02418   9.96
N00L  3  0.35497  0.53550  0.23229 11.00000  0.01943   9.87
O00M  4  0.10986  0.60122  0.67405 11.00000  0.00010   9.57
O00N  4  0.57878  0.58907  0.57113 11.00000  0.00010   9.15
N00O  3  0.53955  0.48054  0.63763 11.00000  0.00759   9.13
O00P  4  0.57776  0.15115  0.64925 11.00000  0.02660   8.73
O00Q  4  0.37798  0.14343  0.42162 11.00000  0.03373   8.72
O00R  4 -0.12451  0.47548  0.61401 11.00000  0.03019   8.62
O00S  4  0.87021  0.67909  0.56033 11.00000  0.01909   8.51
N00T  3  0.23599  0.16365  0.40845 11.00000  0.00010   8.09
O00U  4  0.01050  0.42814  0.61967 11.00000  0.04476   8.04
O00V  4  1.16108  0.37501  0.28821 11.00000  0.02304   7.65
N00W  3  0.43578  0.42159  0.63762 11.00000  0.01203   7.47
C00X  2  0.73527  0.54614  0.22587 11.00000  0.01889   7.42
N00Y  3  0.35587  0.33995  0.72497 11.00000  0.00010   7.13
N00Z  3 -0.43946  0.23902  0.78072 11.00000  0.00010   6.97
C010  2  0.28708  0.49379  0.44306 11.00000  0.02472   6.88
N011  3  0.15871  0.40326  0.69002 11.00000  0.01358   6.66
N012  3  0.45142  0.59674  0.21928 11.00000  0.07789   6.58
C013  2 -0.13425  0.60090  0.63719 11.00000  0.04267   6.52
C014  2  0.22915  0.35502  0.70988 11.00000  0.04204   6.25
C015  2  0.43835  0.87913  0.59489 11.00000  0.00010   6.15
O016  4  0.40085  0.45478  0.44333 11.00000  0.01066   6.09
C017  2  0.54588  0.43798  0.57734 11.00000  0.00010   6.05
C018  2  0.45770  0.18081  0.64901 11.00000  0.00010   6.04
C019  2 -0.07428  0.55649  0.68727 11.00000  0.00010   5.86
C01A  2  0.16132  0.14635  0.38990 11.00000  0.00010   5.74
C01B  2  0.08961  0.39128  0.49395 11.00000  0.01510   5.48
C01C  2  0.41998  0.46939  0.26459 11.00000  0.02411   5.45
C01D  2 -0.15329  0.58094  0.67136 11.00000  0.00030   5.37
C01E  2  0.59099  0.83820  0.57460 11.00000  0.00891   5.28
C01F  2  0.91046  0.49734  0.27278 11.00000  0.00010   5.20
O01G  4  0.48013  0.49036  0.23162 11.00000  0.05283   5.20
C01H  2  0.77831  0.23801  0.42215 11.00000  0.00922   5.15
C01I  2  0.32359  0.37539  0.49788 11.00000  0.00010   5.12
C01J  2  0.83123  0.39170  0.34592 11.00000  0.00911   5.01
O01K  4 -0.09450  0.69416  0.65012 11.00000  0.02244   4.89
C01L  2  0.66611  0.85970  0.60144 11.00000  0.00010   4.89
C01M  2 -0.22939  0.30368  0.74328 11.00000  0.00010   4.76
C01N  2  0.12859  0.33853  0.50636 11.00000  0.00599   4.72
C01O  2  0.37704  0.86766  0.60369 11.00000  0.00010   4.72
O01P  4  0.26237  0.78492  0.41940 11.00000  0.04091   4.69
C01Q  2  0.48693  0.34873  0.45869 11.00000  0.02211   4.64
C01R  2 -0.16026  0.41111  0.68376 11.00000  0.00803   4.58
O01S  4  0.35000  0.68555  0.57618 11.00000  0.02749   4.57
N01T  3  1.20609  0.16938  0.26838 11.00000  0.04343   4.33
C01U  2  0.61533  0.22052  0.43775 11.00000  0.02018   4.12
C01V  2  0.31164  0.31835  0.62332 11.00000  0.00888   3.91
N01W  3  0.52947  0.19184  0.39096 11.00000  0.13686   3.87
C01X  2  0.63996  0.34909  0.28411 11.00000  0.00498   3.80
C01Y  2  0.22422  0.43028  0.45250 11.00000  0.00010   3.70
C01Z  2  0.15267  0.36952  0.51078 11.00000  0.00537   3.68
C020  2  0.44926  0.72087  0.55529 11.00000  0.04179   3.61
C021  2  0.05458  0.12087  0.39678 11.00000  0.06076   3.57
C022  2  0.26308  0.84084  0.54163 11.00000  0.03170   3.56
C023  2  1.13308  0.36472  0.33936 11.00000  0.02193   3.46
C024  2  0.90158  0.20990  0.39533 11.00000  0.00734   3.41
C025  2  0.13108  0.82678  0.40654 11.00000  0.02633   3.30
C026  2  0.51029  0.26627  0.44416 11.00000  0.01737   3.27
C027  2  0.74101  0.32024  0.36941 11.00000  0.02213   3.01
HKLF 4
END
