TITL 1230 in P6(3)mc 
CELL 0.71073  12.4770  12.4770   4.8820  90.000  90.000 120.000 
ZERR    8.00   0.0018   0.0018   0.0010   0.000   0.000   0.000 
LATT -1 
SYMM -Y, X-Y, Z 
SYMM -X+Y, -X, Z 
SYMM -X, -Y, 0.5+Z 
SYMM Y, -X+Y, 0.5+Z 
SYMM X-Y, X, 0.5+Z 
SYMM -Y, -X, Z 
SYMM -X+Y, Y, Z 
SYMM X, X-Y, Z 
SYMM Y, X, 0.5+Z 
SYMM X-Y, -Y, 0.5+Z 
SYMM -X, -X+Y, 0.5+Z 
SFAC O H V CO 
UNIT 8 8 8 8 
 
L.S. 4 
BOND 
FMAP 2 
PLAN 20 
 
MOLE   1 
CO1   4  0.3040  0.1520  0.0439 10.500000  0.05 
V2    3  0.4271  0.3508  0.5626 11.000000  0.05 
V3    3  0.6667  0.3333 -0.1180 10.166667  0.05 
V4    3  0.0000  0.0000  0.0625 10.166667  0.05 
V5    3  0.1436  0.0718 -0.0045 10.500000  0.05 
Q1    1  0.6013  0.3987  0.0446 10.500000  0.05  140.07 
Q2    1  0.5976  0.4024  0.4297 10.500000  0.05  130.82 
Q3    1  0.6667  0.3333  0.3440 10.166667  0.05  112.57 
Q4    1  0.4723  0.5277  0.4061 10.500000  0.05  105.60 
Q5    1  0.5200  0.4800  0.5337 10.500000  0.05   94.74 
Q6    1  0.3167  0.2618  0.4285 11.000000  0.05   70.94 
Q7    1  0.3891  0.1945 -0.2273 10.500000  0.05   69.41 
Q8    1  0.3724  0.0673  0.2819 11.000000  0.05   64.58 
MOLE   2 
HKLF 4                                                                          
END  
