TITL 1230 in P6(3)mc 
CELL 0.71073  12.4770  12.4770   4.8820  90.000  90.000 120.000 
ZERR    8.00   0.0018   0.0018   0.0010   0.000   0.000   0.000 
LATT -1 
SYMM -Y, X-Y, Z 
SYMM -X+Y, -X, Z 
SYMM -X, -Y, 0.5+Z 
SYMM Y, -X+Y, 0.5+Z 
SYMM X-Y, X, 0.5+Z 
SYMM -Y, -X, Z 
SYMM -X+Y, Y, Z 
SYMM X, X-Y, Z 
SYMM Y, X, 0.5+Z 
SYMM X-Y, -Y, 0.5+Z 
SYMM -X, -X+Y, 0.5+Z 
SFAC O H V CO 
UNIT 8 8 8 8 
 
L.S. 4 
BOND 
FMAP 2 
PLAN 20 
 
MOLE   1 
CO1   4  0.7047  0.8523  0.4289 10.500000  0.05 
CO2   4  0.3333  0.6667 -0.7371 10.166667  0.05 
CO3   4  0.5760  0.9231 -0.0545 11.000000  0.05 
V4    3  1.0000  1.0000  0.2288 10.166667  0.05 
V5    3  1.0000  1.0000  0.4590 10.166667  0.05 
Q1    1  0.6141  0.8070  0.1556 10.500000  0.05  110.04 
Q2    1  0.8642  0.9321  0.3975 10.500000  0.05  102.20 
Q3    1  0.3333  0.6667 -0.2713 10.166667  0.05  101.67 
Q4    1  0.4037  0.8075 -0.1985 10.500000  0.05  101.28 
Q5    1  0.6481  0.9320  0.7281 11.000000  0.05   85.65 
Q6    1  0.8911  1.1089  0.4404 10.500000  0.05   81.86 
Q7    1  0.4666  0.9332  0.3049 10.500000  0.05   71.61 
Q8    1  0.3867  0.7735 -0.8993 10.500000  0.05   66.72 
MOLE   2 
HKLF 4                                                                          
END  
