TITL 1230 in P6(3)mc 
CELL 0.71073  12.4770  12.4770   4.8820  90.000  90.000 120.000 
ZERR    8.00   0.0018   0.0018   0.0010   0.000   0.000   0.000 
LATT -1 
SYMM -Y, X-Y, Z 
SYMM -X+Y, -X, Z 
SYMM -X, -Y, 0.5+Z 
SYMM Y, -X+Y, 0.5+Z 
SYMM X-Y, X, 0.5+Z 
SYMM -Y, -X, Z 
SYMM -X+Y, Y, Z 
SYMM X, X-Y, Z 
SYMM Y, X, 0.5+Z 
SYMM X-Y, -Y, 0.5+Z 
SYMM -X, -X+Y, 0.5+Z 
SFAC O H V CO 
UNIT 8 8 8 8 
 
L.S. 4 
BOND 
FMAP 2 
PLAN 20 
 
MOLE   1 
CO1   4  0.1490  0.8510  0.0721 10.500000  0.05 
CO2   4  0.0000  1.0000  0.3074 10.166667  0.05 
V3    3  0.3438  0.9172  0.5791 11.000000  0.05 
V5    3  0.0000  1.0000  0.0460 10.166667  0.05 
Q1    1  0.1912  0.8088  0.3590 10.500000  0.05  111.14 
Q2    1  0.4002  0.8004  0.7383 10.500000  0.05  102.09 
Q3    1  0.0633  0.7113 -0.1846 11.000000  0.05   89.21 
Q4    1  0.4877  0.9755  0.5893 10.500000  0.05   82.11 
Q5    1  0.0710  0.9290  0.0527 10.500000  0.05   78.81 
Q6    1  0.0652  0.9348  0.2257 10.500000  0.05   77.91 
Q7    1  0.2245  1.1122  0.0920 10.500000  0.05   70.09 
Q8    1  0.1913  0.8087 -0.1746 10.500000  0.05   66.94 
MOLE   2 
V4    3  0.3333  0.6667  0.2800 10.166667  0.05 
HKLF 4                                                                          
END  
