TITL 1230 in P6(3)mc 
CELL 0.71073  12.4770  12.4770   4.8820  90.000  90.000 120.000 
ZERR    8.00   0.0018   0.0018   0.0010   0.000   0.000   0.000 
LATT -1 
SYMM -Y, X-Y, Z 
SYMM -X+Y, -X, Z 
SYMM -X, -Y, 0.5+Z 
SYMM Y, -X+Y, 0.5+Z 
SYMM X-Y, X, 0.5+Z 
SYMM -Y, -X, Z 
SYMM -X+Y, Y, Z 
SYMM X, X-Y, Z 
SYMM Y, X, 0.5+Z 
SYMM X-Y, -Y, 0.5+Z 
SYMM -X, -X+Y, 0.5+Z 
SFAC O H V CO 
UNIT 8 8 8 8 
 
L.S. 4 
BOND 
FMAP 2 
PLAN 20 
 
MOLE   1 
CO1   4  0.6667  0.3333  0.4236 10.166667  0.05 
Q1    1  0.9609  0.4804 -0.0725 10.500000  0.05  202.15 
Q2    1  0.8215  0.4108 -0.0691 10.500000  0.05  187.04 
Q7    1  0.8066  0.2585 -0.0756 11.000000  0.05  117.84 
Q8    1  0.7820  0.3910  0.0757 10.500000  0.05  113.80 
MOLE   2 
V2    3  0.9150  0.0850  0.4361 10.500000  0.05 
Q3    1  0.8112  0.1888  0.5477 10.500000  0.05  148.22 
Q4    1  1.0000  0.0000  0.1852 10.166667  0.05  142.32 
Q5    1  0.8624  0.1376  0.1680 10.500000  0.05  137.95 
Q6    1  0.8626  0.1374  0.6884 10.500000  0.05  135.32 
MOLE   3 
HKLF 4                                                                          
END  
