TITL 1230 in P6(3)mc 
CELL 0.71073  12.4770  12.4770   4.8820  90.000  90.000 120.000 
ZERR    8.00   0.0018   0.0018   0.0010   0.000   0.000   0.000 
LATT -1 
SYMM -Y, X-Y, Z 
SYMM -X+Y, -X, Z 
SYMM -X, -Y, 0.5+Z 
SYMM Y, -X+Y, 0.5+Z 
SYMM X-Y, X, 0.5+Z 
SYMM -Y, -X, Z 
SYMM -X+Y, Y, Z 
SYMM X, X-Y, Z 
SYMM Y, X, 0.5+Z 
SYMM X-Y, -Y, 0.5+Z 
SYMM -X, -X+Y, 0.5+Z 
SFAC O H V CO 
UNIT 8 8 8 8 
 
L.S. 4 
BOND 
FMAP 2 
PLAN 20 
 
MOLE   1 
CO1   4  0.6667  0.3333 -0.0069 10.166667  0.05 
V2    3  0.7799  0.3899 -0.3107 10.500000  0.05 
V3    3  0.9632  0.4816 -0.5041 10.500000  0.05 
V4    3  0.9190  0.0810  0.9987 10.500000  0.05 
V5    3  0.6964  0.3036  0.1923 10.500000  0.05 
V6    3  0.5806  0.4194  0.4832 10.500000  0.05 
Q1    1  0.8071  0.1929  0.1876 10.500000  0.05  214.49 
Q2    1  0.9292  0.3175 -0.3057 11.000000  0.05  147.43 
Q3    1  0.7554  0.1060  0.4883 11.000000  0.05  127.15 
Q4    1  0.8058  0.2586 -0.5148 11.000000  0.05  117.86 
Q5    1  0.8542  0.1458  0.7403 10.500000  0.05  106.82 
Q6    1  0.7408  0.2592 -0.2561 10.500000  0.05  102.25 
Q7    1  0.9119  0.2481  0.9721 11.000000  0.05  100.75 
Q8    1  0.7519  0.0881  0.9721 11.000000  0.05  100.75 
MOLE   2 
HKLF 4                                                                          
END  
