TITL 1230 in P6(3)mc 
CELL 0.71073  12.4770  12.4770   4.8820  90.000  90.000 120.000 
ZERR    8.00   0.0018   0.0018   0.0010   0.000   0.000   0.000 
LATT -1 
SYMM -Y, X-Y, Z 
SYMM -X+Y, -X, Z 
SYMM -X, -Y, 0.5+Z 
SYMM Y, -X+Y, 0.5+Z 
SYMM X-Y, X, 0.5+Z 
SYMM -Y, -X, Z 
SYMM -X+Y, Y, Z 
SYMM X, X-Y, Z 
SYMM Y, X, 0.5+Z 
SYMM X-Y, -Y, 0.5+Z 
SYMM -X, -X+Y, 0.5+Z 
SFAC O H V CO 
UNIT 8 8 8 8 
 
L.S. 4 
BOND 
FMAP 2 
PLAN 20 
 
MOLE   1 
CO1   4  0.4234  0.0774  0.2386 11.000000  0.05 
CO2   4  0.2940  0.1470  0.7507 10.500000  0.05 
CO3   4  0.6667  0.3333  0.5118 10.166667  0.05 
CO4   4  0.0000  0.0000  0.5191 10.166667  0.05 
V5    3  0.1360  0.0680  0.5616 10.500000  0.05 
V6    3  0.0000  0.0000  0.2450 10.166667  0.05 
Q1    1  0.5975  0.1950  0.1025 10.500000  0.05   99.61 
Q2    1  0.2102  0.1051  0.2628 10.500000  0.05   81.31 
Q3    1  0.3849  0.1925  0.4734 10.500000  0.05   77.93 
Q4    1  0.3408  0.0891  0.5835 11.000000  0.05   71.85 
Q5    1  0.4651 -0.0698  0.1814 10.500000  0.05   69.22 
Q6    1  0.3794  0.1897 -0.0261 10.500000  0.05   68.33 
Q7    1  0.5111  0.2029  0.2256 11.000000  0.05   65.78 
Q8    1  0.6011  0.3989  0.7471 10.500000  0.05   58.44 
MOLE   2 
HKLF 4                                                                          
END  
