TITL 1230 in P6(3)mc 
CELL 0.71073  12.4770  12.4770   4.8820  90.000  90.000 120.000 
ZERR    8.00   0.0018   0.0018   0.0010   0.000   0.000   0.000 
LATT -1 
SYMM -Y, X-Y, Z 
SYMM -X+Y, -X, Z 
SYMM -X, -Y, 0.5+Z 
SYMM Y, -X+Y, 0.5+Z 
SYMM X-Y, X, 0.5+Z 
SYMM -Y, -X, Z 
SYMM -X+Y, Y, Z 
SYMM X, X-Y, Z 
SYMM Y, X, 0.5+Z 
SYMM X-Y, -Y, 0.5+Z 
SYMM -X, -X+Y, 0.5+Z 
SFAC O H V CO 
UNIT 8 8 8 8 
 
L.S. 4 
BOND 
FMAP 2 
PLAN 20 
 
MOLE   1 
CO1   4  0.6667  0.3333  0.2613 10.166667  0.05 
V2    3  0.5851  0.4149 -0.2369 10.500000  0.05 
Q1    1  0.8229  0.9115 -0.2469 10.500000  0.05  184.80 
Q4    1  0.7344  0.7675 -0.2348 11.000000  0.05   98.03 
Q5    1  0.6505  0.5749 -0.4993 11.000000  0.05   93.25 
Q6    1  0.7020  0.6179 -0.3554 11.000000  0.05   90.64 
Q7    1  0.7004  0.5688 -0.2557 11.000000  0.05   78.61 
Q8    1  0.8085  0.4911  0.4986 11.000000  0.05   76.55 
MOLE   2 
Q2    1  0.8069  0.6137  0.0864 10.500000  0.05  130.12 
Q3    1  0.8623  0.7245 -0.0672 10.500000  0.05  129.59 
MOLE   3 
HKLF 4                                                                          
END  
