TITL 1230 in P6(3)mc 
CELL 0.71073  12.4770  12.4770   4.8820  90.000  90.000 120.000 
ZERR    8.00   0.0018   0.0018   0.0010   0.000   0.000   0.000 
LATT -1 
SYMM -Y, X-Y, Z 
SYMM -X+Y, -X, Z 
SYMM -X, -Y, 0.5+Z 
SYMM Y, -X+Y, 0.5+Z 
SYMM X-Y, X, 0.5+Z 
SYMM -Y, -X, Z 
SYMM -X+Y, Y, Z 
SYMM X, X-Y, Z 
SYMM Y, X, 0.5+Z 
SYMM X-Y, -Y, 0.5+Z 
SYMM -X, -X+Y, 0.5+Z 
SFAC O H V CO 
UNIT 8 8 8 8 
 
L.S. 4 
BOND 
FMAP 2 
PLAN 20 
 
MOLE   1 
CO1   4  0.3333  0.6667  0.1896 10.166667  0.05 
Q6    1  0.4594  0.7297  0.1894 10.500000  0.05  126.80 
MOLE   2 
Q1    1  0.5893  0.4107  0.1871 10.500000  0.05  218.75 
Q2    1  0.5219  0.4781  0.1865 10.500000  0.05  214.69 
MOLE   3 
Q3    1  0.0844  0.9156  0.1756 10.500000  0.05  207.19 
Q4    1  0.1917  0.8083  0.0067 10.500000  0.05  153.20 
Q7    1  0.0251  0.7618  0.1819 11.000000  0.05   97.38 
Q8    1  0.1062  0.6971  0.1897 11.000000  0.05   92.99 
MOLE   4 
Q5    1  1.0000  1.0000  0.4314 10.166667  0.05  141.48 
HKLF 4                                                                          
END  
