TITL 1230 in P6(3)mc 
CELL 0.71073  12.4770  12.4770   4.8820  90.000  90.000 120.000 
ZERR    8.00   0.0018   0.0018   0.0010   0.000   0.000   0.000 
LATT -1 
SYMM -Y, X-Y, Z 
SYMM -X+Y, -X, Z 
SYMM -X, -Y, 0.5+Z 
SYMM Y, -X+Y, 0.5+Z 
SYMM X-Y, X, 0.5+Z 
SYMM -Y, -X, Z 
SYMM -X+Y, Y, Z 
SYMM X, X-Y, Z 
SYMM Y, X, 0.5+Z 
SYMM X-Y, -Y, 0.5+Z 
SYMM -X, -X+Y, 0.5+Z 
SFAC O H V CO 
UNIT 8 8 8 8 
 
L.S. 4 
BOND 
FMAP 2 
PLAN 20 
 
MOLE   1 
CO1   4  0.1474  0.8526  0.1189 10.500000  0.05 
V2    3  0.3466  0.9217 -0.3773 11.000000  0.05 
V3    3  0.0000  1.0000  0.3448 10.166667  0.05 
V4    3  0.2281  0.9043 -0.0432 11.000000  0.05 
V5    3  0.5304  0.9343 -0.5717 11.000000  0.05 
V6    3  0.3333  0.6667 -0.1744 10.166667  0.05 
V7    3  0.3333  0.6667 -0.6241 10.166667  0.05 
Q1    1  0.2080  0.7035 -0.3659 11.000000  0.05  100.22 
Q2    1  0.0326  0.8481  0.4494 11.000000  0.05   99.09 
Q3    1  0.2450  0.8268  0.4451 11.000000  0.05   96.49 
Q4    1  0.0680  0.9320  0.0991 10.500000  0.05   92.17 
Q5    1  0.3475  0.7936 -0.0778 11.000000  0.05   89.43 
Q6    1  0.3016  0.7985  0.1181 11.000000  0.05   86.88 
Q7    1  0.1079  0.9949  0.2716 11.000000  0.05   81.27 
Q8    1  0.3802  0.7603 -0.8308 10.500000  0.05   78.22 
MOLE   2 
HKLF 4                                                                          
END  
