TITL 1230 in P6(3)mc 
CELL 0.71073  12.4770  12.4770   4.8820  90.000  90.000 120.000 
ZERR    8.00   0.0018   0.0018   0.0010   0.000   0.000   0.000 
LATT -1 
SYMM -Y, X-Y, Z 
SYMM -X+Y, -X, Z 
SYMM -X, -Y, 0.5+Z 
SYMM Y, -X+Y, 0.5+Z 
SYMM X-Y, X, 0.5+Z 
SYMM -Y, -X, Z 
SYMM -X+Y, Y, Z 
SYMM X, X-Y, Z 
SYMM Y, X, 0.5+Z 
SYMM X-Y, -Y, 0.5+Z 
SYMM -X, -X+Y, 0.5+Z 
SFAC O H V CO 
UNIT 8 8 8 8 
 
L.S. 4 
BOND 
FMAP 2 
PLAN 20 
 
MOLE   1 
CO1   4  0.8500  0.1500  0.1456 10.500000  0.05 
CO2   4  0.6667  0.3333 -0.9625 10.166667  0.05 
V3    3  0.9231  0.3486 -0.3142 11.000000  0.05 
V4    3  1.0000  0.0000  0.0604 10.166667  0.05 
V5    3  0.9213  0.0787  0.1027 10.500000  0.05 
V6    3  0.8253  0.4127 -0.4788 10.500000  0.05 
Q1    1  0.8039  0.1961 -0.1248 10.500000  0.05  122.86 
Q2    1  0.9376  0.4688 -0.0159 10.500000  0.05  100.91 
Q3    1  0.8095  0.1905  0.3934 10.500000  0.05   97.17 
Q4    1  0.9045  0.4523 -0.1906 10.500000  0.05   83.53 
Q5    1  0.9326  0.2883  0.4258 11.000000  0.05   82.50 
Q6    1  0.6059  0.3941 -0.8307 10.500000  0.05   79.65 
Q7    1  0.9680  0.4840 -0.3561 10.500000  0.05   74.49 
Q8    1  1.0865  0.5433 -0.2912 10.500000  0.05   73.84 
MOLE   2 
HKLF 4                                                                          
END  
