TITL 1230 in P6(3)mc 
CELL 0.71073  12.4770  12.4770   4.8820  90.000  90.000 120.000 
ZERR    8.00   0.0018   0.0018   0.0010   0.000   0.000   0.000 
LATT -1 
SYMM -Y, X-Y, Z 
SYMM -X+Y, -X, Z 
SYMM -X, -Y, 0.5+Z 
SYMM Y, -X+Y, 0.5+Z 
SYMM X-Y, X, 0.5+Z 
SYMM -Y, -X, Z 
SYMM -X+Y, Y, Z 
SYMM X, X-Y, Z 
SYMM Y, X, 0.5+Z 
SYMM X-Y, -Y, 0.5+Z 
SYMM -X, -X+Y, 0.5+Z 
SFAC O H V CO 
UNIT 8 8 8 8 
 
L.S. 4 
BOND 
FMAP 2 
PLAN 20 
 
MOLE   1 
CO1   4  0.6667  0.3333  0.4280 10.166667  0.05 
V2    3  0.5855  0.4145  0.9231 10.500000  0.05 
MOLE   2 
Q1    1  0.9177  0.0823  0.4230 10.500000  0.05  228.39 
Q3    1  0.8056  0.1944  0.1019 10.500000  0.05  159.33 
Q4    1  0.8652  0.1348  0.7632 10.500000  0.05  140.09 
Q5    1  0.7076  0.0957  0.4372 11.000000  0.05  111.08 
Q6    1  0.8132  0.1868  0.5784 10.500000  0.05  105.90 
Q7    1  0.7852  0.2148  0.4366 10.500000  0.05   95.41 
Q8    1  0.7666  0.0230  0.4323 11.000000  0.05   92.41 
MOLE   3 
Q2    1  0.0000  0.0000  0.1772 10.166667  0.05  209.05 
HKLF 4                                                                          
END  
