TITL 1230 in P6(3)mc 
CELL 0.71073  12.4770  12.4770   4.8820  90.000  90.000 120.000 
ZERR    8.00   0.0018   0.0018   0.0010   0.000   0.000   0.000 
LATT -1 
SYMM -Y, X-Y, Z 
SYMM -X+Y, -X, Z 
SYMM -X, -Y, 0.5+Z 
SYMM Y, -X+Y, 0.5+Z 
SYMM X-Y, X, 0.5+Z 
SYMM -Y, -X, Z 
SYMM -X+Y, Y, Z 
SYMM X, X-Y, Z 
SYMM Y, X, 0.5+Z 
SYMM X-Y, -Y, 0.5+Z 
SYMM -X, -X+Y, 0.5+Z 
SFAC O H V CO 
UNIT 8 8 8 8 
 
L.S. 4 
BOND 
FMAP 2 
PLAN 20 
 
MOLE   1 
CO1   4  0.3333  0.6667  0.4013 10.166667  0.05 
MOLE   2 
Q1    1  0.5885  0.4115  0.4004 10.500000  0.05  243.22 
Q3    1  0.5213  0.4787  0.3994 10.500000  0.05  199.58 
Q7    1  0.6667  0.3333  0.4017 10.166667  0.05   86.95 
MOLE   3 
Q2    1  0.0816  0.9184  0.4078 10.500000  0.05  214.14 
Q4    1  0.1929  0.8071  0.6025 10.500000  0.05  152.36 
Q5    1  0.0273  0.7539  0.4034 11.000000  0.05   89.09 
Q6    1  0.1084  0.7039  0.3977 11.000000  0.05   88.95 
Q8    1  0.1793  0.8207  0.8885 10.500000  0.05   85.07 
MOLE   4 
HKLF 4                                                                          
END  
