TITL 1230 in P6(3)mc 
CELL 0.71073  12.4770  12.4770   4.8820  90.000  90.000 120.000 
ZERR    8.00   0.0018   0.0018   0.0010   0.000   0.000   0.000 
LATT -1 
SYMM -Y, X-Y, Z 
SYMM -X+Y, -X, Z 
SYMM -X, -Y, 0.5+Z 
SYMM Y, -X+Y, 0.5+Z 
SYMM X-Y, X, 0.5+Z 
SYMM -Y, -X, Z 
SYMM -X+Y, Y, Z 
SYMM X, X-Y, Z 
SYMM Y, X, 0.5+Z 
SYMM X-Y, -Y, 0.5+Z 
SYMM -X, -X+Y, 0.5+Z 
SFAC O H V CO 
UNIT 8 8 8 8 
 
L.S. 4 
BOND 
FMAP 2 
PLAN 20 
 
MOLE   1 
CO1   4  0.6667  0.3333  0.4719 10.166667  0.05 
V2    3  0.5863  0.4137  0.9695 10.500000  0.05 
MOLE   2 
Q1    1  0.9174  0.0826  0.4689 10.500000  0.05  224.59 
Q3    1  0.8083  0.1917  0.2956 10.500000  0.05  154.72 
Q4    1  0.7072  0.0961  0.4720 11.000000  0.05  108.39 
Q5    1  0.7863  0.2137  0.4520 10.500000  0.05   93.55 
Q6    1  0.7760  0.0280  0.4725 11.000000  0.05   90.12 
Q7    1  0.8657  0.1343 -0.1937 10.500000  0.05   89.54 
Q8    1  0.8645  0.1355  0.1305 10.500000  0.05   89.08 
MOLE   3 
Q2    1  1.0000  1.0000  0.2217 10.166667  0.05  216.29 
HKLF 4                                                                          
END  
