TITL 1230 in P6(3)mc 
CELL 0.71073  12.4770  12.4770   4.8820  90.000  90.000 120.000 
ZERR    8.00   0.0018   0.0018   0.0010   0.000   0.000   0.000 
LATT -1 
SYMM -Y, X-Y, Z 
SYMM -X+Y, -X, Z 
SYMM -X, -Y, 0.5+Z 
SYMM Y, -X+Y, 0.5+Z 
SYMM X-Y, X, 0.5+Z 
SYMM -Y, -X, Z 
SYMM -X+Y, Y, Z 
SYMM X, X-Y, Z 
SYMM Y, X, 0.5+Z 
SYMM X-Y, -Y, 0.5+Z 
SYMM -X, -X+Y, 0.5+Z 
SFAC O H V CO 
UNIT 8 8 8 8 
 
L.S. 4 
BOND 
FMAP 2 
PLAN 20 
 
MOLE   1 
CO1   4  0.3333  0.6667  0.4525 10.166667  0.05 
MOLE   2 
Q1    1  0.5883  0.4117  0.4535 10.500000  0.05  253.10 
Q3    1  0.5228  0.4772  0.4472 10.500000  0.05  196.35 
MOLE   3 
Q2    1  0.0831  0.9169  0.4485 10.500000  0.05  220.94 
Q4    1  0.1889  0.8111  0.2808 10.500000  0.05  158.74 
Q5    1  0.2965  0.8923  0.4528 11.000000  0.05   91.97 
Q6    1  0.1778  0.8222 -0.0458 10.500000  0.05   87.39 
Q7    1  0.3000  0.9209 -0.1799 11.000000  0.05   82.88 
Q8    1  0.2361  0.9689  0.4440 11.000000  0.05   76.98 
MOLE   4 
HKLF 4                                                                          
END  
