TITL 1230 in P6(3)mc 
CELL 0.71073  12.4770  12.4770   4.8820  90.000  90.000 120.000 
ZERR    8.00   0.0018   0.0018   0.0010   0.000   0.000   0.000 
LATT -1 
SYMM -Y, X-Y, Z 
SYMM -X+Y, -X, Z 
SYMM -X, -Y, 0.5+Z 
SYMM Y, -X+Y, 0.5+Z 
SYMM X-Y, X, 0.5+Z 
SYMM -Y, -X, Z 
SYMM -X+Y, Y, Z 
SYMM X, X-Y, Z 
SYMM Y, X, 0.5+Z 
SYMM X-Y, -Y, 0.5+Z 
SYMM -X, -X+Y, 0.5+Z 
SFAC O H V CO 
UNIT 8 8 8 8 
 
L.S. 4 
BOND 
FMAP 2 
PLAN 20 
 
MOLE   1 
CO1   4  0.3333  0.6667  0.0854 10.166667  0.05 
Q4    1  0.4600  0.7300  0.0871 10.500000  0.05  137.06 
MOLE   2 
Q1    1  0.5878  0.4122  0.0868 10.500000  0.05  265.97 
Q3    1  0.5228  0.4772  0.0856 10.500000  0.05  197.89 
MOLE   3 
Q2    1  0.0837  0.9163  0.0795 10.500000  0.05  237.26 
MOLE   4 
Q5    1  0.3819  0.1910  0.4016 10.500000  0.05  136.61 
Q6    1  0.4079  0.3045  0.5837 11.000000  0.05  113.19 
Q7    1  0.3538  0.1769  0.0911 10.500000  0.05  110.17 
MOLE   5 
Q8    1  0.0000  0.0000  0.3183 10.166667  0.05   96.74 
HKLF 4                                                                          
END  
