TITL 1230 in P6(3)mc 
CELL 0.71073  12.4770  12.4770   4.8820  90.000  90.000 120.000 
ZERR    8.00   0.0018   0.0018   0.0010   0.000   0.000   0.000 
LATT -1 
SYMM -Y, X-Y, Z 
SYMM -X+Y, -X, Z 
SYMM -X, -Y, 0.5+Z 
SYMM Y, -X+Y, 0.5+Z 
SYMM X-Y, X, 0.5+Z 
SYMM -Y, -X, Z 
SYMM -X+Y, Y, Z 
SYMM X, X-Y, Z 
SYMM Y, X, 0.5+Z 
SYMM X-Y, -Y, 0.5+Z 
SYMM -X, -X+Y, 0.5+Z 
SFAC O H V CO 
UNIT 8 8 8 8 
 
L.S. 4 
BOND 
FMAP 2 
PLAN 20 
 
MOLE   1 
CO1   4  0.7064  0.8532  0.1373 10.500000  0.05 
CO2   4  0.5765  0.9226 -0.3583 11.000000  0.05 
V3    3  1.0000  1.0000  0.4058 10.166667  0.05 
V4    3  0.3333  0.6667 -1.0716 10.166667  0.05 
V5    3  1.0000  1.0000  0.1072 10.166667  0.05 
Q1    1  0.3999  0.7998 -0.5077 10.500000  0.05  118.79 
Q2    1  0.8646  0.9323  0.0731 10.500000  0.05  104.46 
Q3    1  0.6144  0.8072 -0.1060 10.500000  0.05   94.52 
Q4    1  0.6612  0.9384  0.4483 11.000000  0.05   84.78 
Q5    1  0.8919  1.1081  0.1450 10.500000  0.05   80.73 
Q6    1  0.6204  0.8102  0.4408 10.500000  0.05   64.99 
Q7    1  0.4661  0.9323 -0.0064 10.500000  0.05   64.60 
Q8    1  0.3333  0.6667 -0.5998 10.166667  0.05   64.23 
MOLE   2 
HKLF 4                                                                          
END  
