TITL 1230 in P6(3)mc 
CELL 0.71073  12.4770  12.4770   4.8820  90.000  90.000 120.000 
ZERR    8.00   0.0018   0.0018   0.0010   0.000   0.000   0.000 
LATT -1 
SYMM -Y, X-Y, Z 
SYMM -X+Y, -X, Z 
SYMM -X, -Y, 0.5+Z 
SYMM Y, -X+Y, 0.5+Z 
SYMM X-Y, X, 0.5+Z 
SYMM -Y, -X, Z 
SYMM -X+Y, Y, Z 
SYMM X, X-Y, Z 
SYMM Y, X, 0.5+Z 
SYMM X-Y, -Y, 0.5+Z 
SYMM -X, -X+Y, 0.5+Z 
SFAC O H V CO 
UNIT 8 8 8 8 
 
L.S. 4 
BOND 
FMAP 2 
PLAN 20 
 
MOLE   1 
CO1   4  0.1470  0.2939  0.3072 10.500000  0.05 
V2    3  0.3493  0.4257  0.8000 11.000000  0.05 
V3    3  0.3333  0.6667  0.0998 10.166667  0.05 
V4    3  0.0000  0.0000  0.0706 10.166667  0.05 
V5    3  0.0000  0.0000  0.3046 10.166667  0.05 
Q1    1  0.1940  0.3880  0.5583 10.500000  0.05  122.13 
Q2    1  0.3979  0.6021  0.3033 10.500000  0.05  118.89 
Q3    1  0.1939  0.3879  0.0466 10.500000  0.05   97.42 
Q4    1  0.4873  0.5127  0.8082 10.500000  0.05   90.94 
Q5    1  0.3978  0.6022  0.6478 10.500000  0.05   85.46 
Q6    1  0.0688  0.3549  0.0450 11.000000  0.05   84.37 
Q7    1 -0.1062 -0.2124  0.3079 10.500000  0.05   82.21 
Q8    1  0.0722  0.1444  0.3014 10.500000  0.05   81.34 
MOLE   2 
HKLF 4                                                                          
END  
