TITL 1230 in P6(3)mc 
CELL 0.71073  12.4770  12.4770   4.8820  90.000  90.000 120.000 
ZERR    8.00   0.0018   0.0018   0.0010   0.000   0.000   0.000 
LATT -1 
SYMM -Y, X-Y, Z 
SYMM -X+Y, -X, Z 
SYMM -X, -Y, 0.5+Z 
SYMM Y, -X+Y, 0.5+Z 
SYMM X-Y, X, 0.5+Z 
SYMM -Y, -X, Z 
SYMM -X+Y, Y, Z 
SYMM X, X-Y, Z 
SYMM Y, X, 0.5+Z 
SYMM X-Y, -Y, 0.5+Z 
SYMM -X, -X+Y, 0.5+Z 
SFAC O H V CO 
UNIT 8 8 8 8 
 
L.S. 4 
BOND 
FMAP 2 
PLAN 20 
 
MOLE   1 
CO1   4  0.7084  0.8542  0.4466 10.500000  0.05 
V2    3  0.5731  0.6501  0.9325 11.000000  0.05 
V3    3  1.0000  1.0000  0.4539 10.166667  0.05 
V4    3  0.3333  0.6667  1.6307 10.166667  0.05 
V5    3  1.0000  1.0000  0.1798 10.166667  0.05 
Q1    1  0.3988  0.6012  1.4311 10.500000  0.05  148.19 
Q2    1  0.6078  0.8039  0.7355 10.500000  0.05  115.88 
Q3    1  0.4000  0.6000  1.0863 10.500000  0.05  112.68 
Q4    1  0.6473  0.7102  0.1824 11.000000  0.05   98.31 
Q5    1  0.8737  0.9368  0.5387 10.500000  0.05   95.52 
Q6    1  0.5358  0.4642  1.0366 10.500000  0.05   78.52 
Q7    1  0.7875  0.7966  0.4467 11.000000  0.05   66.40 
Q8    1  0.3333  0.6667  1.1944 10.166667  0.05   60.71 
MOLE   2 
HKLF 4                                                                          
END  
