TITL 1230 in P6(3)mc 
CELL 0.71073  12.4770  12.4770   4.8820  90.000  90.000 120.000 
ZERR    8.00   0.0018   0.0018   0.0010   0.000   0.000   0.000 
LATT -1 
SYMM -Y, X-Y, Z 
SYMM -X+Y, -X, Z 
SYMM -X, -Y, 0.5+Z 
SYMM Y, -X+Y, 0.5+Z 
SYMM X-Y, X, 0.5+Z 
SYMM -Y, -X, Z 
SYMM -X+Y, Y, Z 
SYMM X, X-Y, Z 
SYMM Y, X, 0.5+Z 
SYMM X-Y, -Y, 0.5+Z 
SYMM -X, -X+Y, 0.5+Z 
SFAC O H V CO 
UNIT 8 8 8 8 
 
L.S. 4 
BOND 
FMAP 2 
PLAN 20 
 
MOLE   1 
CO1   4  0.0000  0.0000  0.1290 10.166667  0.05 
CO2   4  0.2964  0.1482  0.4205 10.500000  0.05 
V3    3  0.4256  0.0778  0.9105 11.000000  0.05 
V4    3  0.6667  0.3333  0.6326 10.166667  0.05 
V5    3  0.0000  0.0000  0.4189 10.166667  0.05 
V6    3  0.6667  0.3333  1.1157 10.166667  0.05 
Q1    1  0.3904  0.1952  0.7094 10.500000  0.05  110.69 
Q2    1  0.1454  0.0727  0.4342 10.500000  0.05  102.04 
Q3    1  0.4574 -0.0853  0.9030 10.500000  0.05   83.96 
Q4    1  0.3524  0.0648  0.1544 11.000000  0.05   82.04 
Q5    1  0.5129  0.0257  0.9214 10.500000  0.05   78.06 
Q6    1  0.6027  0.2055  1.0450 10.500000  0.05   77.75 
Q7    1  0.2299  0.0120  0.4178 11.000000  0.05   65.78 
Q8    1  0.6925  0.4878  0.4049 11.000000  0.05   64.30 
MOLE   2 
HKLF 4                                                                          
END  
