TITL 1230 in P6(3)mc 
CELL 0.71073  12.4770  12.4770   4.8820  90.000  90.000 120.000 
ZERR    8.00   0.0018   0.0018   0.0010   0.000   0.000   0.000 
LATT -1 
SYMM -Y, X-Y, Z 
SYMM -X+Y, -X, Z 
SYMM -X, -Y, 0.5+Z 
SYMM Y, -X+Y, 0.5+Z 
SYMM X-Y, X, 0.5+Z 
SYMM -Y, -X, Z 
SYMM -X+Y, Y, Z 
SYMM X, X-Y, Z 
SYMM Y, X, 0.5+Z 
SYMM X-Y, -Y, 0.5+Z 
SYMM -X, -X+Y, 0.5+Z 
SFAC O H V CO 
UNIT 8 8 8 8 
 
L.S. 4 
BOND 
FMAP 2 
PLAN 20 
 
MOLE   1 
CO1   4  0.9167  0.3455  0.4205 11.000000  0.05 
CO2   4  0.6667  0.3333 -0.3084 10.166667  0.05 
CO3   4  0.8526  0.1474 -0.0819 10.500000  0.05 
V4    3  1.0000  0.0000  0.1996 10.166667  0.05 
V5    3  0.8057  0.1943  0.1737 10.500000  0.05 
Q1    1  0.6667  0.3333  0.1767 10.166667  0.05  134.72 
Q2    1  0.9356  0.0644 -0.2171 10.500000  0.05  117.97 
Q3    1  0.9708  0.4854  0.4147 10.500000  0.05  108.48 
Q4    1  0.9427  0.2863  0.6481 11.000000  0.05   99.59 
Q5    1  0.8644  0.3147  0.6801 11.000000  0.05   96.24 
Q6    1  0.8030  0.4015 -0.0876 10.500000  0.05   93.53 
Q7    1  0.6218  0.3109 -0.0013 10.500000  0.05   86.02 
Q8    1  0.9338  0.4669  0.1282 10.500000  0.05   83.08 
MOLE   2 
HKLF 4                                                                          
END  
