TITL 1230 in P6(3)mc 
CELL 0.71073  12.4770  12.4770   4.8820  90.000  90.000 120.000 
ZERR    8.00   0.0018   0.0018   0.0010   0.000   0.000   0.000 
LATT -1 
SYMM -Y, X-Y, Z 
SYMM -X+Y, -X, Z 
SYMM -X, -Y, 0.5+Z 
SYMM Y, -X+Y, 0.5+Z 
SYMM X-Y, X, 0.5+Z 
SYMM -Y, -X, Z 
SYMM -X+Y, Y, Z 
SYMM X, X-Y, Z 
SYMM Y, X, 0.5+Z 
SYMM X-Y, -Y, 0.5+Z 
SYMM -X, -X+Y, 0.5+Z 
SFAC O H V CO 
UNIT 8 8 8 8 
 
L.S. 4 
BOND 
FMAP 2 
PLAN 20 
 
MOLE   1 
CO1   4  0.6667  0.3333  0.4721 10.166667  0.05 
V2    3  0.5853  0.4147 -0.0225 10.500000  0.05 
MOLE   2 
Q1    1  0.9186  0.0814  0.4722 10.500000  0.05  204.29 
MOLE   3 
Q2    1  0.0000  0.0000  0.2268 10.166667  0.05  180.62 
MOLE   4 
Q3    1  0.3853  0.1927  0.2670 10.500000  0.05  162.46 
Q4    1  0.2711  0.1355 -0.1859 10.500000  0.05  133.80 
Q5    1  0.3288  0.2330 -0.0261 11.000000  0.05  102.18 
Q6    1  0.3915  0.1025  0.4806 11.000000  0.05  101.18 
Q7    1  0.3698  0.1849 -0.0138 10.500000  0.05   96.98 
Q8    1  0.3968  0.1984 -0.1842 10.500000  0.05   78.14 
MOLE   5 
HKLF 4                                                                          
END  
