TITL 1230 in P6(3)mc 
CELL 0.71073  12.4770  12.4770   4.8820  90.000  90.000 120.000 
ZERR    8.00   0.0018   0.0018   0.0010   0.000   0.000   0.000 
LATT -1 
SYMM -Y, X-Y, Z 
SYMM -X+Y, -X, Z 
SYMM -X, -Y, 0.5+Z 
SYMM Y, -X+Y, 0.5+Z 
SYMM X-Y, X, 0.5+Z 
SYMM -Y, -X, Z 
SYMM -X+Y, Y, Z 
SYMM X, X-Y, Z 
SYMM Y, X, 0.5+Z 
SYMM X-Y, -Y, 0.5+Z 
SYMM -X, -X+Y, 0.5+Z 
SFAC O H V CO 
UNIT 8 8 8 8 
 
L.S. 4 
BOND 
FMAP 2 
PLAN 20 
 
MOLE   1 
CO1   4  0.3333  0.6667  0.2205 10.166667  0.05 
MOLE   2 
Q1    1  0.5818  0.4182  0.2192 10.500000  0.05  214.14 
Q2    1  0.5228  0.4772  0.2165 10.500000  0.05  203.56 
MOLE   3 
Q3    1  0.0855  0.9145  0.2235 10.500000  0.05  189.89 
MOLE   4 
Q4    1  0.0000  0.0000  0.4728 10.166667  0.05  130.69 
MOLE   5 
Q5    1  0.1891  0.3782  0.4103 10.500000  0.05  107.18 
Q6    1  0.1917  0.3833  0.0277 10.500000  0.05  102.57 
Q7    1  0.2969  0.4044  0.2221 11.000000  0.05   92.94 
MOLE   6 
Q8    1  0.6667  0.3333  0.2217 10.166667  0.05   92.71 
HKLF 4                                                                          
END  
