TITL 1230 in P6(3)mc 
CELL 0.71073  12.4770  12.4770   4.8820  90.000  90.000 120.000 
ZERR    8.00   0.0018   0.0018   0.0010   0.000   0.000   0.000 
LATT -1 
SYMM -Y, X-Y, Z 
SYMM -X+Y, -X, Z 
SYMM -X, -Y, 0.5+Z 
SYMM Y, -X+Y, 0.5+Z 
SYMM X-Y, X, 0.5+Z 
SYMM -Y, -X, Z 
SYMM -X+Y, Y, Z 
SYMM X, X-Y, Z 
SYMM Y, X, 0.5+Z 
SYMM X-Y, -Y, 0.5+Z 
SYMM -X, -X+Y, 0.5+Z 
SFAC O H V CO 
UNIT 8 8 8 8 
 
L.S. 4 
BOND 
FMAP 2 
PLAN 20 
 
MOLE   1 
CO1   4  0.3038  0.1519  0.0639 10.500000  0.05 
CO2   4  0.4256  0.3498 -0.4156 11.000000  0.05 
V3    3  0.6667  0.3333 -1.1122 10.166667  0.05 
V4    3  0.0000  0.0000  0.0408 10.166667  0.05 
V5    3  0.0000  0.0000  0.3581 10.166667  0.05 
Q1    1  0.3855  0.1927 -0.1764 10.500000  0.05  125.42 
Q2    1  0.6667  0.3333 -0.6388 10.166667  0.05  120.95 
Q3    1  0.3891  0.1945  0.3462 10.500000  0.05  115.22 
Q4    1  0.6021  0.3979 -0.9125 10.500000  0.05  111.67 
Q5    1  0.6042  0.3958 -0.5834 10.500000  0.05  101.91 
Q6    1  0.5172  0.4828 -0.4143 10.500000  0.05   92.86 
Q7    1  0.1403  0.0701  0.0399 10.500000  0.05   88.29 
Q8    1 -0.2170 -0.1085  0.0884 10.500000  0.05   85.59 
MOLE   2 
HKLF 4                                                                          
END  
