TITL 1230 in P6(3)mc 
CELL 0.71073  12.4770  12.4770   4.8820  90.000  90.000 120.000 
ZERR    8.00   0.0018   0.0018   0.0010   0.000   0.000   0.000 
LATT -1 
SYMM -Y, X-Y, Z 
SYMM -X+Y, -X, Z 
SYMM -X, -Y, 0.5+Z 
SYMM Y, -X+Y, 0.5+Z 
SYMM X-Y, X, 0.5+Z 
SYMM -Y, -X, Z 
SYMM -X+Y, Y, Z 
SYMM X, X-Y, Z 
SYMM Y, X, 0.5+Z 
SYMM X-Y, -Y, 0.5+Z 
SYMM -X, -X+Y, 0.5+Z 
SFAC O H V CO 
UNIT 8 8 8 8 
 
L.S. 4 
BOND 
FMAP 2 
PLAN 20 
 
MOLE   1 
CO1   4  0.3038  0.1519  0.2046 10.500000  0.05 
V2    3  0.0000  0.0000  0.2593 10.166667  0.05 
V3    3  0.4320  0.0840 -0.2770 11.000000  0.05 
V4    3  0.6667  0.3333  0.0450 10.166667  0.05 
V5    3  0.6012  0.2025  0.1943 10.500000  0.05 
Q1    1  0.5317  0.0633  0.0853 10.500000  0.05  135.43 
Q2    1  0.1464  0.0732  0.2083 10.500000  0.05  133.15 
Q3    1  0.5221  0.0441 -0.3074 10.500000  0.05  128.34 
Q4    1  0.2179  0.0171  0.2238 11.000000  0.05  116.74 
Q5    1  0.5972  0.1944 -0.3706 10.500000  0.05   95.35 
Q6    1  0.5518  0.1037 -0.1290 10.500000  0.05   94.78 
Q7    1  0.3774  0.1887 -0.0874 10.500000  0.05   92.08 
Q8    1  0.3663  0.0758  0.4796 11.000000  0.05   81.95 
MOLE   2 
HKLF 4                                                                          
END  
