TITL 1230 in P6(3)mc 
CELL 0.71073  12.4770  12.4770   4.8820  90.000  90.000 120.000 
ZERR    8.00   0.0018   0.0018   0.0010   0.000   0.000   0.000 
LATT -1 
SYMM -Y, X-Y, Z 
SYMM -X+Y, -X, Z 
SYMM -X, -Y, 0.5+Z 
SYMM Y, -X+Y, 0.5+Z 
SYMM X-Y, X, 0.5+Z 
SYMM -Y, -X, Z 
SYMM -X+Y, Y, Z 
SYMM X, X-Y, Z 
SYMM Y, X, 0.5+Z 
SYMM X-Y, -Y, 0.5+Z 
SYMM -X, -X+Y, 0.5+Z 
SFAC O H V CO 
UNIT 8 8 8 8 
 
L.S. 4 
BOND 
FMAP 2 
PLAN 20 
 
MOLE   1 
CO1   4  0.6667  0.3333  0.2922 10.166667  0.05 
MOLE   2 
V2    3  0.4809  0.5191  0.2853 10.500000  0.05 
Q1    1  0.4125  0.5875  0.2850 10.500000  0.05  214.90 
Q3    1  0.9110  0.8219  0.2847 10.500000  0.05  172.83 
Q5    1  0.7634  0.7366  0.2956 11.000000  0.05  142.36 
Q6    1  0.6970  0.6020  0.3058 11.000000  0.05  111.28 
Q8    1  0.3333  0.6667  0.2913 10.166667  0.05   93.65 
MOLE   3 
Q2    1  1.0000  1.0000  0.0462 10.166667  0.05  205.31 
MOLE   4 
Q4    1  0.1970  0.8030  0.4480 10.500000  0.05  169.25 
MOLE   5 
Q7    1  0.1398  0.8602  0.1437 10.500000  0.05   94.89 
HKLF 4                                                                          
END  
