TITL 1230 in P6(3)mc 
CELL 0.71073  12.4770  12.4770   4.8820  90.000  90.000 120.000 
ZERR    8.00   0.0018   0.0018   0.0010   0.000   0.000   0.000 
LATT -1 
SYMM -Y, X-Y, Z 
SYMM -X+Y, -X, Z 
SYMM -X, -Y, 0.5+Z 
SYMM Y, -X+Y, 0.5+Z 
SYMM X-Y, X, 0.5+Z 
SYMM -Y, -X, Z 
SYMM -X+Y, Y, Z 
SYMM X, X-Y, Z 
SYMM Y, X, 0.5+Z 
SYMM X-Y, -Y, 0.5+Z 
SYMM -X, -X+Y, 0.5+Z 
SFAC O H V CO 
UNIT 8 8 8 8 
 
L.S. 4 
BOND 
FMAP 2 
PLAN 20 
 
MOLE   1 
CO1   4  0.3333  0.6667  0.4703 10.166667  0.05 
Q5    1  0.4600  0.7300  0.4717 10.500000  0.05  116.52 
MOLE   2 
V2    3  0.0835  0.9165  0.4426 10.500000  0.05 
Q3    1  0.1885  0.8115  0.3276 10.500000  0.05  178.84 
Q4    1  0.1365  0.8635  0.1606 10.500000  0.05  135.92 
Q6    1  0.0000  1.0000  0.1888 10.166667  0.05  113.20 
Q8    1  0.2872  0.9027  0.4523 11.000000  0.05   78.44 
MOLE   3 
Q1    1  0.5231  0.4769  0.4702 10.500000  0.05  213.06 
Q2    1  0.5866  0.4134  0.4597 10.500000  0.05  210.93 
MOLE   4 
Q7    1  0.3937  0.3036  0.3812 11.000000  0.05   86.88 
HKLF 4                                                                          
END  
