TITL 1230 in P6(3)mc 
CELL 0.71073  12.4770  12.4770   4.8820  90.000  90.000 120.000 
ZERR    8.00   0.0018   0.0018   0.0010   0.000   0.000   0.000 
LATT -1 
SYMM -Y, X-Y, Z 
SYMM -X+Y, -X, Z 
SYMM -X, -Y, 0.5+Z 
SYMM Y, -X+Y, 0.5+Z 
SYMM X-Y, X, 0.5+Z 
SYMM -Y, -X, Z 
SYMM -X+Y, Y, Z 
SYMM X, X-Y, Z 
SYMM Y, X, 0.5+Z 
SYMM X-Y, -Y, 0.5+Z 
SYMM -X, -X+Y, 0.5+Z 
SFAC O H V CO 
UNIT 8 8 8 8 
 
L.S. 4 
BOND 
FMAP 2 
PLAN 20 
 
MOLE   1 
CO1   4  0.3333  0.6667  0.4099 10.166667  0.05 
MOLE   2 
Q1    1  0.5878  0.4122  0.4075 10.500000  0.05  255.43 
Q3    1  0.5211  0.4789  0.4106 10.500000  0.05  197.40 
MOLE   3 
Q2    1  0.0811  0.9189  0.4084 10.500000  0.05  220.59 
Q4    1  0.1935  0.8065  0.6185 10.500000  0.05  144.42 
Q5    1  0.1802  0.8198  0.8995 10.500000  0.05  103.42 
Q6    1  0.1058  0.7025  0.4042 11.000000  0.05   99.58 
Q7    1  0.0872  0.6706  0.1368 11.000000  0.05   87.02 
Q8    1  0.0257  0.7541  0.4106 11.000000  0.05   84.21 
MOLE   4 
HKLF 4                                                                          
END  
