TITL 1230 in P6(3)mc 
CELL 0.71073  12.4770  12.4770   4.8820  90.000  90.000 120.000 
ZERR    8.00   0.0018   0.0018   0.0010   0.000   0.000   0.000 
LATT -1 
SYMM -Y, X-Y, Z 
SYMM -X+Y, -X, Z 
SYMM -X, -Y, 0.5+Z 
SYMM Y, -X+Y, 0.5+Z 
SYMM X-Y, X, 0.5+Z 
SYMM -Y, -X, Z 
SYMM -X+Y, Y, Z 
SYMM X, X-Y, Z 
SYMM Y, X, 0.5+Z 
SYMM X-Y, -Y, 0.5+Z 
SYMM -X, -X+Y, 0.5+Z 
SFAC O H V CO 
UNIT 8 8 8 8 
 
L.S. 4 
BOND 
FMAP 2 
PLAN 20 
 
MOLE   1 
CO1   4  0.3333  0.6667  0.0425 10.166667  0.05 
V2    3  0.4777  0.9554  0.5220 10.500000  0.05 
Q3    1  0.5875  0.7937  0.0981 10.500000  0.05  147.94 
Q4    1  0.5729  0.7865  0.0981 10.500000  0.05  147.83 
Q5    1  0.5670  0.8723  0.5371 11.000000  0.05  145.82 
Q6    1  0.4591  0.7295  0.0231 10.500000  0.05  143.63 
Q8    1  0.5904  0.7952  0.3715 10.500000  0.05   99.97 
MOLE   2 
Q1    1  0.0000  0.0000  0.3102 10.166667  0.05  214.06 
MOLE   3 
Q2    1  0.0830  0.9170  0.0706 10.500000  0.05  163.94 
Q7    1  0.2443  0.9724  0.0432 11.000000  0.05  113.92 
MOLE   4 
HKLF 4                                                                          
END  
