TITL 1230 in P6(3)mc 
CELL 0.71073  12.4770  12.4770   4.8820  90.000  90.000 120.000 
ZERR    8.00   0.0018   0.0018   0.0010   0.000   0.000   0.000 
LATT -1 
SYMM -Y, X-Y, Z 
SYMM -X+Y, -X, Z 
SYMM -X, -Y, 0.5+Z 
SYMM Y, -X+Y, 0.5+Z 
SYMM X-Y, X, 0.5+Z 
SYMM -Y, -X, Z 
SYMM -X+Y, Y, Z 
SYMM X, X-Y, Z 
SYMM Y, X, 0.5+Z 
SYMM X-Y, -Y, 0.5+Z 
SYMM -X, -X+Y, 0.5+Z 
SFAC O H V CO 
UNIT 8 8 8 8 
 
L.S. 4 
BOND 
FMAP 2 
PLAN 20 
 
MOLE   1 
CO1   4  0.6667  0.3333  0.4810 10.166667  0.05 
CO2   4  0.8554  0.1446  0.1614 10.500000  0.05 
V3    3  1.0000  0.0000  0.3995 10.166667  0.05 
V4    3  0.9141  0.3443  0.6889 11.000000  0.05 
Q1    1  0.8058  0.1942  0.4227 10.500000  0.05  110.97 
Q2    1  0.9265  0.0735  0.1709 10.500000  0.05  106.52 
Q3    1  0.9694  0.4847  0.6758 10.500000  0.05   91.26 
Q4    1  0.7884  0.2961  0.2089 11.000000  0.05   81.99 
Q5    1  0.7478  0.0766  0.0253 11.000000  0.05   80.00 
Q6    1  0.6034  0.3966  0.1660 10.500000  0.05   78.19 
Q7    1  0.7858  0.3545  0.9225 11.000000  0.05   74.97 
Q8    1  1.0838  0.5419  0.7126 10.500000  0.05   73.29 
MOLE   2 
HKLF 4                                                                          
END  
