TITL 1230 in P6(3)mc 
CELL 0.71073  12.4770  12.4770   4.8820  90.000  90.000 120.000 
ZERR    8.00   0.0018   0.0018   0.0010   0.000   0.000   0.000 
LATT -1 
SYMM -Y, X-Y, Z 
SYMM -X+Y, -X, Z 
SYMM -X, -Y, 0.5+Z 
SYMM Y, -X+Y, 0.5+Z 
SYMM X-Y, X, 0.5+Z 
SYMM -Y, -X, Z 
SYMM -X+Y, Y, Z 
SYMM X, X-Y, Z 
SYMM Y, X, 0.5+Z 
SYMM X-Y, -Y, 0.5+Z 
SYMM -X, -X+Y, 0.5+Z 
SFAC O H V CO 
UNIT 8 8 8 8 
 
L.S. 4 
BOND 
FMAP 2 
PLAN 20 
 
MOLE   1 
CO1   4  0.3333  0.6667  0.3323 10.166667  0.05 
MOLE   2 
V2    3  0.5216  0.4784  0.3271 10.500000  0.05 
Q1    1  0.5884  0.4116  0.3287 10.500000  0.05  205.29 
Q2    1  0.8296  0.9148  0.3285 10.500000  0.05  146.12 
Q3    1  0.7254  0.7702  0.3309 11.000000  0.05  135.71 
Q4    1  0.3619  0.1809  0.3290 10.500000  0.05  127.94 
Q5    1  0.4118  0.2059  0.1777 10.500000  0.05  124.00 
Q6    1  0.6024  0.6959  0.3342 11.000000  0.05  118.46 
Q7    1  0.4042  0.2021  0.4883 10.500000  0.05  117.97 
Q8    1  0.4432  0.2906  0.3414 11.000000  0.05  117.41 
MOLE   3 
HKLF 4                                                                          
END  
