TITL 1230 in P6(3)mc 
CELL 0.71073  12.4770  12.4770   4.8820  90.000  90.000 120.000 
ZERR    8.00   0.0018   0.0018   0.0010   0.000   0.000   0.000 
LATT -1 
SYMM -Y, X-Y, Z 
SYMM -X+Y, -X, Z 
SYMM -X, -Y, 0.5+Z 
SYMM Y, -X+Y, 0.5+Z 
SYMM X-Y, X, 0.5+Z 
SYMM -Y, -X, Z 
SYMM -X+Y, Y, Z 
SYMM X, X-Y, Z 
SYMM Y, X, 0.5+Z 
SYMM X-Y, -Y, 0.5+Z 
SYMM -X, -X+Y, 0.5+Z 
SFAC O H V CO 
UNIT 8 8 8 8 
 
L.S. 4 
BOND 
FMAP 2 
PLAN 20 
 
MOLE   1 
CO1   4  0.3031  0.1515  0.1732 10.500000  0.05 
V2    3  0.4268  0.0755 -0.3116 11.000000  0.05 
V3    3  0.6667  0.3333 -1.0238 10.166667  0.05 
V4    3  0.0000  0.0000  0.1748 10.166667  0.05 
V5    3  0.0000  0.0000  0.4360 10.166667  0.05 
Q1    1  0.3895  0.1948 -0.0713 10.500000  0.05  137.04 
Q2    1  0.6027  0.2055 -0.8128 10.500000  0.05  119.29 
Q3    1  0.6037  0.2075 -0.4756 10.500000  0.05  101.01 
Q4    1  0.3508  0.0674  0.4328 11.000000  0.05   97.24 
Q5    1  0.3826  0.1913  0.4516 10.500000  0.05   92.34 
Q6    1  0.1472  0.0736  0.1401 10.500000  0.05   89.26 
Q7    1  0.4668 -0.0664 -0.4803 10.500000  0.05   82.12 
Q8    1 -0.2149 -0.1074  0.1962 10.500000  0.05   79.17 
MOLE   2 
HKLF 4                                                                          
END  
