TITL 1230 in P6(3)mc 
CELL 0.71073  12.4770  12.4770   4.8820  90.000  90.000 120.000 
ZERR    8.00   0.0018   0.0018   0.0010   0.000   0.000   0.000 
LATT -1 
SYMM -Y, X-Y, Z 
SYMM -X+Y, -X, Z 
SYMM -X, -Y, 0.5+Z 
SYMM Y, -X+Y, 0.5+Z 
SYMM X-Y, X, 0.5+Z 
SYMM -Y, -X, Z 
SYMM -X+Y, Y, Z 
SYMM X, X-Y, Z 
SYMM Y, X, 0.5+Z 
SYMM X-Y, -Y, 0.5+Z 
SYMM -X, -X+Y, 0.5+Z 
SFAC O H V CO 
UNIT 8 8 8 8 
 
L.S. 4 
BOND 
FMAP 2 
PLAN 20 
 
MOLE   1 
CO1   4  0.3333  0.6667  0.2142 10.166667  0.05 
MOLE   2 
V2    3  0.4233  0.0773 -0.0080 11.000000  0.05 
V3    3  0.2932  0.1466 -0.4949 10.500000  0.05 
V4    3  0.0000  0.0000 -0.7363 10.166667  0.05 
Q1    1  0.5969  0.1938  0.1489 10.500000  0.05  114.02 
Q2    1  0.1337  0.0669 -0.4228 10.500000  0.05  108.14 
Q3    1  0.3924  0.1962 -0.2513 10.500000  0.05   92.20 
Q5    1  0.4674 -0.0653  0.1574 10.500000  0.05   79.88 
Q6    1  0.2732 -0.0620 -0.2961 11.000000  0.05   75.35 
Q7    1  0.2594 -0.0780 -0.1551 11.000000  0.05   69.76 
Q8    1  0.3859  0.1929  0.2069 10.500000  0.05   62.07 
MOLE   3 
Q4    1  0.8905  0.1095 -0.0002 10.500000  0.05   82.68 
HKLF 4                                                                          
END  
