TITL 1230 in P6(3)mc 
CELL 0.71073  12.4770  12.4770   4.8820  90.000  90.000 120.000 
ZERR    8.00   0.0018   0.0018   0.0010   0.000   0.000   0.000 
LATT -1 
SYMM -Y, X-Y, Z 
SYMM -X+Y, -X, Z 
SYMM -X, -Y, 0.5+Z 
SYMM Y, -X+Y, 0.5+Z 
SYMM X-Y, X, 0.5+Z 
SYMM -Y, -X, Z 
SYMM -X+Y, Y, Z 
SYMM X, X-Y, Z 
SYMM Y, X, 0.5+Z 
SYMM X-Y, -Y, 0.5+Z 
SYMM -X, -X+Y, 0.5+Z 
SFAC O H V CO 
UNIT 8 8 8 8 
 
L.S. 4 
BOND 
FMAP 2 
PLAN 20 
 
MOLE   1 
CO1   4  0.8460  0.6919  0.0173 10.500000  0.05 
CO2   4  0.9221  0.5763  0.5333 11.000000  0.05 
V3    3  1.0000  1.0000  0.2794 10.166667  0.05 
V4    3  0.6667  0.3333  0.8066 10.166667  0.05 
Q1    1  0.9251  0.8503  0.0041 10.500000  0.05  121.08 
Q2    1  0.9314  0.6476  0.2892 11.000000  0.05   96.80 
Q3    1  1.0675  0.5338  0.3649 10.500000  0.05   91.37 
Q4    1  0.8061  0.6122  0.2754 10.500000  0.05   89.33 
Q5    1  0.9769  0.8693 -0.1874 11.000000  0.05   81.68 
Q6    1  0.7995  0.4857  0.5367 11.000000  0.05   79.39 
Q7    1  0.7904  0.3952  0.3599 10.500000  0.05   73.87 
Q8    1  0.9711  0.4856  0.5379 10.500000  0.05   65.69 
MOLE   2 
HKLF 4                                                                          
END  
