TITL 1230 in P6(3)mc 
CELL 0.71073  12.4770  12.4770   4.8820  90.000  90.000 120.000 
ZERR    8.00   0.0018   0.0018   0.0010   0.000   0.000   0.000 
LATT -1 
SYMM -Y, X-Y, Z 
SYMM -X+Y, -X, Z 
SYMM -X, -Y, 0.5+Z 
SYMM Y, -X+Y, 0.5+Z 
SYMM X-Y, X, 0.5+Z 
SYMM -Y, -X, Z 
SYMM -X+Y, Y, Z 
SYMM X, X-Y, Z 
SYMM Y, X, 0.5+Z 
SYMM X-Y, -Y, 0.5+Z 
SYMM -X, -X+Y, 0.5+Z 
SFAC O H V CO 
UNIT 8 8 8 8 
 
L.S. 4 
BOND 
FMAP 2 
PLAN 20 
 
MOLE   1 
CO1   4  0.7041  0.8520  0.3433 10.500000  0.05 
V3    3  1.0000  1.0000  0.3189 10.166667  0.05 
Q3    1  0.8680  0.9340  0.3395 10.500000  0.05  126.47 
Q7    1  0.7930  0.8045  0.3350 11.000000  0.05   85.89 
MOLE   2 
CO2   4  0.9234  0.5740  0.3341 11.000000  0.05 
Q1    1  1.3333  0.6667  0.3178 10.166667  0.05  178.85 
Q2    1  1.3333  0.6667  0.5391 10.166667  0.05  147.34 
Q4    1  1.3333  0.6667  0.1294 10.166667  0.05  122.44 
Q5    1  1.2061  0.6031  0.3520 10.500000  0.05  112.46 
Q6    1  1.0744  0.5372  0.4188 10.500000  0.05  103.30 
Q8    1  0.8043  0.4022  0.4577 10.500000  0.05   74.17 
MOLE   3 
HKLF 4                                                                          
END  
