TITL 1230 in P6(3)mc 
CELL 0.71073  12.4770  12.4770   4.8820  90.000  90.000 120.000 
ZERR    8.00   0.0018   0.0018   0.0010   0.000   0.000   0.000 
LATT -1 
SYMM -Y, X-Y, Z 
SYMM -X+Y, -X, Z 
SYMM -X, -Y, 0.5+Z 
SYMM Y, -X+Y, 0.5+Z 
SYMM X-Y, X, 0.5+Z 
SYMM -Y, -X, Z 
SYMM -X+Y, Y, Z 
SYMM X, X-Y, Z 
SYMM Y, X, 0.5+Z 
SYMM X-Y, -Y, 0.5+Z 
SYMM -X, -X+Y, 0.5+Z 
SFAC O H V CO 
UNIT 8 8 8 8 
 
L.S. 4 
BOND 
FMAP 2 
PLAN 20 
 
MOLE   1 
CO1   4  0.7094  0.8547  0.2658 10.500000  0.05 
V2    3  0.5723  0.9230 -0.2508 11.000000  0.05 
V3    3  0.3333  0.6667  0.4655 10.166667  0.05 
V4    3  1.0000  1.0000  0.2647 10.166667  0.05 
V5    3  1.0000  1.0000  0.4921 10.166667  0.05 
Q1    1  0.3980  0.7960  0.2555 10.500000  0.05  128.17 
Q2    1  0.8666  0.9333  0.2762 10.500000  0.05  125.82 
Q3    1  0.6438  0.9301 -0.0146 11.000000  0.05   99.94 
Q4    1  0.3954  0.7909 -0.1051 10.500000  0.05   93.17 
Q5    1  0.4629  0.9257 -0.6393 10.500000  0.05   91.61 
Q6    1  0.6135  0.8068  0.4606 10.500000  0.05   89.60 
Q7    1  0.7873  0.7965  0.2597 11.000000  0.05   78.94 
Q8    1  0.8561  0.9281  0.4780 10.500000  0.05   71.89 
MOLE   2 
HKLF 4                                                                          
END  
