TITL 1230 in P6(3)mc 
CELL 0.71073  12.4770  12.4770   4.8820  90.000  90.000 120.000 
ZERR    8.00   0.0018   0.0018   0.0010   0.000   0.000   0.000 
LATT -1 
SYMM -Y, X-Y, Z 
SYMM -X+Y, -X, Z 
SYMM -X, -Y, 0.5+Z 
SYMM Y, -X+Y, 0.5+Z 
SYMM X-Y, X, 0.5+Z 
SYMM -Y, -X, Z 
SYMM -X+Y, Y, Z 
SYMM X, X-Y, Z 
SYMM Y, X, 0.5+Z 
SYMM X-Y, -Y, 0.5+Z 
SYMM -X, -X+Y, 0.5+Z 
SFAC O H V CO 
UNIT 8 8 8 8 
 
L.S. 4 
BOND 
FMAP 2 
PLAN 20 
 
MOLE   1 
CO1   4  0.6667  0.3333  0.1178 10.166667  0.05 
V2    3  0.5858  0.4142 -0.3783 10.500000  0.05 
Q2    1  0.2755  0.1377 -0.2266 10.500000  0.05  146.77 
Q3    1  0.3754  0.1877 -0.0459 10.500000  0.05  144.40 
Q5    1  0.3912  0.2887  0.1125 11.000000  0.05  103.15 
Q6    1  0.3688  0.1844 -0.3877 10.500000  0.05   94.36 
Q7    1  0.3263  0.2297 -0.3783 11.000000  0.05   89.42 
Q8    1  0.3805  0.2971 -0.5069 11.000000  0.05   82.21 
MOLE   2 
Q1    1  0.9183  0.0817  0.1129 10.500000  0.05  206.46 
MOLE   3 
Q4    1  1.0000  1.0000  0.3586 10.166667  0.05  138.12 
HKLF 4                                                                          
END  
