TITL 1230 in P6(3)mc 
CELL 0.71073  12.4770  12.4770   4.8820  90.000  90.000 120.000 
ZERR    8.00   0.0018   0.0018   0.0010   0.000   0.000   0.000 
LATT -1 
SYMM -Y, X-Y, Z 
SYMM -X+Y, -X, Z 
SYMM -X, -Y, 0.5+Z 
SYMM Y, -X+Y, 0.5+Z 
SYMM X-Y, X, 0.5+Z 
SYMM -Y, -X, Z 
SYMM -X+Y, Y, Z 
SYMM X, X-Y, Z 
SYMM Y, X, 0.5+Z 
SYMM X-Y, -Y, 0.5+Z 
SYMM -X, -X+Y, 0.5+Z 
SFAC O H V CO 
UNIT 8 8 8 8 
 
L.S. 4 
BOND 
FMAP 2 
PLAN 20 
 
MOLE   1 
CO1   4  0.3333  0.6667  0.3804 10.166667  0.05 
V2    3  0.4152  0.5848  0.8710 10.500000  0.05 
Q3    1  0.2700  0.7300  0.3778 10.500000  0.05  200.58 
MOLE   2 
Q1    1  0.0831  0.9169  0.3740 10.500000  0.05  224.17 
Q5    1  0.1915  0.8085  0.5406 10.500000  0.05  120.71 
Q7    1  0.0239  0.7679  0.3704 11.000000  0.05  110.68 
Q8    1  0.0953  0.7076  0.3726 11.000000  0.05  102.25 
MOLE   3 
Q2    1  0.0000  0.0000  0.1205 10.166667  0.05  221.82 
MOLE   4 
Q4    1  0.1929  0.8071  0.0780 10.500000  0.05  143.76 
Q6    1  0.1342  0.8658  0.0484 10.500000  0.05  120.09 
MOLE   5 
HKLF 4                                                                          
END  
