TITL 1230 in P6(3)mc 
CELL 0.71073  12.4770  12.4770   4.8820  90.000  90.000 120.000 
ZERR    8.00   0.0018   0.0018   0.0010   0.000   0.000   0.000 
LATT -1 
SYMM -Y, X-Y, Z 
SYMM -X+Y, -X, Z 
SYMM -X, -Y, 0.5+Z 
SYMM Y, -X+Y, 0.5+Z 
SYMM X-Y, X, 0.5+Z 
SYMM -Y, -X, Z 
SYMM -X+Y, Y, Z 
SYMM X, X-Y, Z 
SYMM Y, X, 0.5+Z 
SYMM X-Y, -Y, 0.5+Z 
SYMM -X, -X+Y, 0.5+Z 
SFAC O H V CO 
UNIT 8 8 8 8 
 
L.S. 4 
BOND 
FMAP 2 
PLAN 20 
 
MOLE   1 
CO1   4  0.1465  0.2930  0.1918 10.500000  0.05 
V2    3  0.0761  0.4269 -0.2937 11.000000  0.05 
V3    3  0.0000  0.0000  0.1836 10.166667  0.05 
V4    3  0.3333  0.6667 -0.8807 10.166667  0.05 
Q1    1  0.0735  0.1470  0.1453 10.500000  0.05  154.97 
Q2    1  0.4016  0.5984 -0.8162 10.500000  0.05  144.28 
Q3    1  0.1883  0.5941 -0.4259 10.500000  0.05  131.02 
Q4    1  0.0376  0.5188 -0.3081 10.500000  0.05  100.71 
Q5    1  0.1937  0.3874 -0.0551 10.500000  0.05   96.49 
Q6    1  0.1920  0.3840  0.4633 10.500000  0.05   96.44 
Q7    1  0.3333  0.6667 -0.5388 10.166667  0.05   93.62 
Q8    1  0.0142  0.2122  0.1835 11.000000  0.05   91.40 
MOLE   2 
HKLF 4                                                                          
END  
