TITL 1230 in P6(3)mc 
CELL 0.71073  12.4770  12.4770   4.8820  90.000  90.000 120.000 
ZERR    8.00   0.0018   0.0018   0.0010   0.000   0.000   0.000 
LATT -1 
SYMM -Y, X-Y, Z 
SYMM -X+Y, -X, Z 
SYMM -X, -Y, 0.5+Z 
SYMM Y, -X+Y, 0.5+Z 
SYMM X-Y, X, 0.5+Z 
SYMM -Y, -X, Z 
SYMM -X+Y, Y, Z 
SYMM X, X-Y, Z 
SYMM Y, X, 0.5+Z 
SYMM X-Y, -Y, 0.5+Z 
SYMM -X, -X+Y, 0.5+Z 
SFAC O H V CO 
UNIT 8 8 8 8 
 
L.S. 4 
BOND 
FMAP 2 
PLAN 20 
 
MOLE   1 
CO1   4  0.3046  0.1523  0.1674 10.500000  0.05 
V2    3  0.4251  0.3486 -0.3284 11.000000  0.05 
V3    3  0.6667  0.3333 -1.0529 10.166667  0.05 
V4    3  0.0000  0.0000  0.1502 10.166667  0.05 
V5    3  0.0000  0.0000  0.4379 10.166667  0.05 
Q1    1  0.3898  0.1949 -0.0840 10.500000  0.05  128.95 
Q2    1  0.3888  0.1944  0.4379 10.500000  0.05  117.51 
Q3    1  0.6026  0.3974 -0.8238 10.500000  0.05  106.43 
Q4    1  0.1471  0.0735  0.1516 10.500000  0.05   88.86 
Q5    1  0.5146  0.4854 -0.3186 10.500000  0.05   87.31 
Q6    1  0.6034  0.3966 -0.4855 10.500000  0.05   86.63 
Q7    1  0.3528  0.2860  0.4262 11.000000  0.05   78.25 
Q8    1 -0.2160 -0.1080  0.1832 10.500000  0.05   75.58 
MOLE   2 
HKLF 4                                                                          
END  
