TITL 1230 in P6(3)mc 
CELL 0.71073  12.4770  12.4770   4.8820  90.000  90.000 120.000 
ZERR    8.00   0.0018   0.0018   0.0010   0.000   0.000   0.000 
LATT -1 
SYMM -Y, X-Y, Z 
SYMM -X+Y, -X, Z 
SYMM -X, -Y, 0.5+Z 
SYMM Y, -X+Y, 0.5+Z 
SYMM X-Y, X, 0.5+Z 
SYMM -Y, -X, Z 
SYMM -X+Y, Y, Z 
SYMM X, X-Y, Z 
SYMM Y, X, 0.5+Z 
SYMM X-Y, -Y, 0.5+Z 
SYMM -X, -X+Y, 0.5+Z 
SFAC O H V CO 
UNIT 8 8 8 8 
 
L.S. 4 
BOND 
FMAP 2 
PLAN 20 
 
MOLE   1 
CO1   4  0.6667  0.3333  0.3881 10.166667  0.05 
MOLE   2 
Q1    1  0.4106  0.5894  0.3865 10.500000  0.05  255.39 
Q3    1  0.4777  0.5223  0.3958 10.500000  0.05  186.98 
MOLE   3 
Q2    1  0.9190  0.0810  0.3926 10.500000  0.05  234.59 
Q4    1  0.8106  0.1894  0.5696 10.500000  0.05  137.15 
Q5    1  0.8945  0.2981  0.3926 11.000000  0.05  102.96 
Q6    1  0.8212  0.1788  0.8849 10.500000  0.05  102.15 
Q8    1  0.9764  0.2428  0.4016 11.000000  0.05   89.57 
MOLE   4 
Q7    1  0.0000  0.0000  0.1542 10.166667  0.05   90.44 
HKLF 4                                                                          
END  
