TITL 1230 in P6(3)mc 
CELL 0.71073  12.4770  12.4770   4.8820  90.000  90.000 120.000 
ZERR    8.00   0.0018   0.0018   0.0010   0.000   0.000   0.000 
LATT -1 
SYMM -Y, X-Y, Z 
SYMM -X+Y, -X, Z 
SYMM -X, -Y, 0.5+Z 
SYMM Y, -X+Y, 0.5+Z 
SYMM X-Y, X, 0.5+Z 
SYMM -Y, -X, Z 
SYMM -X+Y, Y, Z 
SYMM X, X-Y, Z 
SYMM Y, X, 0.5+Z 
SYMM X-Y, -Y, 0.5+Z 
SYMM -X, -X+Y, 0.5+Z 
SFAC O H V CO 
UNIT 8 8 8 8 
 
L.S. 4 
BOND 
FMAP 2 
PLAN 20 
 
MOLE   1 
CO1   4  0.3333  0.6667  0.2900 10.166667  0.05 
V2    3  0.4145  0.5855 -0.2090 10.500000  0.05 
Q2    1  0.2704  0.7296  0.2759 10.500000  0.05  191.45 
MOLE   2 
Q1    1  0.0854  0.9146  0.2915 10.500000  0.05  208.81 
Q4    1  0.1878  0.8122  0.4604 10.500000  0.05  167.85 
Q5    1  0.1367  0.8633  0.6304 10.500000  0.05  140.82 
Q6    1  0.0939  0.7043  0.2950 11.000000  0.05  104.94 
Q7    1  0.0244  0.7679  0.2958 11.000000  0.05   99.24 
Q8    1  0.0954  0.7668  0.7907 11.000000  0.05   90.97 
MOLE   3 
Q3    1  0.0000  0.0000  0.0435 10.166667  0.05  175.77 
HKLF 4                                                                          
END  
