TITL 1230 in P6(3)mc 
CELL 0.71073  12.4770  12.4770   4.8820  90.000  90.000 120.000 
ZERR    8.00   0.0018   0.0018   0.0010   0.000   0.000   0.000 
LATT -1 
SYMM -Y, X-Y, Z 
SYMM -X+Y, -X, Z 
SYMM -X, -Y, 0.5+Z 
SYMM Y, -X+Y, 0.5+Z 
SYMM X-Y, X, 0.5+Z 
SYMM -Y, -X, Z 
SYMM -X+Y, Y, Z 
SYMM X, X-Y, Z 
SYMM Y, X, 0.5+Z 
SYMM X-Y, -Y, 0.5+Z 
SYMM -X, -X+Y, 0.5+Z 
SFAC O H V CO 
UNIT 8 8 8 8 
 
L.S. 4 
BOND 
FMAP 2 
PLAN 20 
 
MOLE   1 
CO1   4  0.7057  0.8529  0.2325 10.500000  0.05 
CO2   4  0.5768  0.9221  0.7581 11.000000  0.05 
V3    3  0.3333  0.6667  0.0557 10.166667  0.05 
V4    3  1.0000  1.0000  0.5194 10.166667  0.05 
V5    3  1.0000  1.0000  0.1860 10.166667  0.05 
V6    3  0.3333  0.6667  0.5389 10.166667  0.05 
V7    3  0.6135  0.8068  0.4945 10.500000  0.05 
Q1    1  0.8648  0.9324  0.1656 10.500000  0.05  114.29 
Q2    1  0.6646  0.9276  0.1062 11.000000  0.05   90.81 
Q3    1  0.8948  1.1052  0.2397 10.500000  0.05   86.60 
Q4    1  0.4888  0.9777  0.7555 10.500000  0.05   86.16 
Q5    1  0.5525  0.6852  0.0278 11.000000  0.05   82.62 
Q6    1  0.4002  0.8004  0.5903 10.500000  0.05   73.97 
Q7    1  0.5380  1.0760  0.8330 10.500000  0.05   67.98 
Q8    1  0.4018  0.5982  0.2454 10.500000  0.05   66.81 
MOLE   2 
HKLF 4                                                                          
END  
