TITL 1230 in P6(3)mc 
CELL 0.71073  12.4770  12.4770   4.8820  90.000  90.000 120.000 
ZERR    8.00   0.0018   0.0018   0.0010   0.000   0.000   0.000 
LATT -1 
SYMM -Y, X-Y, Z 
SYMM -X+Y, -X, Z 
SYMM -X, -Y, 0.5+Z 
SYMM Y, -X+Y, 0.5+Z 
SYMM X-Y, X, 0.5+Z 
SYMM -Y, -X, Z 
SYMM -X+Y, Y, Z 
SYMM X, X-Y, Z 
SYMM Y, X, 0.5+Z 
SYMM X-Y, -Y, 0.5+Z 
SYMM -X, -X+Y, 0.5+Z 
SFAC O H V CO 
UNIT 8 8 8 8 
 
L.S. 4 
BOND 
FMAP 2 
PLAN 20 
 
MOLE   1 
CO1   4  0.6667  0.3333  0.3064 10.166667  0.05 
Q5    1  0.7292  0.4583  0.3084 10.500000  0.05  113.78 
MOLE   2 
Q1    1  0.4135  0.5865  0.3026 10.500000  0.05  242.19 
Q3    1  0.4771  0.5229  0.3066 10.500000  0.05  204.98 
MOLE   3 
Q2    1  0.9169  0.0831  0.2852 10.500000  0.05  215.36 
MOLE   4 
Q4    1  0.8075  0.6150  0.1167 10.500000  0.05  159.97 
Q6    1  0.8975  0.6023  0.3070 11.000000  0.05   98.77 
Q7    1  0.8224  0.6447 -0.1847 10.500000  0.05   90.06 
Q8    1  0.9156  0.5871  0.5904 11.000000  0.05   82.93 
MOLE   5 
HKLF 4                                                                          
END  
