TITL 1230 in P6(3)mc 
CELL 0.71073  12.4770  12.4770   4.8820  90.000  90.000 120.000 
ZERR    8.00   0.0018   0.0018   0.0010   0.000   0.000   0.000 
LATT -1 
SYMM -Y, X-Y, Z 
SYMM -X+Y, -X, Z 
SYMM -X, -Y, 0.5+Z 
SYMM Y, -X+Y, 0.5+Z 
SYMM X-Y, X, 0.5+Z 
SYMM -Y, -X, Z 
SYMM -X+Y, Y, Z 
SYMM X, X-Y, Z 
SYMM Y, X, 0.5+Z 
SYMM X-Y, -Y, 0.5+Z 
SYMM -X, -X+Y, 0.5+Z 
SFAC O H V CO 
UNIT 8 8 8 8 
 
L.S. 4 
BOND 
FMAP 2 
PLAN 20 
 
MOLE   1 
CO1   4  0.3333  0.6667  0.3480 10.166667  0.05 
CO2   4  0.1480  0.2959  0.2239 10.500000  0.05 
V3    3  0.0000  0.0000  0.3499 10.166667  0.05 
V4    3  0.3513  0.4278  0.6617 11.000000  0.05 
V5    3  0.3333  0.6667 -0.1231 10.166667  0.05 
V6    3  0.0776  0.1551  0.2885 10.500000  0.05 
V7    3  0.4101  0.5899  0.8280 10.500000  0.05 
Q1    1  0.1979  0.3959  0.4837 10.500000  0.05  116.92 
Q2    1  0.1958  0.3917 -0.0227 10.500000  0.05   84.11 
Q3    1  0.0634  0.3515 -0.0501 11.000000  0.05   79.08 
Q4    1  0.5447  0.4553  0.7039 10.500000  0.05   78.49 
Q5    1  0.4729  0.5271  0.3881 10.500000  0.05   76.93 
Q6    1  0.3912  0.6088  0.1721 10.500000  0.05   67.91 
Q7    1  0.4790  0.5210  0.7195 10.500000  0.05   66.16 
Q8    1  0.4508  0.5492  0.5259 10.500000  0.05   64.54 
MOLE   2 
HKLF 4                                                                          
END  
