TITL 1230 in P6(3)mc 
CELL 0.71073  12.4770  12.4770   4.8820  90.000  90.000 120.000 
ZERR    8.00   0.0018   0.0018   0.0010   0.000   0.000   0.000 
LATT -1 
SYMM -Y, X-Y, Z 
SYMM -X+Y, -X, Z 
SYMM -X, -Y, 0.5+Z 
SYMM Y, -X+Y, 0.5+Z 
SYMM X-Y, X, 0.5+Z 
SYMM -Y, -X, Z 
SYMM -X+Y, Y, Z 
SYMM X, X-Y, Z 
SYMM Y, X, 0.5+Z 
SYMM X-Y, -Y, 0.5+Z 
SYMM -X, -X+Y, 0.5+Z 
SFAC O H V CO 
UNIT 8 8 8 8 
 
L.S. 4 
BOND 
FMAP 2 
PLAN 20 
 
MOLE   1 
CO1   4  0.7086  0.8543  0.4503 10.500000  0.05 
V2    3  0.5734  0.6480  0.9718 11.000000  0.05 
V3    3  1.0000  1.0000  0.4559 10.166667  0.05 
V4    3  0.3333  0.6667  0.7259 10.166667  0.05 
V5    3  0.3333  0.6667  0.4698 10.166667  0.05 
V6    3  1.0000  1.0000  0.2092 10.166667  0.05 
Q1    1  0.8614  0.9307  0.4571 10.500000  0.05  124.47 
Q2    1  0.7870  0.8034  0.4537 11.000000  0.05   99.58 
Q3    1  0.6087  0.8044  0.6920 10.500000  0.05   96.39 
Q4    1  0.4008  0.5992  0.4554 10.500000  0.05   87.66 
Q5    1  0.8642  1.0162  0.2514 11.000000  0.05   81.66 
Q6    1  0.4839  0.6914  0.9815 11.000000  0.05   78.10 
Q7    1  0.8924  0.7847  0.4695 10.500000  0.05   70.66 
Q8    1  0.4832  0.5168  0.9620 10.500000  0.05   60.97 
MOLE   2 
HKLF 4                                                                          
END  
