TITL 1230 in P6(3)mc 
CELL 0.71073  12.4770  12.4770   4.8820  90.000  90.000 120.000 
ZERR    8.00   0.0018   0.0018   0.0010   0.000   0.000   0.000 
LATT -1 
SYMM -Y, X-Y, Z 
SYMM -X+Y, -X, Z 
SYMM -X, -Y, 0.5+Z 
SYMM Y, -X+Y, 0.5+Z 
SYMM X-Y, X, 0.5+Z 
SYMM -Y, -X, Z 
SYMM -X+Y, Y, Z 
SYMM X, X-Y, Z 
SYMM Y, X, 0.5+Z 
SYMM X-Y, -Y, 0.5+Z 
SYMM -X, -X+Y, 0.5+Z 
SFAC O H V CO 
UNIT 8 8 8 8 
 
L.S. 4 
BOND 
FMAP 2 
PLAN 20 
 
MOLE   1 
CO1   4  0.6667  0.3333  0.1880 10.166667  0.05 
Q5    1  0.7296  0.4593  0.1874 10.500000  0.05  123.40 
MOLE   2 
Q1    1  0.4109  0.5891  0.1851 10.500000  0.05  241.05 
Q3    1  0.4782  0.5218  0.1856 10.500000  0.05  195.48 
MOLE   3 
Q2    1  0.9143  0.0857  0.1824 10.500000  0.05  215.33 
Q4    1  0.8082  0.1918 -0.0013 10.500000  0.05  143.08 
Q7    1  0.6960  0.1040  0.1903 11.000000  0.05  104.16 
Q8    1  0.7573  0.0230  0.1836 11.000000  0.05   96.02 
MOLE   4 
Q6    1  1.0000  1.0000  0.4330 10.166667  0.05  119.81 
HKLF 4                                                                          
END  
