TITL 1230 in P6(3)mc 
CELL 0.71073  12.4770  12.4770   4.8820  90.000  90.000 120.000 
ZERR    8.00   0.0018   0.0018   0.0010   0.000   0.000   0.000 
LATT -1 
SYMM -Y, X-Y, Z 
SYMM -X+Y, -X, Z 
SYMM -X, -Y, 0.5+Z 
SYMM Y, -X+Y, 0.5+Z 
SYMM X-Y, X, 0.5+Z 
SYMM -Y, -X, Z 
SYMM -X+Y, Y, Z 
SYMM X, X-Y, Z 
SYMM Y, X, 0.5+Z 
SYMM X-Y, -Y, 0.5+Z 
SYMM -X, -X+Y, 0.5+Z 
SFAC O H V CO 
UNIT 8 8 8 8 
 
L.S. 4 
BOND 
FMAP 2 
PLAN 20 
 
MOLE   1 
CO1   4  0.6667  0.3333  0.4845 10.166667  0.05 
Q5    1  0.5406  0.2703  0.4829 10.500000  0.05  131.05 
MOLE   2 
Q1    1  0.5891  0.4109 -0.0164 10.500000  0.05  243.59 
Q3    1  0.5218  0.4782 -0.0162 10.500000  0.05  210.00 
MOLE   3 
Q2    1  0.0834  0.9166 -0.0119 10.500000  0.05  220.49 
Q4    1  0.1891  0.8109  0.1670 10.500000  0.05  143.05 
Q7    1  0.0250  0.7628 -0.0117 11.000000  0.05  102.21 
Q8    1  0.1060  0.7018 -0.0193 11.000000  0.05   99.84 
MOLE   4 
Q6    1  0.0000  0.0000  0.2394 10.166667  0.05  103.33 
HKLF 4                                                                          
END  
