TITL 1230 in P6(3)mc 
CELL 0.71073  12.4770  12.4770   4.8820  90.000  90.000 120.000 
ZERR    8.00   0.0018   0.0018   0.0010   0.000   0.000   0.000 
LATT -1 
SYMM -Y, X-Y, Z 
SYMM -X+Y, -X, Z 
SYMM -X, -Y, 0.5+Z 
SYMM Y, -X+Y, 0.5+Z 
SYMM X-Y, X, 0.5+Z 
SYMM -Y, -X, Z 
SYMM -X+Y, Y, Z 
SYMM X, X-Y, Z 
SYMM Y, X, 0.5+Z 
SYMM X-Y, -Y, 0.5+Z 
SYMM -X, -X+Y, 0.5+Z 
SFAC O H V CO 
UNIT 8 8 8 8 
 
L.S. 4 
BOND 
FMAP 2 
PLAN 20 
 
MOLE   1 
CO1   4  0.7085  0.8542  0.2464 10.500000  0.05 
V2    3  0.5732  0.6476  0.7627 11.000000  0.05 
V3    3  1.0000  1.0000  0.2455 10.166667  0.05 
V4    3  0.5953  0.7977  0.4519 10.500000  0.05 
Q1    1  0.3333  0.6667  0.2470 10.166667  0.05  180.24 
Q2    1  0.8510  0.9255  0.2488 10.500000  0.05  129.24 
Q3    1  0.4637  0.5363  0.4004 10.500000  0.05  114.67 
Q4    1  0.7913  0.8059  0.2589 11.000000  0.05   87.21 
Q5    1  0.4805  0.5195  0.7616 10.500000  0.05   83.38 
Q6    1  0.4176  0.5824  0.7508 10.500000  0.05   83.04 
Q7    1  0.4022  0.5978  0.2727 10.500000  0.05   80.69 
Q8    1  0.8986  1.1014  0.2316 10.500000  0.05   76.74 
MOLE   2 
HKLF 4                                                                          
END  
