TITL 1230 in P6(3)mc 
CELL 0.71073  12.4770  12.4770   4.8820  90.000  90.000 120.000 
ZERR    8.00   0.0018   0.0018   0.0010   0.000   0.000   0.000 
LATT -1 
SYMM -Y, X-Y, Z 
SYMM -X+Y, -X, Z 
SYMM -X, -Y, 0.5+Z 
SYMM Y, -X+Y, 0.5+Z 
SYMM X-Y, X, 0.5+Z 
SYMM -Y, -X, Z 
SYMM -X+Y, Y, Z 
SYMM X, X-Y, Z 
SYMM Y, X, 0.5+Z 
SYMM X-Y, -Y, 0.5+Z 
SYMM -X, -X+Y, 0.5+Z 
SFAC O H V CO 
UNIT 8 8 8 8 
 
L.S. 4 
BOND 
FMAP 2 
PLAN 20 
 
MOLE   1 
CO1   4  0.7059  0.8529  0.3910 10.500000  0.05 
V2    3  0.5747  0.6523  0.9037 11.000000  0.05 
V3    3  1.0000  1.0000  0.1319 10.166667  0.05 
V4    3  0.3333  0.6667  0.4562 10.166667  0.05 
Q1    1  0.8657  0.9328  0.3942 10.500000  0.05  135.13 
Q2    1  0.6464  0.7157  0.6572 11.000000  0.05   97.52 
Q3    1  0.6237  0.8119  0.1739 10.500000  0.05   93.43 
Q4    1  0.4672  0.5328  1.2442 10.500000  0.05   92.36 
Q5    1  0.4774  0.6823  0.8832 11.000000  0.05   85.60 
Q6    1  0.3333  0.6667  0.1597 10.166667  0.05   76.61 
Q7    1  0.8740  0.8658  0.1549 11.000000  0.05   72.72 
Q8    1  0.3916  0.6084  0.7571 10.500000  0.05   67.26 
MOLE   2 
HKLF 4                                                                          
END  
