TITL 1230 in P6(3)mc 
CELL 0.71073  12.4770  12.4770   4.8820  90.000  90.000 120.000 
ZERR    8.00   0.0018   0.0018   0.0010   0.000   0.000   0.000 
LATT -1 
SYMM -Y, X-Y, Z 
SYMM -X+Y, -X, Z 
SYMM -X, -Y, 0.5+Z 
SYMM Y, -X+Y, 0.5+Z 
SYMM X-Y, X, 0.5+Z 
SYMM -Y, -X, Z 
SYMM -X+Y, Y, Z 
SYMM X, X-Y, Z 
SYMM Y, X, 0.5+Z 
SYMM X-Y, -Y, 0.5+Z 
SYMM -X, -X+Y, 0.5+Z 
SFAC O H V CO 
UNIT 8 8 8 8 
 
L.S. 4 
BOND 
FMAP 2 
PLAN 20 
 
MOLE   1 
CO1   4  0.4840  0.5160  0.5201 10.500000  0.05 
V2    3  0.5096  0.3570  0.2789 11.000000  0.05 
V3    3  0.1115  0.0557  0.0433 10.500000  0.05 
V4    3  0.1075  0.2149  0.3160 10.500000  0.05 
V5    3  0.5636  0.5814  0.2815 11.000000  0.05 
V6    3  0.3144  0.2262  0.2285 11.000000  0.05 
V7    3  0.3118  0.2882  0.5466 11.000000  0.05 
V8    3  0.6667  0.3333  0.7361 10.166667  0.05 
Q1    1  0.1920  0.3840  0.1130 10.500000  0.05  184.47 
Q2    1  0.6337  0.3663 -0.0065 10.500000  0.05  138.06 
Q3    1  0.4433  0.5567  0.0872 10.500000  0.05  137.69 
Q4    1  0.4422  0.2211 -0.0938 10.500000  0.05  125.73 
Q5    1  0.0000  0.0000  0.2787 10.166667  0.05  112.26 
Q6    1  0.7398  0.2602  0.7501 10.500000  0.05  105.92 
Q7    1  0.6951  0.3903  0.1230 10.500000  0.05   95.64 
MOLE   2 
HKLF 4                                                                          
END  
