TITL 1230 in P6(3)mc 
CELL 0.71073  12.4770  12.4770   4.8820  90.000  90.000 120.000 
ZERR    8.00   0.0018   0.0018   0.0010   0.000   0.000   0.000 
LATT -1 
SYMM -Y, X-Y, Z 
SYMM -X+Y, -X, Z 
SYMM -X, -Y, 0.5+Z 
SYMM Y, -X+Y, 0.5+Z 
SYMM X-Y, X, 0.5+Z 
SYMM -Y, -X, Z 
SYMM -X+Y, Y, Z 
SYMM X, X-Y, Z 
SYMM Y, X, 0.5+Z 
SYMM X-Y, -Y, 0.5+Z 
SYMM -X, -X+Y, 0.5+Z 
SFAC O H V CO 
UNIT 8 8 8 8 
 
L.S. 4 
BOND 
FMAP 2 
PLAN 20 
 
MOLE   1 
CO1   4  0.3333  0.6667  0.0526 10.166667  0.05 
V2    3 -0.0422  0.4789  0.0434 10.500000  0.05 
Q1    1 -0.1753  0.4124  0.0465 10.500000  0.05  178.97 
Q2    1  0.0307  0.2740  0.0496 11.000000  0.05  155.36 
Q3    1  0.0872  0.1743  0.0432 10.500000  0.05  137.16 
Q5    1  0.0928  0.3971  0.0598 11.000000  0.05  109.53 
Q8    1  0.1631  0.6562  0.1544 11.000000  0.05  107.34 
MOLE   2 
Q4    1  0.8006  0.1994  0.2003 10.500000  0.05  135.08 
Q6    1  0.7710  0.2290  0.0434 10.500000  0.05  108.92 
MOLE   3 
Q7    1  0.0000  0.0000  0.3020 10.166667  0.05  107.94 
HKLF 4                                                                          
END  
