TITL 1230 in P6(3)mc 
CELL 0.71073  12.4770  12.4770   4.8820  90.000  90.000 120.000 
ZERR    8.00   0.0018   0.0018   0.0010   0.000   0.000   0.000 
LATT -1 
SYMM -Y, X-Y, Z 
SYMM -X+Y, -X, Z 
SYMM -X, -Y, 0.5+Z 
SYMM Y, -X+Y, 0.5+Z 
SYMM X-Y, X, 0.5+Z 
SYMM -Y, -X, Z 
SYMM -X+Y, Y, Z 
SYMM X, X-Y, Z 
SYMM Y, X, 0.5+Z 
SYMM X-Y, -Y, 0.5+Z 
SYMM -X, -X+Y, 0.5+Z 
SFAC O H V CO 
UNIT 8 8 8 8 
 
L.S. 4 
BOND 
FMAP 2 
PLAN 20 
 
MOLE   1 
CO1   4  0.7086  0.8543  0.2744 10.500000  0.05 
CO2   4  1.0000  1.0000  0.3676 10.166667  0.05 
V3    3  0.6488  1.0753  0.2583 11.000000  0.05 
V4    3  0.5187  1.0374  0.2669 10.500000  0.05 
V5    3  0.6757  0.9031  0.0782 11.000000  0.05 
Q1    1  0.5742  0.7871  0.6233 10.500000  0.05  132.59 
Q2    1  0.8610  1.0187  0.0574 11.000000  0.05  123.56 
Q3    1  0.6054  1.2109  0.7718 10.500000  0.05  104.21 
Q4    1  0.6436  1.1889  0.5796 11.000000  0.05  101.78 
Q5    1  0.6667  1.3333  0.9154 10.166667  0.05   82.28 
Q6    1  0.8835  0.9847  0.4144 11.000000  0.05   78.18 
Q7    1  0.8822  0.9411  0.2647 10.500000  0.05   77.28 
Q8    1  0.5019  0.6997  0.2606 11.000000  0.05   77.05 
MOLE   2 
HKLF 4                                                                          
END  
