TITL 1230 in P6(3)mc 
CELL 0.71073  12.4770  12.4770   4.8820  90.000  90.000 120.000 
ZERR    8.00   0.0018   0.0018   0.0010   0.000   0.000   0.000 
LATT -1 
SYMM -Y, X-Y, Z 
SYMM -X+Y, -X, Z 
SYMM -X, -Y, 0.5+Z 
SYMM Y, -X+Y, 0.5+Z 
SYMM X-Y, X, 0.5+Z 
SYMM -Y, -X, Z 
SYMM -X+Y, Y, Z 
SYMM X, X-Y, Z 
SYMM Y, X, 0.5+Z 
SYMM X-Y, -Y, 0.5+Z 
SYMM -X, -X+Y, 0.5+Z 
SFAC O H V CO 
UNIT 8 8 8 8 
 
L.S. 4 
BOND 
FMAP 2 
PLAN 20 
 
MOLE   1 
CO1   4  0.3333  0.6667  0.4041 10.166667  0.05 
MOLE   2 
Q1    1  0.5890  0.4110  0.3996 10.500000  0.05  239.20 
Q3    1  0.5224  0.4776  0.4082 10.500000  0.05  205.08 
MOLE   3 
Q2    1  0.0802  0.9198  0.3892 10.500000  0.05  213.94 
MOLE   4 
Q4    1  0.6224  0.8112  0.1987 10.500000  0.05  161.40 
Q5    1  0.5770  0.9107  0.6793 11.000000  0.05  117.60 
Q6    1  0.6386  0.8193 -0.0869 10.500000  0.05   96.85 
Q7    1  0.5952  0.8909  0.4081 11.000000  0.05   92.49 
Q8    1  0.7263  0.9717  0.4049 11.000000  0.05   83.05 
MOLE   5 
HKLF 4                                                                          
END  
