TITL 1230 in P6(3)mc 
CELL 0.71073  12.4770  12.4770   4.8820  90.000  90.000 120.000 
ZERR    8.00   0.0018   0.0018   0.0010   0.000   0.000   0.000 
LATT -1 
SYMM -Y, X-Y, Z 
SYMM -X+Y, -X, Z 
SYMM -X, -Y, 0.5+Z 
SYMM Y, -X+Y, 0.5+Z 
SYMM X-Y, X, 0.5+Z 
SYMM -Y, -X, Z 
SYMM -X+Y, Y, Z 
SYMM X, X-Y, Z 
SYMM Y, X, 0.5+Z 
SYMM X-Y, -Y, 0.5+Z 
SYMM -X, -X+Y, 0.5+Z 
SFAC O H V CO 
UNIT 8 8 8 8 
 
L.S. 4 
BOND 
FMAP 2 
PLAN 20 
 
MOLE   1 
CO1   4  0.3029  0.1514  0.3843 10.500000  0.05 
CO2   4  0.0000  0.0000  0.4554 10.166667  0.05 
V3    3  0.3518  0.4282  0.4165 11.000000  0.05 
V4    3  0.3333  0.6667  0.6975 10.166667  0.05 
Q1    1  0.5277  0.4723  0.2554 10.500000  0.05  123.08 
Q2    1  0.3333  0.6667  1.1841 10.166667  0.05  109.50 
Q3    1  0.4860  0.5140  0.3950 10.500000  0.05   89.89 
Q4    1  0.1313  0.0657  0.3627 10.500000  0.05   87.05 
Q5    1  0.2064  0.5019  0.4634 11.000000  0.05   80.17 
Q6    1  0.3961  0.6039  0.2590 10.500000  0.05   78.83 
Q7    1  0.3975  0.6025  0.8827 10.500000  0.05   76.58 
Q8    1  0.2420  0.2568  0.1962 11.000000  0.05   76.11 
MOLE   2 
HKLF 4                                                                          
END  
