TITL 1230 in P6(3)mc 
CELL 0.71073  12.4770  12.4770   4.8820  90.000  90.000 120.000 
ZERR    8.00   0.0018   0.0018   0.0010   0.000   0.000   0.000 
LATT -1 
SYMM -Y, X-Y, Z 
SYMM -X+Y, -X, Z 
SYMM -X, -Y, 0.5+Z 
SYMM Y, -X+Y, 0.5+Z 
SYMM X-Y, X, 0.5+Z 
SYMM -Y, -X, Z 
SYMM -X+Y, Y, Z 
SYMM X, X-Y, Z 
SYMM Y, X, 0.5+Z 
SYMM X-Y, -Y, 0.5+Z 
SYMM -X, -X+Y, 0.5+Z 
SFAC O H V CO 
UNIT 8 8 8 8 
 
L.S. 4 
BOND 
FMAP 2 
PLAN 20 
 
MOLE   1 
CO1   4  0.7079  0.8539  0.2660 10.500000  0.05 
V2    3  0.5737  0.6504 -0.2150 11.000000  0.05 
V3    3  1.0000  1.0000  0.3147 10.166667  0.05 
V4    3  0.3333  0.6667 -0.4209 10.166667  0.05 
V5    3  0.4004  0.5996 -0.6987 10.500000  0.05 
Q1    1  0.4757  0.5243 -0.2296 10.500000  0.05  136.80 
Q2    1  0.7881  0.8042  0.2723 11.000000  0.05  123.83 
Q3    1  0.8582  0.9291  0.2667 10.500000  0.05  121.43 
Q4    1  0.6143  0.8071 -0.0363 10.500000  0.05  113.67 
Q5    1  0.6335  0.7049  0.5112 11.000000  0.05   75.13 
Q6    1  0.6164  0.8082  0.4669 10.500000  0.05   75.09 
Q7    1  1.1479  1.0740  0.2670 10.500000  0.05   73.62 
Q8    1  0.4490  0.5510 -0.0815 10.500000  0.05   68.33 
MOLE   2 
HKLF 4                                                                          
END  
