TITL 1230 in P6(3)mc 
CELL 0.71073  12.4770  12.4770   4.8820  90.000  90.000 120.000 
ZERR    8.00   0.0018   0.0018   0.0010   0.000   0.000   0.000 
LATT -1 
SYMM -Y, X-Y, Z 
SYMM -X+Y, -X, Z 
SYMM -X, -Y, 0.5+Z 
SYMM Y, -X+Y, 0.5+Z 
SYMM X-Y, X, 0.5+Z 
SYMM -Y, -X, Z 
SYMM -X+Y, Y, Z 
SYMM X, X-Y, Z 
SYMM Y, X, 0.5+Z 
SYMM X-Y, -Y, 0.5+Z 
SYMM -X, -X+Y, 0.5+Z 
SFAC O H V CO 
UNIT 8 8 8 8 
 
L.S. 4 
BOND 
FMAP 2 
PLAN 20 
 
MOLE   1 
CO1   4  0.0000  0.0000  0.1480 10.166667  0.05 
CO2   4 -0.3333  0.3333 -0.8993 10.166667  0.05 
V3    3 -0.1463  0.1463  0.1473 10.500000  0.05 
V4    3 -0.0829  0.0829  0.1498 10.500000  0.05 
V5    3 -0.0746  0.3715 -0.3218 11.000000  0.05 
Q1    1 -0.1681  0.4160 -0.3736 10.500000  0.05  150.13 
Q2    1 -0.2015  0.2015 -0.1283 10.500000  0.05  136.97 
Q3    1 -0.0902  0.4549 -0.1318 10.500000  0.05   92.20 
Q4    1 -0.3040  0.0862  0.4190 11.000000  0.05   80.91 
Q5    1 -0.1974  0.1974  0.3736 10.500000  0.05   80.10 
Q6    1 -0.3022 -0.0628  0.0420 11.000000  0.05   79.49 
Q7    1 -0.2547  0.3727 -0.6328 10.500000  0.05   74.95 
Q8    1  0.1449  0.2116  0.1847 11.000000  0.05   71.61 
MOLE   2 
HKLF 4                                                                          
END  
