TITL 1230 in P6(3)mc 
CELL 0.71073  12.4770  12.4770   4.8820  90.000  90.000 120.000 
ZERR    8.00   0.0018   0.0018   0.0010   0.000   0.000   0.000 
LATT -1 
SYMM -Y, X-Y, Z 
SYMM -X+Y, -X, Z 
SYMM -X, -Y, 0.5+Z 
SYMM Y, -X+Y, 0.5+Z 
SYMM X-Y, X, 0.5+Z 
SYMM -Y, -X, Z 
SYMM -X+Y, Y, Z 
SYMM X, X-Y, Z 
SYMM Y, X, 0.5+Z 
SYMM X-Y, -Y, 0.5+Z 
SYMM -X, -X+Y, 0.5+Z 
SFAC O H V CO 
UNIT 8 8 8 8 
 
L.S. 4 
BOND 
FMAP 2 
PLAN 20 
 
MOLE   1 
CO1   4  0.3333  0.6667  0.0478 10.166667  0.05 
V2    3  0.4146  0.5854 -0.4506 10.500000  0.05 
Q1    1  0.4809  0.5191 -0.4528 10.500000  0.05  250.70 
Q2    1  0.4606  0.7303  0.0503 10.500000  0.05  164.60 
Q5    1  0.2100  0.3353 -0.4526 11.000000  0.05  115.60 
Q6    1  0.4109  0.3870 -0.4548 11.000000  0.05   81.34 
Q7    1  0.3054  0.3825 -0.6175 11.000000  0.05   76.66 
Q8    1  0.5628  0.5699 -0.7031 11.000000  0.05   70.33 
MOLE   2 
V3    3  0.0845  0.9155  0.0483 10.500000  0.05 
Q3    1  0.1919  0.8081 -0.1047 10.500000  0.05  155.10 
Q4    1  0.0000  1.0000  0.2986 10.166667  0.05  117.95 
MOLE   3 
HKLF 4                                                                          
END  
