TITL 1230 in P6(3)mc 
CELL 0.71073  12.4770  12.4770   4.8820  90.000  90.000 120.000 
ZERR    8.00   0.0018   0.0018   0.0010   0.000   0.000   0.000 
LATT -1 
SYMM -Y, X-Y, Z 
SYMM -X+Y, -X, Z 
SYMM -X, -Y, 0.5+Z 
SYMM Y, -X+Y, 0.5+Z 
SYMM X-Y, X, 0.5+Z 
SYMM -Y, -X, Z 
SYMM -X+Y, Y, Z 
SYMM X, X-Y, Z 
SYMM Y, X, 0.5+Z 
SYMM X-Y, -Y, 0.5+Z 
SYMM -X, -X+Y, 0.5+Z 
SFAC O H V CO 
UNIT 8 8 8 8 
 
L.S. 4 
BOND 
FMAP 2 
PLAN 20 
 
MOLE   1 
CO1   4  0.6667  0.3333  0.1103 10.166667  0.05 
MOLE   2 
Q1    1  0.4117  0.5883  0.1113 10.500000  0.05  261.50 
Q3    1  0.4788  0.5212  0.1123 10.500000  0.05  189.79 
MOLE   3 
Q2    1  0.9185  0.0815  0.1060 10.500000  0.05  237.31 
Q4    1  0.8101  0.1899 -0.0698 10.500000  0.05  141.25 
Q5    1  0.7020  0.1051  0.1145 11.000000  0.05  106.35 
Q6    1  0.8220  0.1780 -0.3795 10.500000  0.05  104.70 
Q7    1  0.7573  0.0246  0.1069 11.000000  0.05   90.04 
MOLE   4 
Q8    1  0.0000  0.0000  0.3541 10.166667  0.05   87.34 
HKLF 4                                                                          
END  
