TITL 1230 in P6(3)mc 
CELL 0.71073  12.4770  12.4770   4.8820  90.000  90.000 120.000 
ZERR    8.00   0.0018   0.0018   0.0010   0.000   0.000   0.000 
LATT -1 
SYMM -Y, X-Y, Z 
SYMM -X+Y, -X, Z 
SYMM -X, -Y, 0.5+Z 
SYMM Y, -X+Y, 0.5+Z 
SYMM X-Y, X, 0.5+Z 
SYMM -Y, -X, Z 
SYMM -X+Y, Y, Z 
SYMM X, X-Y, Z 
SYMM Y, X, 0.5+Z 
SYMM X-Y, -Y, 0.5+Z 
SYMM -X, -X+Y, 0.5+Z 
SFAC O H V CO 
UNIT 8 8 8 8 
 
L.S. 4 
BOND 
FMAP 2 
PLAN 20 
 
MOLE   1 
CO1   4  0.3333  0.6667  0.0329 10.166667  0.05 
V2    3  0.4140  0.5860  0.5318 10.500000  0.05 
V3    3  0.8312  0.9156  0.0291 10.500000  0.05 
Q1    1  0.4806  0.5194  0.5290 10.500000  0.05  211.05 
Q2    1  0.6162  0.8081 -0.0951 10.500000  0.05  148.67 
Q3    1  0.4591  0.7296  0.0302 10.500000  0.05  134.12 
Q4    1  0.1260  0.3359  0.5331 11.000000  0.05  119.72 
Q5    1  0.1954  0.4520  0.5311 11.000000  0.05   89.54 
Q6    1  0.3040  0.3942  0.4051 11.000000  0.05   87.01 
Q7    1  0.4060  0.3911  0.5358 11.000000  0.05   86.01 
Q8    1  0.6492  0.7337  0.0338 11.000000  0.05   76.03 
MOLE   2 
HKLF 4                                                                          
END  
