TITL 1230 in P6(3)mc 
CELL 0.71073  12.4770  12.4770   4.8820  90.000  90.000 120.000 
ZERR    8.00   0.0018   0.0018   0.0010   0.000   0.000   0.000 
LATT -1 
SYMM -Y, X-Y, Z 
SYMM -X+Y, -X, Z 
SYMM -X, -Y, 0.5+Z 
SYMM Y, -X+Y, 0.5+Z 
SYMM X-Y, X, 0.5+Z 
SYMM -Y, -X, Z 
SYMM -X+Y, Y, Z 
SYMM X, X-Y, Z 
SYMM Y, X, 0.5+Z 
SYMM X-Y, -Y, 0.5+Z 
SYMM -X, -X+Y, 0.5+Z 
SFAC O H V CO 
UNIT 8 8 8 8 
 
L.S. 4 
BOND 
FMAP 2 
PLAN 20 
 
MOLE   1 
CO1   4  0.6667  0.3333  0.2344 10.166667  0.05 
Q5    1  0.7301  0.4601  0.2392 10.500000  0.05  155.10 
MOLE   2 
Q1    1  0.4105  0.5895  0.2321 10.500000  0.05  244.52 
Q2    1  0.4794  0.5206  0.2358 10.500000  0.05  223.61 
MOLE   3 
Q3    1  0.9139  0.0861  0.2244 10.500000  0.05  211.08 
Q7    1  0.7615  0.0163  0.2286 11.000000  0.05  136.91 
MOLE   4 
Q4    1  0.0000  0.0000  0.4769 10.166667  0.05  207.92 
MOLE   5 
Q6    1  0.1411  0.8589  0.3897 10.500000  0.05  149.65 
MOLE   6 
Q8    1  0.1924  0.8076  0.0516 10.500000  0.05  101.41 
HKLF 4                                                                          
END  
