TITL 1230 in P6(3)mc 
CELL 0.71073  12.4770  12.4770   4.8820  90.000  90.000 120.000 
ZERR    8.00   0.0018   0.0018   0.0010   0.000   0.000   0.000 
LATT -1 
SYMM -Y, X-Y, Z 
SYMM -X+Y, -X, Z 
SYMM -X, -Y, 0.5+Z 
SYMM Y, -X+Y, 0.5+Z 
SYMM X-Y, X, 0.5+Z 
SYMM -Y, -X, Z 
SYMM -X+Y, Y, Z 
SYMM X, X-Y, Z 
SYMM Y, X, 0.5+Z 
SYMM X-Y, -Y, 0.5+Z 
SYMM -X, -X+Y, 0.5+Z 
SFAC O H V CO 
UNIT 8 8 8 8 
 
L.S. 4 
BOND 
FMAP 2 
PLAN 20 
 
MOLE   1 
CO1   4  0.6667  0.3333  0.1308 10.166667  0.05 
V2    3  0.5223  0.0446  0.6309 10.500000  0.05 
Q1    1  0.5881  0.1762  0.6177 10.500000  0.05  171.29 
Q2    1  0.3942  0.1971  0.8098 10.500000  0.05  165.19 
Q3    1  0.1665  0.0832  1.1137 10.500000  0.05  157.77 
Q4    1  0.6735  0.1857  0.3655 11.000000  0.05  156.60 
Q6    1  0.2664  0.1332  0.8446 10.500000  0.05  130.88 
Q7    1  0.2673  0.0355  1.1310 11.000000  0.05  128.78 
Q8    1  0.4300  0.1536  0.6291 11.000000  0.05  102.08 
MOLE   2 
Q5    1  1.0000  1.0000  0.3865 10.166667  0.05  133.13 
HKLF 4                                                                          
END  
