TITL 1230 in P6(3)mc 
CELL 0.71073  12.4770  12.4770   4.8820  90.000  90.000 120.000 
ZERR    8.00   0.0018   0.0018   0.0010   0.000   0.000   0.000 
LATT -1 
SYMM -Y, X-Y, Z 
SYMM -X+Y, -X, Z 
SYMM -X, -Y, 0.5+Z 
SYMM Y, -X+Y, 0.5+Z 
SYMM X-Y, X, 0.5+Z 
SYMM -Y, -X, Z 
SYMM -X+Y, Y, Z 
SYMM X, X-Y, Z 
SYMM Y, X, 0.5+Z 
SYMM X-Y, -Y, 0.5+Z 
SYMM -X, -X+Y, 0.5+Z 
SFAC O H V CO 
UNIT 8 8 8 8 
 
L.S. 4 
BOND 
FMAP 2 
PLAN 20 
 
MOLE   1 
CO1   4  0.6667  0.3333 -0.0196 10.166667  0.05 
V2    3  0.5844  0.4156  0.4803 10.500000  0.05 
MOLE   2 
Q1    1  0.9198  0.0802 -0.0175 10.500000  0.05  232.37 
MOLE   3 
Q2    1  0.0000  0.0000  0.2359 10.166667  0.05  161.23 
MOLE   4 
Q3    1  0.3869  0.1934  0.1622 10.500000  0.05  129.70 
Q4    1  0.3914  0.1029 -0.0195 11.000000  0.05  108.17 
Q5    1  0.2675  0.1338  0.6293 10.500000  0.05   93.69 
Q6    1  0.3341  0.1066  0.4803 11.000000  0.05   92.80 
Q7    1  0.3667  0.1833  0.4786 10.500000  0.05   92.75 
Q8    1  0.2693  0.1346  0.3278 10.500000  0.05   92.08 
MOLE   5 
HKLF 4                                                                          
END  
