TITL 1230 in P6(3)mc 
CELL 0.71073  12.4770  12.4770   4.8820  90.000  90.000 120.000 
ZERR    8.00   0.0018   0.0018   0.0010   0.000   0.000   0.000 
LATT -1 
SYMM -Y, X-Y, Z 
SYMM -X+Y, -X, Z 
SYMM -X, -Y, 0.5+Z 
SYMM Y, -X+Y, 0.5+Z 
SYMM X-Y, X, 0.5+Z 
SYMM -Y, -X, Z 
SYMM -X+Y, Y, Z 
SYMM X, X-Y, Z 
SYMM Y, X, 0.5+Z 
SYMM X-Y, -Y, 0.5+Z 
SYMM -X, -X+Y, 0.5+Z 
SFAC O H V CO 
UNIT 8 8 8 8 
 
L.S. 4 
BOND 
FMAP 2 
PLAN 20 
 
MOLE   1 
CO1   4  0.3333  0.6667  0.4123 10.166667  0.05 
V2    3  0.4132  0.5868 -0.0833 10.500000  0.05 
Q2    1  0.4786  0.5214 -0.0793 10.500000  0.05  190.71 
Q3    1  0.6073  0.8036  0.5533 10.500000  0.05  134.54 
Q4    1  0.7311  0.8655  0.7484 10.500000  0.05  105.88 
Q5    1  0.6050  0.7083  0.4197 11.000000  0.05  105.09 
Q6    1  0.6390  0.8195  0.9231 10.500000  0.05   82.52 
Q7    1  0.5782  0.6632  0.1454 11.000000  0.05   78.79 
Q8    1  0.5590  0.6983 -0.0573 11.000000  0.05   74.96 
MOLE   2 
Q1    1  0.0846  0.9154  0.4170 10.500000  0.05  203.10 
HKLF 4                                                                          
END  
