TITL 1230 in P6(3)mc 
CELL 0.71073  12.4770  12.4770   4.8820  90.000  90.000 120.000 
ZERR    8.00   0.0018   0.0018   0.0010   0.000   0.000   0.000 
LATT -1 
SYMM -Y, X-Y, Z 
SYMM -X+Y, -X, Z 
SYMM -X, -Y, 0.5+Z 
SYMM Y, -X+Y, 0.5+Z 
SYMM X-Y, X, 0.5+Z 
SYMM -Y, -X, Z 
SYMM -X+Y, Y, Z 
SYMM X, X-Y, Z 
SYMM Y, X, 0.5+Z 
SYMM X-Y, -Y, 0.5+Z 
SYMM -X, -X+Y, 0.5+Z 
SFAC O H V CO 
UNIT 8 8 8 8 
 
L.S. 4 
BOND 
FMAP 2 
PLAN 20 
 
MOLE   1 
CO1   4  0.3333  0.6667  0.1120 10.166667  0.05 
Q3    1  0.0854  0.9146  0.1079 10.500000  0.05  165.88 
Q4    1  0.1929  0.8071 -0.1527 10.500000  0.05  156.30 
Q5    1  0.2705  0.7295  0.0840 10.500000  0.05  154.92 
Q6    1  0.1366  0.8634  0.3953 10.500000  0.05  149.72 
Q7    1  0.1726  0.8274  0.0986 10.500000  0.05  115.94 
Q8    1  0.2163  0.7837  0.1021 10.500000  0.05  114.19 
MOLE   2 
Q1    1  0.5234  0.4766  0.1118 10.500000  0.05  206.05 
Q2    1  0.5853  0.4147  0.1168 10.500000  0.05  192.92 
MOLE   3 
HKLF 4                                                                          
END  
