TITL 1230 in P6(3)mc 
CELL 0.71073  12.4770  12.4770   4.8820  90.000  90.000 120.000 
ZERR    8.00   0.0018   0.0018   0.0010   0.000   0.000   0.000 
LATT -1 
SYMM -Y, X-Y, Z 
SYMM -X+Y, -X, Z 
SYMM -X, -Y, 0.5+Z 
SYMM Y, -X+Y, 0.5+Z 
SYMM X-Y, X, 0.5+Z 
SYMM -Y, -X, Z 
SYMM -X+Y, Y, Z 
SYMM X, X-Y, Z 
SYMM Y, X, 0.5+Z 
SYMM X-Y, -Y, 0.5+Z 
SYMM -X, -X+Y, 0.5+Z 
SFAC O H V CO 
UNIT 8 8 8 8 
 
L.S. 4 
BOND 
FMAP 2 
PLAN 20 
 
MOLE   1 
CO1   4  0.3333  0.6667  0.2593 10.166667  0.05 
CO2   4  0.1536  0.3071 -0.8971 10.500000  0.05 
CO3   4  0.3465  0.4236 -0.4239 11.000000  0.05 
V4    3  0.0000  0.0000 -0.7285 10.166667  0.05 
Q1    1  0.0668  0.1336 -0.8545 10.500000  0.05  131.11 
Q2    1  0.1926  0.3851 -0.6438 10.500000  0.05  110.33 
Q3    1  0.1941  0.3883 -1.1741 10.500000  0.05  110.32 
Q4    1  0.4017  0.5983 -0.2468 10.500000  0.05  109.44 
Q5    1  0.3333  0.6667 -0.2004 10.166667  0.05  100.15 
Q6    1  0.4853  0.5147 -0.4120 10.500000  0.05   87.35 
Q7    1  0.0632  0.3361 -1.2259 11.000000  0.05   81.73 
Q8    1  0.5414  0.4586 -0.4550 10.500000  0.05   78.93 
MOLE   2 
HKLF 4                                                                          
END  
