TITL 1230 in P6(3)mc 
CELL 0.71073  12.4770  12.4770   4.8820  90.000  90.000 120.000 
ZERR    8.00   0.0018   0.0018   0.0010   0.000   0.000   0.000 
LATT -1 
SYMM -Y, X-Y, Z 
SYMM -X+Y, -X, Z 
SYMM -X, -Y, 0.5+Z 
SYMM Y, -X+Y, 0.5+Z 
SYMM X-Y, X, 0.5+Z 
SYMM -Y, -X, Z 
SYMM -X+Y, Y, Z 
SYMM X, X-Y, Z 
SYMM Y, X, 0.5+Z 
SYMM X-Y, -Y, 0.5+Z 
SYMM -X, -X+Y, 0.5+Z 
SFAC O H V CO 
UNIT 8 8 8 8 
 
L.S. 4 
BOND 
FMAP 2 
PLAN 20 
 
MOLE   1 
CO1   4  0.3023  0.1512  0.0971 10.500000  0.05 
V2    3  0.4268  0.0759  0.6027 11.000000  0.05 
V3    3  0.0000  0.0000  0.0848 10.166667  0.05 
Q2    1  0.1478  0.0739  0.0909 10.500000  0.05  115.57 
Q3    1  0.3845  0.1923  0.3348 10.500000  0.05  110.10 
Q6    1  0.2110  0.0158  0.0959 11.000000  0.05   86.81 
Q7    1  0.5126  0.2048  0.6111 11.000000  0.05   79.65 
Q8    1  0.5216  0.0433  0.6022 10.500000  0.05   70.98 
MOLE   2 
Q1    1  0.6667  0.3333  0.0977 10.166667  0.05  175.18 
Q4    1  0.6667  0.3333  0.3471 10.166667  0.05  101.86 
Q5    1  0.6667  0.3333 -0.1335 10.166667  0.05   90.10 
MOLE   3 
HKLF 4                                                                          
END  
