TITL 1230 in P6(3)mc 
CELL 0.71073  12.4770  12.4770   4.8820  90.000  90.000 120.000 
ZERR    8.00   0.0018   0.0018   0.0010   0.000   0.000   0.000 
LATT -1 
SYMM -Y, X-Y, Z 
SYMM -X+Y, -X, Z 
SYMM -X, -Y, 0.5+Z 
SYMM Y, -X+Y, 0.5+Z 
SYMM X-Y, X, 0.5+Z 
SYMM -Y, -X, Z 
SYMM -X+Y, Y, Z 
SYMM X, X-Y, Z 
SYMM Y, X, 0.5+Z 
SYMM X-Y, -Y, 0.5+Z 
SYMM -X, -X+Y, 0.5+Z 
SFAC O H V CO 
UNIT 8 8 8 8 
 
L.S. 4 
BOND 
FMAP 2 
PLAN 20 
 
MOLE   1 
CO1   4  0.7067  0.8534  0.0231 10.500000  0.05 
CO2   4  0.5735  0.9250 -0.4716 11.000000  0.05 
V3    3  0.3333  0.6667 -0.1921 10.166667  0.05 
V4    3  1.0000  1.0000  0.2886 10.166667  0.05 
V5    3  1.0000  1.0000  0.5209 10.166667  0.05 
Q1    1  0.6119  0.8059 -0.2262 10.500000  0.05  120.32 
Q2    1  0.6435  0.9368  0.2829 11.000000  0.05   92.07 
Q3    1  0.3969  0.6031  0.0362 10.500000  0.05   90.80 
Q4    1  0.4961  0.7951 -0.4677 11.000000  0.05   86.59 
Q5    1  1.1060  1.2120  0.5396 10.500000  0.05   80.08 
Q6    1  0.8573  0.9287  0.0134 10.500000  0.05   71.95 
Q7    1  0.4875  0.9751 -0.4654 10.500000  0.05   70.50 
Q8    1  0.3947  0.7894 -0.6241 10.500000  0.05   69.18 
MOLE   2 
HKLF 4                                                                          
END  
