TITL 1230 in P6(3)mc 
CELL 0.71073  12.4770  12.4770   4.8820  90.000  90.000 120.000 
ZERR    8.00   0.0018   0.0018   0.0010   0.000   0.000   0.000 
LATT -1 
SYMM -Y, X-Y, Z 
SYMM -X+Y, -X, Z 
SYMM -X, -Y, 0.5+Z 
SYMM Y, -X+Y, 0.5+Z 
SYMM X-Y, X, 0.5+Z 
SYMM -Y, -X, Z 
SYMM -X+Y, Y, Z 
SYMM X, X-Y, Z 
SYMM Y, X, 0.5+Z 
SYMM X-Y, -Y, 0.5+Z 
SYMM -X, -X+Y, 0.5+Z 
SFAC O H V CO 
UNIT 8 8 8 8 
 
L.S. 4 
BOND 
FMAP 2 
PLAN 20 
 
MOLE   1 
CO1   4  0.3333  0.6667  0.3516 10.166667  0.05 
Q5    1  0.4592  0.7296  0.3714 10.500000  0.05  133.87 
MOLE   2 
Q1    1  0.5868  0.4132  0.3546 10.500000  0.05  224.68 
Q2    1  0.5218  0.4782  0.3598 10.500000  0.05  214.80 
MOLE   3 
Q3    1  0.0855  0.9145  0.3448 10.500000  0.05  194.09 
Q4    1  0.1942  0.8058  0.6180 10.500000  0.05  143.87 
Q7    1  0.0174  0.7527  0.3511 11.000000  0.05  105.86 
Q8    1  0.1800  0.8200  0.3815 10.500000  0.05  103.79 
MOLE   4 
Q6    1  0.0000  0.0000  0.0862 10.166667  0.05  114.32 
HKLF 4                                                                          
END  
