TITL 1230 in P6(3)mc 
CELL 0.71073  12.4770  12.4770   4.8820  90.000  90.000 120.000 
ZERR    8.00   0.0018   0.0018   0.0010   0.000   0.000   0.000 
LATT -1 
SYMM -Y, X-Y, Z 
SYMM -X+Y, -X, Z 
SYMM -X, -Y, 0.5+Z 
SYMM Y, -X+Y, 0.5+Z 
SYMM X-Y, X, 0.5+Z 
SYMM -Y, -X, Z 
SYMM -X+Y, Y, Z 
SYMM X, X-Y, Z 
SYMM Y, X, 0.5+Z 
SYMM X-Y, -Y, 0.5+Z 
SYMM -X, -X+Y, 0.5+Z 
SFAC O H V CO 
UNIT 8 8 8 8 
 
L.S. 4 
BOND 
FMAP 2 
PLAN 20 
 
MOLE   1 
CO1   4  0.3053  0.1526  0.2712 10.500000  0.05 
CO2   4  0.4259  0.3492 -0.2404 11.000000  0.05 
V3    3  0.6667  0.3333  0.0083 10.166667  0.05 
V4    3  0.6667  0.3333  0.2062 10.166667  0.05 
V5    3  0.1457  0.0729  0.1261 10.500000  0.05 
V6    3  0.0000  0.0000  0.0601 10.166667  0.05 
V7    3  0.3864  0.1932  0.0067 10.500000  0.05 
V8    3  0.5992  0.4008  0.2494 10.500000  0.05 
Q1    1  0.6038  0.3962 -0.3812 10.500000  0.05  123.38 
Q2    1  0.5180  0.4820 -0.2479 10.500000  0.05  113.65 
Q3    1  0.6667  0.3333 -0.4753 10.166667  0.05   99.39 
Q4    1  0.1071 -0.1071  0.2685 10.500000  0.05   98.71 
Q5    1  0.5297  0.4703 -0.5444 10.500000  0.05   79.73 
Q6    1  0.3852  0.1926  0.5291 10.500000  0.05   70.61 
Q7    1  0.5454  0.4546 -0.0144 10.500000  0.05   67.25 
Q8    1  0.4935  0.2897 -0.2617 11.000000  0.05   58.65 
MOLE   2 
HKLF 4                                                                          
END  
