TITL 1230 in P6(3)mc 
CELL 0.71073  12.4770  12.4770   4.8820  90.000  90.000 120.000 
ZERR    8.00   0.0018   0.0018   0.0010   0.000   0.000   0.000 
LATT -1 
SYMM -Y, X-Y, Z 
SYMM -X+Y, -X, Z 
SYMM -X, -Y, 0.5+Z 
SYMM Y, -X+Y, 0.5+Z 
SYMM X-Y, X, 0.5+Z 
SYMM -Y, -X, Z 
SYMM -X+Y, Y, Z 
SYMM X, X-Y, Z 
SYMM Y, X, 0.5+Z 
SYMM X-Y, -Y, 0.5+Z 
SYMM -X, -X+Y, 0.5+Z 
SFAC O H V CO 
UNIT 8 8 8 8 
 
L.S. 4 
BOND 
FMAP 2 
PLAN 20 
 
MOLE   1 
CO1   4  0.7075  0.8537  0.4771 10.500000  0.05 
CO2   4  0.5732  0.9241 -0.0462 11.000000  0.05 
V3    3  0.3333  0.6667  0.6501 10.166667  0.05 
V4    3  1.0000  1.0000  0.4819 10.166667  0.05 
V5    3  0.3333  0.6667  0.1737 10.166667  0.05 
V6    3  1.0000  1.0000  0.2090 10.166667  0.05 
Q1    1  0.3985  0.6015  0.4648 10.500000  0.05  135.15 
Q2    1  0.6182  0.8091  0.1969 10.500000  0.05  134.63 
Q3    1  0.6157  0.8079  0.7237 10.500000  0.05  101.97 
Q4    1  0.8940  0.7880  0.4529 10.500000  0.05   91.78 
Q5    1  0.4837  0.9675 -0.0338 10.500000  0.05   91.62 
Q6    1  0.8578  0.9289  0.5053 10.500000  0.05   90.57 
Q7    1  0.6489  0.7183  0.7379 11.000000  0.05   84.51 
Q8    1  0.3983  0.7966  0.1181 10.500000  0.05   80.82 
MOLE   2 
HKLF 4                                                                          
END  
