TITL 1230 in P6(3)mc 
CELL 0.71073  12.4770  12.4770   4.8820  90.000  90.000 120.000 
ZERR    8.00   0.0018   0.0018   0.0010   0.000   0.000   0.000 
LATT -1 
SYMM -Y, X-Y, Z 
SYMM -X+Y, -X, Z 
SYMM -X, -Y, 0.5+Z 
SYMM Y, -X+Y, 0.5+Z 
SYMM X-Y, X, 0.5+Z 
SYMM -Y, -X, Z 
SYMM -X+Y, Y, Z 
SYMM X, X-Y, Z 
SYMM Y, X, 0.5+Z 
SYMM X-Y, -Y, 0.5+Z 
SYMM -X, -X+Y, 0.5+Z 
SFAC O H V CO 
UNIT 8 8 8 8 
 
L.S. 4 
BOND 
FMAP 2 
PLAN 20 
 
MOLE   1 
CO1   4  0.8516  0.1484  0.4658 10.500000  0.05 
V2    3  1.0000  0.0000  0.5183 10.166667  0.05 
V3    3  0.6499  0.0764 -0.0085 11.000000  0.05 
V4    3  0.6667  0.3333 -0.4741 10.166667  0.05 
Q1    1  0.9280  0.0720  0.4648 10.500000  0.05  139.41 
Q2    1  0.5332  0.0663  0.3497 10.500000  0.05   98.73 
Q3    1  0.8076  0.0130  0.4788 11.000000  0.05   96.68 
Q4    1  0.8064  0.1936  0.2730 10.500000  0.05   95.12 
Q5    1  0.8062  0.1938  0.7369 10.500000  0.05   90.35 
Q6    1  0.5166  0.0332 -0.0139 10.500000  0.05   80.66 
Q7    1  0.6065  0.2130 -0.1451 10.500000  0.05   73.70 
Q8    1  0.4664 -0.0671  0.0952 10.500000  0.05   71.16 
MOLE   2 
HKLF 4                                                                          
END  
