TITL 1230 in P6(3)mc 
CELL 0.71073  12.4770  12.4770   4.8820  90.000  90.000 120.000 
ZERR    8.00   0.0018   0.0018   0.0010   0.000   0.000   0.000 
LATT -1 
SYMM -Y, X-Y, Z 
SYMM -X+Y, -X, Z 
SYMM -X, -Y, 0.5+Z 
SYMM Y, -X+Y, 0.5+Z 
SYMM X-Y, X, 0.5+Z 
SYMM -Y, -X, Z 
SYMM -X+Y, Y, Z 
SYMM X, X-Y, Z 
SYMM Y, X, 0.5+Z 
SYMM X-Y, -Y, 0.5+Z 
SYMM -X, -X+Y, 0.5+Z 
SFAC O H V CO 
UNIT 8 8 8 8 
 
L.S. 4 
BOND 
FMAP 2 
PLAN 20 
 
MOLE   1 
CO1   4  1.0000  1.0000  0.0705 10.166667  0.05 
V2    3  0.7032  0.8516  0.1277 10.500000  0.05 
V3    3  0.3333  0.6667  0.0652 10.166667  0.05 
V4    3  0.5660  0.6487 -0.3870 11.000000  0.05 
Q1    1  0.8668  0.9334  0.1216 10.500000  0.05  125.15 
Q2    1  0.6065  0.8032 -0.1576 10.500000  0.05  108.32 
Q3    1  0.6057  0.8029  0.3675 10.500000  0.05  107.96 
Q4    1  0.9412  1.0588  0.4745 10.500000  0.05   92.52 
Q5    1  0.3950  0.6050 -0.2615 10.500000  0.05   91.69 
Q6    1  0.2848  0.7152 -0.3118 10.500000  0.05   87.83 
Q7    1  0.4667  0.5333 -0.7374 10.500000  0.05   78.96 
Q8    1  0.4198  0.5802 -0.4639 10.500000  0.05   74.91 
MOLE   2 
HKLF 4                                                                          
END  
