TITL 1230 in P6(3)mc 
CELL 0.71073  12.4770  12.4770   4.8820  90.000  90.000 120.000 
ZERR    8.00   0.0018   0.0018   0.0010   0.000   0.000   0.000 
LATT -1 
SYMM -Y, X-Y, Z 
SYMM -X+Y, -X, Z 
SYMM -X, -Y, 0.5+Z 
SYMM Y, -X+Y, 0.5+Z 
SYMM X-Y, X, 0.5+Z 
SYMM -Y, -X, Z 
SYMM -X+Y, Y, Z 
SYMM X, X-Y, Z 
SYMM Y, X, 0.5+Z 
SYMM X-Y, -Y, 0.5+Z 
SYMM -X, -X+Y, 0.5+Z 
SFAC O H V CO 
UNIT 8 8 8 8 
 
L.S. 4 
BOND 
FMAP 2 
PLAN 20 
 
MOLE   1 
CO1   4  0.3062  0.1531  0.4551 10.500000  0.05 
CO2   4  0.6667  0.3333  1.6526 10.166667  0.05 
CO3   4  0.4233  0.3463  0.9429 11.000000  0.05 
V4    3  0.0000  0.0000  0.1820 10.166667  0.05 
V5    3  0.0000  0.0000  0.4113 10.166667  0.05 
Q1    1  0.5982  0.4018  1.0849 10.500000  0.05  109.54 
Q2    1  0.1327  0.0664  0.4971 10.500000  0.05  100.64 
Q3    1  0.6667  0.3333  1.1663 10.166667  0.05   88.33 
Q4    1  0.3906  0.1953  0.7356 10.500000  0.05   84.80 
Q5    1  0.4688  0.5312  1.0780 10.500000  0.05   83.77 
Q6    1 -0.2130 -0.1065  0.4439 10.500000  0.05   83.65 
Q7    1  0.6945  0.2012  1.9176 11.000000  0.05   78.93 
Q8    1  0.3352  0.2705  0.1541 11.000000  0.05   70.56 
MOLE   2 
HKLF 4                                                                          
END  
