TITL 1230 in P6(3)mc 
CELL 0.71073  12.4770  12.4770   4.8820  90.000  90.000 120.000 
ZERR    8.00   0.0018   0.0018   0.0010   0.000   0.000   0.000 
LATT -1 
SYMM -Y, X-Y, Z 
SYMM -X+Y, -X, Z 
SYMM -X, -Y, 0.5+Z 
SYMM Y, -X+Y, 0.5+Z 
SYMM X-Y, X, 0.5+Z 
SYMM -Y, -X, Z 
SYMM -X+Y, Y, Z 
SYMM X, X-Y, Z 
SYMM Y, X, 0.5+Z 
SYMM X-Y, -Y, 0.5+Z 
SYMM -X, -X+Y, 0.5+Z 
SFAC O H V CO 
UNIT 8 8 8 8 
 
L.S. 4 
BOND 
FMAP 2 
PLAN 20 
 
MOLE   1 
CO1   4  0.1073  0.7748  0.3544 11.000000  0.05 
CO2   4  0.1470  0.8530  0.1589 10.500000  0.05 
V3    3  0.0274  0.5137  0.3500 10.500000  0.05 
V4    3  0.2218  0.6109  0.0915 10.500000  0.05 
V5    3  0.0554  0.6063  0.8433 11.000000  0.05 
V6    3  0.0509  0.9491  0.3272 10.500000  0.05 
V7    3  0.2950  0.7050 -0.3247 10.500000  0.05 
V8    3  0.1814  0.8186  0.5745 10.500000  0.05 
Q1    1  0.0859  0.6924  0.0765 11.000000  0.05  173.76 
Q2    1  0.1660  0.6964  0.3352 11.000000  0.05  114.84 
Q3    1  0.1162  0.6289  0.5841 11.000000  0.05  114.11 
Q4    1 -0.0276  0.8061  0.3275 11.000000  0.05   99.83 
Q5    1  0.1433  0.6650  0.1237 11.000000  0.05   91.97 
Q6    1  0.1596  0.6113  0.3674 11.000000  0.05   88.46 
Q7    1  0.0562  0.8065  0.5883 11.000000  0.05   86.27 
Q8    1 -0.0186  0.6394  0.6152 11.000000  0.05   79.94 
MOLE   2 
HKLF 4                                                                          
END  
