TITL 1230 in P6(3)mc 
CELL 0.71073  12.4770  12.4770   4.8820  90.000  90.000 120.000 
ZERR    8.00   0.0018   0.0018   0.0010   0.000   0.000   0.000 
LATT -1 
SYMM -Y, X-Y, Z 
SYMM -X+Y, -X, Z 
SYMM -X, -Y, 0.5+Z 
SYMM Y, -X+Y, 0.5+Z 
SYMM X-Y, X, 0.5+Z 
SYMM -Y, -X, Z 
SYMM -X+Y, Y, Z 
SYMM X, X-Y, Z 
SYMM Y, X, 0.5+Z 
SYMM X-Y, -Y, 0.5+Z 
SYMM -X, -X+Y, 0.5+Z 
SFAC O H V CO 
UNIT 8 8 8 8 
 
L.S. 4 
BOND 
FMAP 2 
PLAN 20 
 
MOLE   1 
CO1   4  0.7076  0.8538  0.1818 10.500000  0.05 
V2    3  0.5726  0.6492  0.6532 11.000000  0.05 
V3    3  0.3333  0.6667  1.3267 10.166667  0.05 
V4    3  0.3333  0.6667  0.8621 10.166667  0.05 
V5    3  1.0000  1.0000  0.1307 10.166667  0.05 
Q1    1  0.4038  0.5962  0.8093 10.500000  0.05  150.68 
Q2    1  0.3984  0.6016  1.1698 10.500000  0.05  130.05 
Q3    1  0.8523  0.9262  0.2305 10.500000  0.05  127.69 
Q4    1  0.4708  0.5293  0.3067 10.500000  0.05  120.01 
Q5    1  0.6153  0.8076  0.4847 10.500000  0.05  107.90 
Q6    1  0.4817  0.5183  0.6888 10.500000  0.05  103.44 
Q7    1  0.4470  0.5530  0.5084 10.500000  0.05   77.74 
Q8    1  0.5488  0.4512  0.6433 10.500000  0.05   77.30 
MOLE   2 
HKLF 4                                                                          
END  
