TITL 1230 in P6(3)mc 
CELL 0.71073  12.4770  12.4770   4.8820  90.000  90.000 120.000 
ZERR    8.00   0.0018   0.0018   0.0010   0.000   0.000   0.000 
LATT -1 
SYMM -Y, X-Y, Z 
SYMM -X+Y, -X, Z 
SYMM -X, -Y, 0.5+Z 
SYMM Y, -X+Y, 0.5+Z 
SYMM X-Y, X, 0.5+Z 
SYMM -Y, -X, Z 
SYMM -X+Y, Y, Z 
SYMM X, X-Y, Z 
SYMM Y, X, 0.5+Z 
SYMM X-Y, -Y, 0.5+Z 
SYMM -X, -X+Y, 0.5+Z 
SFAC O H V CO 
UNIT 8 8 8 8 
 
L.S. 4 
BOND 
FMAP 2 
PLAN 20 
 
MOLE   1 
CO1   4  0.8565  0.1435  0.1659 10.500000  0.05 
V2    3  0.9307  0.4654 -0.2723 10.500000  0.05 
V3    3  0.7766  0.3883 -0.1793 10.500000  0.05 
V4    3  0.6667  0.3333 -0.5545 10.166667  0.05 
V5    3  1.0812  0.6382  0.1586 11.000000  0.05 
V6    3  0.7860  0.2140 -0.2428 10.500000  0.05 
V7    3  1.0000  0.0000  0.0450 10.166667  0.05 
V8    3  0.8084  0.1916  0.3595 10.500000  0.05 
Q1    1  0.7086  0.0746 -0.1069 11.000000  0.05  148.56 
Q2    1  0.9549  0.2667  0.1933 11.000000  0.05  116.63 
Q3    1  0.9251  0.0749  0.1979 10.500000  0.05  109.32 
Q4    1  0.8659  0.0123  0.3903 11.000000  0.05  108.08 
Q5    1  0.6866  0.2130  0.1171 11.000000  0.05  101.51 
Q6    1  0.8076  0.0153  0.2049 11.000000  0.05   89.50 
Q7    1  0.8900  0.1100 -0.3137 10.500000  0.05   82.58 
Q8    1  0.9947  0.2495  0.3980 11.000000  0.05   58.39 
MOLE   2 
HKLF 4                                                                          
END  
