TITL 1230 in P6(3)mc 
CELL 0.71073  12.4770  12.4770   4.8820  90.000  90.000 120.000 
ZERR    8.00   0.0018   0.0018   0.0010   0.000   0.000   0.000 
LATT -1 
SYMM -Y, X-Y, Z 
SYMM -X+Y, -X, Z 
SYMM -X, -Y, 0.5+Z 
SYMM Y, -X+Y, 0.5+Z 
SYMM X-Y, X, 0.5+Z 
SYMM -Y, -X, Z 
SYMM -X+Y, Y, Z 
SYMM X, X-Y, Z 
SYMM Y, X, 0.5+Z 
SYMM X-Y, -Y, 0.5+Z 
SYMM -X, -X+Y, 0.5+Z 
SFAC O H V CO 
UNIT 8 8 8 8 
 
L.S. 4 
BOND 
FMAP 2 
PLAN 20 
 
MOLE   1 
CO1   4  0.6667  0.3333  0.3177 10.166667  0.05 
Q5    1  0.7292  0.4584  0.3214 10.500000  0.05  105.10 
MOLE   2 
Q1    1  0.4118  0.5882  0.3195 10.500000  0.05  257.59 
Q3    1  0.4786  0.5214  0.3223 10.500000  0.05  196.72 
MOLE   3 
Q2    1  0.9180  0.0820  0.3230 10.500000  0.05  226.97 
Q4    1  0.8064  0.1936  0.5295 10.500000  0.05  138.58 
Q6    1  0.8929  0.2974  0.3138 11.000000  0.05  100.80 
Q7    1  0.9734  0.2457  0.3203 11.000000  0.05   96.89 
Q8    1  0.8215  0.1785  0.8090 10.500000  0.05   95.94 
MOLE   4 
HKLF 4                                                                          
END  
