TITL 1230 in P6(3)mc 
CELL 0.71073  12.4770  12.4770   4.8820  90.000  90.000 120.000 
ZERR    8.00   0.0018   0.0018   0.0010   0.000   0.000   0.000 
LATT -1 
SYMM -Y, X-Y, Z 
SYMM -X+Y, -X, Z 
SYMM -X, -Y, 0.5+Z 
SYMM Y, -X+Y, 0.5+Z 
SYMM X-Y, X, 0.5+Z 
SYMM -Y, -X, Z 
SYMM -X+Y, Y, Z 
SYMM X, X-Y, Z 
SYMM Y, X, 0.5+Z 
SYMM X-Y, -Y, 0.5+Z 
SYMM -X, -X+Y, 0.5+Z 
SFAC O H V CO 
UNIT 8 8 8 8 
 
L.S. 4 
BOND 
FMAP 2 
PLAN 20 
 
MOLE   1 
CO1   4  0.3333  0.6667  0.2559 10.166667  0.05 
MOLE   2 
Q1    1  0.5889  0.4111  0.2607 10.500000  0.05  214.15 
Q2    1  0.5224  0.4776  0.2521 10.500000  0.05  213.31 
Q7    1  0.5500  0.4500  0.5010 10.500000  0.05   80.49 
MOLE   3 
Q3    1  0.0824  0.9176  0.2676 10.500000  0.05  189.13 
MOLE   4 
Q4    1  0.1941  0.3881  0.0605 10.500000  0.05  162.77 
Q5    1  0.2491  0.2784  0.2515 11.000000  0.05  102.86 
Q6    1  0.3788  0.2998  0.1213 11.000000  0.05   96.69 
Q8    1  0.2828  0.3921  0.2629 11.000000  0.05   76.64 
MOLE   5 
HKLF 4                                                                          
END  
