TITL 1230 in P6(3)mc 
CELL 0.71073  12.4770  12.4770   4.8820  90.000  90.000 120.000 
ZERR    8.00   0.0018   0.0018   0.0010   0.000   0.000   0.000 
LATT -1 
SYMM -Y, X-Y, Z 
SYMM -X+Y, -X, Z 
SYMM -X, -Y, 0.5+Z 
SYMM Y, -X+Y, 0.5+Z 
SYMM X-Y, X, 0.5+Z 
SYMM -Y, -X, Z 
SYMM -X+Y, Y, Z 
SYMM X, X-Y, Z 
SYMM Y, X, 0.5+Z 
SYMM X-Y, -Y, 0.5+Z 
SYMM -X, -X+Y, 0.5+Z 
SFAC O H V CO 
UNIT 8 8 8 8 
 
L.S. 4 
BOND 
FMAP 2 
PLAN 20 
 
MOLE   1 
CO1   4  0.7052  0.8526  0.2631 10.500000  0.05 
CO2   4  0.5696  0.9164 -0.2324 11.000000  0.05 
V3    3  0.8557  0.9278  0.1654 10.500000  0.05 
V4    3  1.0000  1.0000  0.1529 10.166667  0.05 
V5    3  0.3333  0.6667  0.5339 10.166667  0.05 
V6    3  0.3333  0.6667  0.2104 10.166667  0.05 
V7    3  0.6155  0.8078  0.0223 10.500000  0.05 
V8    3  0.3333  0.6667  0.0348 10.166667  0.05 
Q1    1  0.4017  0.5983  0.2652 10.500000  0.05  134.35 
Q2    1  0.4000  0.8000 -0.3688 10.500000  0.05  117.76 
Q3    1  0.8940  0.7880  0.2808 10.500000  0.05  105.77 
Q4    1  0.4859  0.9718 -0.2420 10.500000  0.05  103.16 
Q5    1  0.5411  1.0822 -0.2006 10.500000  0.05   78.75 
Q6    1  0.6183  0.8092  0.5441 10.500000  0.05   73.48 
Q7    1  0.4727  0.9454  0.0989 10.500000  0.05   66.72 
Q8    1  0.6196  0.9202  0.5164 11.000000  0.05   65.51 
MOLE   2 
HKLF 4                                                                          
END  
