TITL 1230 in P6(3)mc 
CELL 0.71073  12.4770  12.4770   4.8820  90.000  90.000 120.000 
ZERR    8.00   0.0018   0.0018   0.0010   0.000   0.000   0.000 
LATT -1 
SYMM -Y, X-Y, Z 
SYMM -X+Y, -X, Z 
SYMM -X, -Y, 0.5+Z 
SYMM Y, -X+Y, 0.5+Z 
SYMM X-Y, X, 0.5+Z 
SYMM -Y, -X, Z 
SYMM -X+Y, Y, Z 
SYMM X, X-Y, Z 
SYMM Y, X, 0.5+Z 
SYMM X-Y, -Y, 0.5+Z 
SYMM -X, -X+Y, 0.5+Z 
SFAC O H V CO 
UNIT 8 8 8 8 
 
L.S. 4 
BOND 
FMAP 2 
PLAN 20 
 
MOLE   1 
CO1   4  0.8460  0.6919  0.1437 10.500000  0.05 
CO2   4  0.6667  0.3333 -0.0099 10.166667  0.05 
CO3   4  0.9212  0.5779  0.6631 11.000000  0.05 
CO4   4  1.0000  1.0000  0.4529 10.166667  0.05 
Q1    1  0.9284  0.8568  0.1084 10.500000  0.05  105.07 
Q2    1  0.8071  0.6142  0.3642 10.500000  0.05  104.24 
Q3    1  0.8055  0.6111 -0.1366 10.500000  0.05  101.42 
Q4    1  0.6667  0.3333  0.4477 10.166667  0.05  100.47 
Q5    1  0.8066  0.4033  0.5187 10.500000  0.05   92.61 
Q7    1  0.9369  0.4685  0.3029 10.500000  0.05   78.97 
Q8    1  1.0613  0.5306  0.5651 10.500000  0.05   78.46 
MOLE   2 
Q6    1  0.1067  0.8933  0.1541 10.500000  0.05   80.16 
HKLF 4                                                                          
END  
