TITL 1230 in P6(3)mc 
CELL 0.71073  12.4770  12.4770   4.8820  90.000  90.000 120.000 
ZERR    8.00   0.0018   0.0018   0.0010   0.000   0.000   0.000 
LATT -1 
SYMM -Y, X-Y, Z 
SYMM -X+Y, -X, Z 
SYMM -X, -Y, 0.5+Z 
SYMM Y, -X+Y, 0.5+Z 
SYMM X-Y, X, 0.5+Z 
SYMM -Y, -X, Z 
SYMM -X+Y, Y, Z 
SYMM X, X-Y, Z 
SYMM Y, X, 0.5+Z 
SYMM X-Y, -Y, 0.5+Z 
SYMM -X, -X+Y, 0.5+Z 
SFAC O H V CO 
UNIT 8 8 8 8 
 
L.S. 4 
BOND 
FMAP 2 
PLAN 20 
 
MOLE   1 
CO1   4  0.7083  0.8542  0.4893 10.500000  0.05 
V2    3  0.5732  0.6497  0.0041 11.000000  0.05 
V3    3  0.3333  0.6667 -0.2307 10.166667  0.05 
V4    3  0.3333  0.6667 -0.4404 10.166667  0.05 
V5    3  0.8565  0.9282  0.6416 10.500000  0.05 
V6    3  1.0000  1.0000  0.2099 10.166667  0.05 
V7    3  1.0000  1.0000  1.0389 10.166667  0.05 
V8    3  0.4011  0.5989  0.1230 10.500000  0.05 
Q1    1  0.3988  0.6012 -0.4903 10.500000  0.05  133.01 
Q2    1  0.6140  0.8070  0.2521 10.500000  0.05  119.31 
Q3    1  0.6131  0.8066  0.7638 10.500000  0.05  108.36 
Q4    1  0.4841  0.5159  0.0069 10.500000  0.05  104.04 
Q5    1  0.4709  0.5291  0.3157 10.500000  0.05   84.77 
Q6    1  0.5438  0.4562  0.0101 10.500000  0.05   82.64 
Q7    1  0.6306  0.9283  0.7333 11.000000  0.05   71.28 
Q8    1  0.8931  0.7862  0.4916 10.500000  0.05   70.06 
MOLE   2 
HKLF 4                                                                          
END  
