TITL 1230 in P6(3)mc 
CELL 0.71073  12.4770  12.4770   4.8820  90.000  90.000 120.000 
ZERR    8.00   0.0018   0.0018   0.0010   0.000   0.000   0.000 
LATT -1 
SYMM -Y, X-Y, Z 
SYMM -X+Y, -X, Z 
SYMM -X, -Y, 0.5+Z 
SYMM Y, -X+Y, 0.5+Z 
SYMM X-Y, X, 0.5+Z 
SYMM -Y, -X, Z 
SYMM -X+Y, Y, Z 
SYMM X, X-Y, Z 
SYMM Y, X, 0.5+Z 
SYMM X-Y, -Y, 0.5+Z 
SYMM -X, -X+Y, 0.5+Z 
SFAC O H V CO 
UNIT 8 8 8 8 
 
L.S. 4 
BOND 
FMAP 2 
PLAN 20 
 
MOLE   1 
CO1   4  0.6667  0.3333  0.3749 10.166667  0.05 
MOLE   2 
Q1    1  0.4120  0.5880  0.3695 10.500000  0.05  239.30 
Q3    1  0.4781  0.5219  0.3715 10.500000  0.05  184.97 
Q4    1  0.1944  0.3888  1.0127 10.500000  0.05  148.66 
Q5    1  0.2890  0.3517  0.4919 11.000000  0.05  112.22 
Q6    1  0.3371  0.4234  0.6158 11.000000  0.05   99.84 
Q7    1  0.3018  0.4433  0.4209 11.000000  0.05   98.54 
Q8    1  0.2956  0.3974  0.8672 11.000000  0.05   98.37 
MOLE   3 
Q2    1  0.9165  0.0835  0.3692 10.500000  0.05  194.17 
HKLF 4                                                                          
END  
