TITL 1230 in P6(3)mc 
CELL 0.71073  12.4770  12.4770   4.8820  90.000  90.000 120.000 
ZERR    8.00   0.0018   0.0018   0.0010   0.000   0.000   0.000 
LATT -1 
SYMM -Y, X-Y, Z 
SYMM -X+Y, -X, Z 
SYMM -X, -Y, 0.5+Z 
SYMM Y, -X+Y, 0.5+Z 
SYMM X-Y, X, 0.5+Z 
SYMM -Y, -X, Z 
SYMM -X+Y, Y, Z 
SYMM X, X-Y, Z 
SYMM Y, X, 0.5+Z 
SYMM X-Y, -Y, 0.5+Z 
SYMM -X, -X+Y, 0.5+Z 
SFAC O H V CO 
UNIT 8 8 8 8 
 
L.S. 4 
BOND 
FMAP 2 
PLAN 20 
 
MOLE   1 
CO1   4  1.0000  1.0000  0.1420 10.166667  0.05 
V2    3  1.3049  1.1525  0.0605 10.500000  0.05 
V3    3  1.4247  1.3471 -0.4565 11.000000  0.05 
V4    3  1.3333  1.6667 -0.3125 10.166667  0.05 
Q1    1  1.3839  1.1919 -0.2098 10.500000  0.05  112.22 
Q2    1  1.1423  1.0711  0.1094 10.500000  0.05  109.70 
Q3    1  1.4683  1.5316 -0.5800 10.500000  0.05   98.43 
Q4    1  1.5104  1.4896 -0.4569 10.500000  0.05   92.06 
Q5    1  1.3989  1.6011 -0.4587 10.500000  0.05   77.83 
Q6    1  1.6036  1.3964 -0.2682 10.500000  0.05   75.56 
Q7    1  1.3333  1.6667 -0.7317 10.166667  0.05   69.79 
Q8    1  1.3665  1.6667 -0.5773 10.333333  0.05   68.13 
MOLE   2 
HKLF 4                                                                          
END  
