TITL 1230 in P6(3)mc 
CELL 0.71073  12.4770  12.4770   4.8820  90.000  90.000 120.000 
ZERR    8.00   0.0018   0.0018   0.0010   0.000   0.000   0.000 
LATT -1 
SYMM -Y, X-Y, Z 
SYMM -X+Y, -X, Z 
SYMM -X, -Y, 0.5+Z 
SYMM Y, -X+Y, 0.5+Z 
SYMM X-Y, X, 0.5+Z 
SYMM -Y, -X, Z 
SYMM -X+Y, Y, Z 
SYMM X, X-Y, Z 
SYMM Y, X, 0.5+Z 
SYMM X-Y, -Y, 0.5+Z 
SYMM -X, -X+Y, 0.5+Z 
SFAC O H V CO 
UNIT 8 8 8 8 
 
L.S. 4 
BOND 
FMAP 2 
PLAN 20 
 
MOLE   1 
CO1   4  0.3059  0.1529  0.4920 10.500000  0.05 
V2    3  0.4257  0.3486  1.0046 11.000000  0.05 
V3    3  0.6667  0.3333  1.7355 10.166667  0.05 
V4    3  0.0000  0.0000  0.6946 10.166667  0.05 
Q1    1  0.3864  0.1932  0.7561 10.500000  0.05  122.57 
Q2    1  0.3822  0.1911  0.2448 10.500000  0.05  121.89 
Q3    1  0.1364  0.0682  0.6696 10.500000  0.05  118.18 
Q4    1  0.6010  0.3990  1.4984 10.500000  0.05  115.19 
Q5    1  0.5275  0.4725  1.3318 10.500000  0.05   99.46 
Q6    1  0.5121  0.4879  0.9974 10.500000  0.05   85.96 
Q7    1  0.2135  0.1068  0.9989 10.500000  0.05   81.81 
Q8    1  0.6667  0.3333  1.3146 10.166667  0.05   74.59 
MOLE   2 
HKLF 4                                                                          
END  
