TITL 1230 in P6(3)mc 
CELL 0.71073  12.4770  12.4770   4.8820  90.000  90.000 120.000 
ZERR    8.00   0.0018   0.0018   0.0010   0.000   0.000   0.000 
LATT -1 
SYMM -Y, X-Y, Z 
SYMM -X+Y, -X, Z 
SYMM -X, -Y, 0.5+Z 
SYMM Y, -X+Y, 0.5+Z 
SYMM X-Y, X, 0.5+Z 
SYMM -Y, -X, Z 
SYMM -X+Y, Y, Z 
SYMM X, X-Y, Z 
SYMM Y, X, 0.5+Z 
SYMM X-Y, -Y, 0.5+Z 
SYMM -X, -X+Y, 0.5+Z 
SFAC O H V CO 
UNIT 8 8 8 8 
 
L.S. 4 
BOND 
FMAP 2 
PLAN 20 
 
MOLE   1 
CO1   4  0.6667  0.3333  0.2314 10.166667  0.05 
MOLE   2 
Q1    1  0.4120  0.5880  0.2308 10.500000  0.05  252.33 
Q3    1  0.4789  0.5211  0.2306 10.500000  0.05  197.89 
MOLE   3 
Q2    1  0.9188  0.0812  0.2218 10.500000  0.05  221.76 
Q4    1  0.8069  0.1931  0.0314 10.500000  0.05  148.76 
Q5    1  0.8204  0.1796 -0.2608 10.500000  0.05  100.35 
Q6    1  0.7027  0.1060  0.2331 11.000000  0.05   98.80 
Q7    1  0.6665  0.0889  0.5042 11.000000  0.05   88.16 
Q8    1  0.7548  0.0256  0.2278 11.000000  0.05   85.13 
MOLE   4 
HKLF 4                                                                          
END  
