TITL 1230 in P6(3)mc 
CELL 0.71073  12.4770  12.4770   4.8820  90.000  90.000 120.000 
ZERR    8.00   0.0018   0.0018   0.0010   0.000   0.000   0.000 
LATT -1 
SYMM -Y, X-Y, Z 
SYMM -X+Y, -X, Z 
SYMM -X, -Y, 0.5+Z 
SYMM Y, -X+Y, 0.5+Z 
SYMM X-Y, X, 0.5+Z 
SYMM -Y, -X, Z 
SYMM -X+Y, Y, Z 
SYMM X, X-Y, Z 
SYMM Y, X, 0.5+Z 
SYMM X-Y, -Y, 0.5+Z 
SYMM -X, -X+Y, 0.5+Z 
SFAC O H V CO 
UNIT 8 8 8 8 
 
L.S. 4 
BOND 
FMAP 2 
PLAN 20 
 
MOLE   1 
CO1   4  0.6667  0.3333  0.3758 10.166667  0.05 
V2    3  0.5856  0.4144 -0.1207 10.500000  0.05 
MOLE   2 
Q1    1  0.9191  0.0809  0.3756 10.500000  0.05  209.31 
Q2    1  0.8069  0.1931  0.1824 10.500000  0.05  149.07 
Q4    1  0.8656  0.1344 -0.2882 10.500000  0.05  131.96 
Q5    1  0.7114  0.1031  0.3796 11.000000  0.05  105.16 
Q6    1  0.8141  0.1859 -0.1082 10.500000  0.05  102.05 
Q7    1  0.7554  0.0247  0.3733 11.000000  0.05   91.39 
Q8    1  0.7665  0.0945 -0.1219 11.000000  0.05   89.65 
MOLE   3 
Q3    1  0.0000  0.0000  0.1193 10.166667  0.05  141.73 
HKLF 4                                                                          
END  
