TITL 1230 in P6(3)mc 
CELL 0.71073  12.4770  12.4770   4.8820  90.000  90.000 120.000 
ZERR    8.00   0.0018   0.0018   0.0010   0.000   0.000   0.000 
LATT -1 
SYMM -Y, X-Y, Z 
SYMM -X+Y, -X, Z 
SYMM -X, -Y, 0.5+Z 
SYMM Y, -X+Y, 0.5+Z 
SYMM X-Y, X, 0.5+Z 
SYMM -Y, -X, Z 
SYMM -X+Y, Y, Z 
SYMM X, X-Y, Z 
SYMM Y, X, 0.5+Z 
SYMM X-Y, -Y, 0.5+Z 
SYMM -X, -X+Y, 0.5+Z 
SFAC O H V CO 
UNIT 8 8 8 8 
 
L.S. 4 
BOND 
FMAP 2 
PLAN 20 
 
MOLE   1 
CO1   4  0.3333  0.6667  0.1305 10.166667  0.05 
CO2   4  0.1472  0.8528  0.3388 10.500000  0.05 
CO3   4  0.0776  0.6545 -0.1562 11.000000  0.05 
V4    3  0.0000  1.0000  0.1152 10.166667  0.05 
V5    3  0.0000  1.0000  0.3065 10.166667  0.05 
Q1    1  0.1978  0.5989 -0.3068 10.500000  0.05  109.56 
Q2    1  0.0670  0.9330  0.2680 10.500000  0.05  108.34 
Q3    1  0.1967  0.8033  0.0866 10.500000  0.05   95.39 
Q4    1  0.2722  0.9439  0.6628 11.000000  0.05   85.99 
Q5    1 -0.1063  0.7874  0.3539 10.500000  0.05   81.76 
Q6    1  0.1919  0.8081  0.6347 10.500000  0.05   70.28 
Q7    1  0.2022  0.6909 -0.1469 11.000000  0.05   63.11 
Q8    1  0.0665  0.5332  0.1888 10.500000  0.05   61.57 
MOLE   2 
HKLF 4                                                                          
END  
