TITL 1230 in P6(3)mc 
CELL 0.71073  12.4770  12.4770   4.8820  90.000  90.000 120.000 
ZERR    8.00   0.0018   0.0018   0.0010   0.000   0.000   0.000 
LATT -1 
SYMM -Y, X-Y, Z 
SYMM -X+Y, -X, Z 
SYMM -X, -Y, 0.5+Z 
SYMM Y, -X+Y, 0.5+Z 
SYMM X-Y, X, 0.5+Z 
SYMM -Y, -X, Z 
SYMM -X+Y, Y, Z 
SYMM X, X-Y, Z 
SYMM Y, X, 0.5+Z 
SYMM X-Y, -Y, 0.5+Z 
SYMM -X, -X+Y, 0.5+Z 
SFAC O H V CO 
UNIT 8 8 8 8 
 
L.S. 4 
BOND 
FMAP 2 
PLAN 20 
 
MOLE   1 
CO1   4  0.6667  0.3333  0.1903 10.166667  0.05 
MOLE   2 
Q1    1  0.4779  0.5221  0.1948 10.500000  0.05  207.73 
Q2    1  0.4142  0.5858  0.1887 10.500000  0.05  206.41 
Q6    1  0.3333  0.6667  0.1918 10.166667  0.05  104.98 
Q8    1  0.4537  0.5463  0.4419 10.500000  0.05   86.94 
MOLE   3 
Q3    1  0.9170  0.0830  0.1816 10.500000  0.05  166.71 
MOLE   4 
Q4    1  0.1904  0.8096  0.4675 10.500000  0.05  160.77 
Q5    1  0.0292  0.7504  0.6904 11.000000  0.05  116.16 
Q7    1  0.1753  0.8247  0.6703 10.500000  0.05  101.75 
MOLE   5 
HKLF 4                                                                          
END  
