TITL 1230 in P6(3)mc 
CELL 0.71073  12.4770  12.4770   4.8820  90.000  90.000 120.000 
ZERR    8.00   0.0018   0.0018   0.0010   0.000   0.000   0.000 
LATT -1 
SYMM -Y, X-Y, Z 
SYMM -X+Y, -X, Z 
SYMM -X, -Y, 0.5+Z 
SYMM Y, -X+Y, 0.5+Z 
SYMM X-Y, X, 0.5+Z 
SYMM -Y, -X, Z 
SYMM -X+Y, Y, Z 
SYMM X, X-Y, Z 
SYMM Y, X, 0.5+Z 
SYMM X-Y, -Y, 0.5+Z 
SYMM -X, -X+Y, 0.5+Z 
SFAC O H V CO 
UNIT 8 8 8 8 
 
L.S. 4 
BOND 
FMAP 2 
PLAN 20 
 
MOLE   1 
CO1   4  0.3333  0.6667  0.2454 10.166667  0.05 
MOLE   2 
Q1    1  0.5230  0.4770  0.2367 10.500000  0.05  231.13 
Q2    1  0.5877  0.4123  0.2370 10.500000  0.05  213.51 
Q8    1  0.4299  0.3167  0.2395 11.000000  0.05   89.51 
MOLE   3 
Q3    1  0.0847  0.9153  0.2166 10.500000  0.05  198.42 
Q4    1  0.1930  0.8070  0.0192 10.500000  0.05  133.18 
Q5    1  0.1852  0.8148  0.2248 10.500000  0.05  106.06 
Q7    1  0.2439  0.9739  0.2349 11.000000  0.05  103.74 
MOLE   4 
Q6    1  1.0000  1.0000 -0.0207 10.166667  0.05  104.12 
HKLF 4                                                                          
END  
