TITL 1230 in P6(3)mc 
CELL 0.71073  12.4770  12.4770   4.8820  90.000  90.000 120.000 
ZERR    8.00   0.0018   0.0018   0.0010   0.000   0.000   0.000 
LATT -1 
SYMM -Y, X-Y, Z 
SYMM -X+Y, -X, Z 
SYMM -X, -Y, 0.5+Z 
SYMM Y, -X+Y, 0.5+Z 
SYMM X-Y, X, 0.5+Z 
SYMM -Y, -X, Z 
SYMM -X+Y, Y, Z 
SYMM X, X-Y, Z 
SYMM Y, X, 0.5+Z 
SYMM X-Y, -Y, 0.5+Z 
SYMM -X, -X+Y, 0.5+Z 
SFAC O H V CO 
UNIT 8 8 8 8 
 
L.S. 4 
BOND 
FMAP 2 
PLAN 20 
 
MOLE   1 
CO1   4  0.3333  0.6667  0.2154 10.166667  0.05 
MOLE   2 
Q1    1  0.5885  0.4115  0.2132 10.500000  0.05  250.05 
Q3    1  0.5212  0.4788  0.2094 10.500000  0.05  189.92 
MOLE   3 
Q2    1  0.0810  0.9190  0.2242 10.500000  0.05  226.88 
MOLE   4 
Q4    1  0.1924  0.3849  0.4005 10.500000  0.05  147.36 
Q6    1  0.1065  0.4034  0.2154 11.000000  0.05   97.18 
Q7    1  0.1802  0.3604  0.7021 10.500000  0.05   93.78 
Q8    1  0.0886  0.4232 -0.0586 11.000000  0.05   86.37 
MOLE   5 
Q5    1  1.0000  1.0000  0.4757 10.166667  0.05   98.91 
HKLF 4                                                                          
END  
