TITL 1230 in P6(3)mc 
CELL 0.71073  12.4770  12.4770   4.8820  90.000  90.000 120.000 
ZERR    8.00   0.0018   0.0018   0.0010   0.000   0.000   0.000 
LATT -1 
SYMM -Y, X-Y, Z 
SYMM -X+Y, -X, Z 
SYMM -X, -Y, 0.5+Z 
SYMM Y, -X+Y, 0.5+Z 
SYMM X-Y, X, 0.5+Z 
SYMM -Y, -X, Z 
SYMM -X+Y, Y, Z 
SYMM X, X-Y, Z 
SYMM Y, X, 0.5+Z 
SYMM X-Y, -Y, 0.5+Z 
SYMM -X, -X+Y, 0.5+Z 
SFAC O H V CO 
UNIT 8 8 8 8 
 
L.S. 4 
BOND 
FMAP 2 
PLAN 20 
 
MOLE   1 
CO1   4  0.6667  0.3333  0.4945 10.166667  0.05 
Q6    1  0.5414  0.2707  0.4910 10.500000  0.05  118.39 
MOLE   2 
Q1    1  0.5892  0.4108 -0.0095 10.500000  0.05  239.54 
Q3    1  0.5224  0.4776 -0.0105 10.500000  0.05  194.37 
MOLE   3 
Q2    1  0.0865  0.9135 -0.0132 10.500000  0.05  210.12 
Q4    1  0.1917  0.8083 -0.1907 10.500000  0.05  146.08 
Q7    1  0.1037  0.6935 -0.0037 11.000000  0.05  103.35 
Q8    1  0.0236  0.7556 -0.0116 11.000000  0.05   97.30 
MOLE   4 
Q5    1  1.0000  1.0000  0.2386 10.166667  0.05  136.20 
HKLF 4                                                                          
END  
