TITL 1230 in P6(3)mc 
CELL 0.71073  12.4770  12.4770   4.8820  90.000  90.000 120.000 
ZERR    8.00   0.0018   0.0018   0.0010   0.000   0.000   0.000 
LATT -1 
SYMM -Y, X-Y, Z 
SYMM -X+Y, -X, Z 
SYMM -X, -Y, 0.5+Z 
SYMM Y, -X+Y, 0.5+Z 
SYMM X-Y, X, 0.5+Z 
SYMM -Y, -X, Z 
SYMM -X+Y, Y, Z 
SYMM X, X-Y, Z 
SYMM Y, X, 0.5+Z 
SYMM X-Y, -Y, 0.5+Z 
SYMM -X, -X+Y, 0.5+Z 
SFAC O H V CO 
UNIT 8 8 8 8 
 
L.S. 4 
BOND 
FMAP 2 
PLAN 20 
 
MOLE   1 
CO1   4  0.6667  0.3333  0.2722 10.166667  0.05 
Q4    1  0.7296  0.4593  0.2641 10.500000  0.05  145.09 
MOLE   2 
Q1    1  0.4125  0.5875  0.2703 10.500000  0.05  241.89 
Q2    1  0.4770  0.5230  0.2680 10.500000  0.05  215.94 
MOLE   3 
Q3    1  0.9146  0.0854  0.2716 10.500000  0.05  210.58 
Q5    1  0.8057  0.1943  0.0110 10.500000  0.05  130.29 
Q6    1  0.9705  0.2488  0.2737 11.000000  0.05  106.01 
Q7    1  0.8193  0.1807  0.2580 10.500000  0.05  100.20 
Q8    1  0.8972  0.3015  0.2841 11.000000  0.05   96.11 
MOLE   4 
HKLF 4                                                                          
END  
