TITL 1230 in P6(3)mc 
CELL 0.71073  12.4770  12.4770   4.8820  90.000  90.000 120.000 
ZERR    8.00   0.0018   0.0018   0.0010   0.000   0.000   0.000 
LATT -1 
SYMM -Y, X-Y, Z 
SYMM -X+Y, -X, Z 
SYMM -X, -Y, 0.5+Z 
SYMM Y, -X+Y, 0.5+Z 
SYMM X-Y, X, 0.5+Z 
SYMM -Y, -X, Z 
SYMM -X+Y, Y, Z 
SYMM X, X-Y, Z 
SYMM Y, X, 0.5+Z 
SYMM X-Y, -Y, 0.5+Z 
SYMM -X, -X+Y, 0.5+Z 
SFAC O H V CO 
UNIT 8 8 8 8 
 
L.S. 4 
BOND 
FMAP 2 
PLAN 20 
 
MOLE   1 
CO1   4  0.3333  0.6667  0.0741 10.166667  0.05 
MOLE   2 
Q1    1  0.5876  0.4124  0.0775 10.500000  0.05  256.98 
Q3    1  0.5227  0.4773  0.0790 10.500000  0.05  192.31 
MOLE   3 
Q2    1  0.0863  0.9137  0.0849 10.500000  0.05  208.47 
Q4    1  0.1942  0.8058  0.2653 10.500000  0.05  127.57 
Q5    1  0.0976  0.6941  0.0703 11.000000  0.05  121.97 
Q6    1  0.1782  0.8218  0.5688 10.500000  0.05  114.04 
Q7    1  0.0845  0.6577 -0.1922 11.000000  0.05  108.01 
Q8    1  0.0219  0.7628  0.0765 11.000000  0.05  104.27 
MOLE   4 
HKLF 4                                                                          
END  
