TITL 1230 in P6(3)mc 
CELL 0.71073  12.4770  12.4770   4.8820  90.000  90.000 120.000 
ZERR    8.00   0.0018   0.0018   0.0010   0.000   0.000   0.000 
LATT -1 
SYMM -Y, X-Y, Z 
SYMM -X+Y, -X, Z 
SYMM -X, -Y, 0.5+Z 
SYMM Y, -X+Y, 0.5+Z 
SYMM X-Y, X, 0.5+Z 
SYMM -Y, -X, Z 
SYMM -X+Y, Y, Z 
SYMM X, X-Y, Z 
SYMM Y, X, 0.5+Z 
SYMM X-Y, -Y, 0.5+Z 
SYMM -X, -X+Y, 0.5+Z 
SFAC O H V CO 
UNIT 8 8 8 8 
 
L.S. 4 
BOND 
FMAP 2 
PLAN 20 
 
MOLE   1 
CO1   4  0.1534  0.3068  0.1456 10.500000  0.05 
CO2   4  0.0000  0.0000  0.1335 10.166667  0.05 
V3    3  0.0765  0.4274 -0.3439 11.000000  0.05 
V4    3  0.3333  0.6667 -0.8926 10.166667  0.05 
Q1    1  0.0655  0.1311  0.1156 10.500000  0.05  119.79 
Q2    1  0.2043  0.6022 -0.8168 10.500000  0.05   98.11 
Q3    1  0.1950  0.3900 -0.1040 10.500000  0.05   92.93 
Q4    1  0.0685  0.5343 -0.7224 10.500000  0.05   90.52 
Q5    1  0.0151  0.2109  0.1351 11.000000  0.05   88.22 
Q6    1  0.0679  0.1357  0.3614 10.500000  0.05   71.67 
Q7    1  0.2056  0.5116 -0.3644 11.000000  0.05   71.53 
Q8    1  0.2058  0.6029 -0.4788 10.500000  0.05   70.33 
MOLE   2 
HKLF 4                                                                          
END  
