TITL 1230 in P6(3)mc 
CELL 0.71073  12.4770  12.4770   4.8820  90.000  90.000 120.000 
ZERR    8.00   0.0018   0.0018   0.0010   0.000   0.000   0.000 
LATT -1 
SYMM -Y, X-Y, Z 
SYMM -X+Y, -X, Z 
SYMM -X, -Y, 0.5+Z 
SYMM Y, -X+Y, 0.5+Z 
SYMM X-Y, X, 0.5+Z 
SYMM -Y, -X, Z 
SYMM -X+Y, Y, Z 
SYMM X, X-Y, Z 
SYMM Y, X, 0.5+Z 
SYMM X-Y, -Y, 0.5+Z 
SYMM -X, -X+Y, 0.5+Z 
SFAC O H V CO 
UNIT 8 8 8 8 
 
L.S. 4 
BOND 
FMAP 2 
PLAN 20 
 
MOLE   1 
CO1   4  0.8458  0.6916  0.4165 10.500000  0.05 
CO2   4  0.6667  0.3333  1.5766 10.166667  0.05 
CO3   4  0.9230  0.5756  0.8851 11.000000  0.05 
V4    3  1.0000  1.0000  0.5757 10.166667  0.05 
V5    3  0.6667  0.3333  1.0858 10.166667  0.05 
Q1    1  0.9267  0.8534  0.4701 10.500000  0.05  117.66 
Q2    1  0.8037  0.4019  1.0495 10.500000  0.05  102.61 
Q4    1  0.8065  0.6130  0.6633 10.500000  0.05   95.42 
Q5    1  0.8097  0.6194  0.1570 10.500000  0.05   94.71 
Q6    1  0.9394  0.8788  0.2395 10.500000  0.05   82.96 
Q7    1  0.9707  0.4853  0.9048 10.500000  0.05   72.43 
Q8    1  0.6933  0.2023  1.8635 11.000000  0.05   70.95 
MOLE   2 
Q3    1  0.1080  0.8920  0.4072 10.500000  0.05   97.97 
HKLF 4                                                                          
END  
