TITL 1230 in P6(3)mc 
CELL 0.71073  12.4770  12.4770   4.8820  90.000  90.000 120.000 
ZERR    8.00   0.0018   0.0018   0.0010   0.000   0.000   0.000 
LATT -1 
SYMM -Y, X-Y, Z 
SYMM -X+Y, -X, Z 
SYMM -X, -Y, 0.5+Z 
SYMM Y, -X+Y, 0.5+Z 
SYMM X-Y, X, 0.5+Z 
SYMM -Y, -X, Z 
SYMM -X+Y, Y, Z 
SYMM X, X-Y, Z 
SYMM Y, X, 0.5+Z 
SYMM X-Y, -Y, 0.5+Z 
SYMM -X, -X+Y, 0.5+Z 
SFAC O H V CO 
UNIT 8 8 8 8 
 
L.S. 4 
BOND 
FMAP 2 
PLAN 20 
 
MOLE   1 
CO1   4  0.7056  0.8528  0.4083 10.500000  0.05 
CO2   4  0.5771  0.9231 -0.0687 11.000000  0.05 
CO3   4  0.3333  0.6667  0.2372 10.166667  0.05 
V4    3  1.0000  1.0000  0.1918 10.166667  0.05 
V5    3  0.3333  0.6667  0.7340 10.166667  0.05 
V6    3  0.4027  0.8054 -0.2296 10.500000  0.05 
Q1    1  0.8645  0.9323  0.3480 10.500000  0.05  107.66 
Q2    1  0.6116  0.8058  0.1356 10.500000  0.05   99.83 
Q4    1  0.4692  0.9383  0.2710 10.500000  0.05   76.06 
Q5    1  0.6498  0.7101  0.6559 11.000000  0.05   74.79 
Q6    1  0.4958  0.7989 -0.0472 11.000000  0.05   69.15 
Q7    1  0.6096  0.8048  0.6366 10.500000  0.05   57.43 
Q8    1  0.4009  0.5991  0.4473 10.500000  0.05   57.25 
MOLE   2 
Q3    1  0.8936  0.1064  0.4118 10.500000  0.05   88.65 
HKLF 4                                                                          
END  
