TITL 1230 in P6(3)mc 
CELL 0.71073  12.4770  12.4770   4.8820  90.000  90.000 120.000 
ZERR    8.00   0.0018   0.0018   0.0010   0.000   0.000   0.000 
LATT -1 
SYMM -Y, X-Y, Z 
SYMM -X+Y, -X, Z 
SYMM -X, -Y, 0.5+Z 
SYMM Y, -X+Y, 0.5+Z 
SYMM X-Y, X, 0.5+Z 
SYMM -Y, -X, Z 
SYMM -X+Y, Y, Z 
SYMM X, X-Y, Z 
SYMM Y, X, 0.5+Z 
SYMM X-Y, -Y, 0.5+Z 
SYMM -X, -X+Y, 0.5+Z 
SFAC O H V CO 
UNIT 8 8 8 8 
 
L.S. 4 
BOND 
FMAP 2 
PLAN 20 
 
MOLE   1 
CO1   4  0.7080  0.8540  0.2020 10.500000  0.05 
CO2   4  0.3945  0.7890 -0.7767 10.500000  0.05 
V3    3  0.5516  0.9044 -0.2856 11.000000  0.05 
V4    3  1.0000  1.0000  0.1818 10.166667  0.05 
Q1    1  0.4838  0.9677 -0.2728 10.500000  0.05  142.20 
Q2    1  0.7793  0.7998  0.1846 11.000000  0.05  132.08 
Q3    1  0.9302  0.8605  0.1756 10.500000  0.05  116.84 
Q4    1  0.6118  0.8059 -0.0154 10.500000  0.05   93.67 
Q5    1  0.6144  0.8072  0.5096 10.500000  0.05   89.49 
Q6    1  0.3333  0.6667 -1.0525 10.166667  0.05   78.49 
Q7    1  0.3333  0.6667 -0.5262 10.166667  0.05   76.89 
Q8    1  0.6823  0.7359  0.2718 11.000000  0.05   73.21 
MOLE   2 
HKLF 4                                                                          
END  
