TITL 1230 in P6(3)mc 
CELL 0.71073  12.4770  12.4770   4.8820  90.000  90.000 120.000 
ZERR    8.00   0.0018   0.0018   0.0010   0.000   0.000   0.000 
LATT -1 
SYMM -Y, X-Y, Z 
SYMM -X+Y, -X, Z 
SYMM -X, -Y, 0.5+Z 
SYMM Y, -X+Y, 0.5+Z 
SYMM X-Y, X, 0.5+Z 
SYMM -Y, -X, Z 
SYMM -X+Y, Y, Z 
SYMM X, X-Y, Z 
SYMM Y, X, 0.5+Z 
SYMM X-Y, -Y, 0.5+Z 
SYMM -X, -X+Y, 0.5+Z 
SFAC O H V CO 
UNIT 8 8 8 8 
 
L.S. 4 
BOND 
FMAP 2 
PLAN 20 
 
MOLE   1 
CO1   4  0.3333  0.6667  0.4442 10.166667  0.05 
CO2   4  0.1965  0.8035  0.0751 10.500000  0.05 
CO3   4  0.1509  0.8491 -0.2265 10.500000  0.05 
CO4   4  0.2959  0.7041  0.2572 10.500000  0.05 
V5    3  0.2514  0.9030 -0.0222 11.000000  0.05 
V6    3  0.0674  0.9326 -0.5097 10.500000  0.05 
V7    3  0.3144  1.0264  0.0246 11.000000  0.05 
V8    3  0.0364  0.6275 -0.0347 11.000000  0.05 
Q1    1  0.4370  0.6455  0.7676 11.000000  0.05  162.07 
Q2    1  0.1458  0.9333  0.2293 11.000000  0.05  142.66 
Q3    1  0.4124  0.8248 -0.0858 10.500000  0.05  135.87 
Q4    1  0.4286  0.8572  0.5245 10.500000  0.05  120.13 
Q5    1  0.1982  0.7023  0.5042 11.000000  0.05  115.91 
Q6    1  0.1073  0.5537  0.0886 10.500000  0.05  109.68 
Q7    1  0.1467  0.6884 -0.3518 11.000000  0.05  103.78 
Q8    1  0.1577  0.8423  0.3077 10.500000  0.05   97.63 
MOLE   2 
HKLF 4                                                                          
END  
