TITL 1230 in P6(3)mc 
CELL 0.71073  12.4770  12.4770   4.8820  90.000  90.000 120.000 
ZERR    8.00   0.0018   0.0018   0.0010   0.000   0.000   0.000 
LATT -1 
SYMM -Y, X-Y, Z 
SYMM -X+Y, -X, Z 
SYMM -X, -Y, 0.5+Z 
SYMM Y, -X+Y, 0.5+Z 
SYMM X-Y, X, 0.5+Z 
SYMM -Y, -X, Z 
SYMM -X+Y, Y, Z 
SYMM X, X-Y, Z 
SYMM Y, X, 0.5+Z 
SYMM X-Y, -Y, 0.5+Z 
SYMM -X, -X+Y, 0.5+Z 
SFAC O H V CO 
UNIT 8 8 8 8 
 
L.S. 4 
BOND 
FMAP 2 
PLAN 20 
 
MOLE   1 
CO1   4  0.6667  0.3333  0.3672 10.166667  0.05 
MOLE   2 
Q1    1  0.4133  0.5867  0.3660 10.500000  0.05  240.26 
Q2    1  0.4793  0.5207  0.3639 10.500000  0.05  211.70 
Q7    1  0.4538  0.5462  0.1070 10.500000  0.05   83.49 
MOLE   3 
Q3    1  0.9161  0.0839  0.3724 10.500000  0.05  201.88 
Q4    1  0.8043  0.1957  0.5730 10.500000  0.05  155.11 
Q5    1  0.9714  0.2484  0.3674 11.000000  0.05  115.11 
Q6    1  0.8918  0.2954  0.3619 11.000000  0.05   96.01 
Q8    1  1.0674  0.3642  0.5073 11.000000  0.05   82.88 
MOLE   4 
HKLF 4                                                                          
END  
