TITL 1230 in P6(3)mc 
CELL 0.71073  12.4770  12.4770   4.8820  90.000  90.000 120.000 
ZERR    8.00   0.0018   0.0018   0.0010   0.000   0.000   0.000 
LATT -1 
SYMM -Y, X-Y, Z 
SYMM -X+Y, -X, Z 
SYMM -X, -Y, 0.5+Z 
SYMM Y, -X+Y, 0.5+Z 
SYMM X-Y, X, 0.5+Z 
SYMM -Y, -X, Z 
SYMM -X+Y, Y, Z 
SYMM X, X-Y, Z 
SYMM Y, X, 0.5+Z 
SYMM X-Y, -Y, 0.5+Z 
SYMM -X, -X+Y, 0.5+Z 
SFAC O H V CO 
UNIT 8 8 8 8 
 
L.S. 4 
BOND 
FMAP 2 
PLAN 20 
 
MOLE   1 
CO1   4  0.3333  0.6667  0.1098 10.166667  0.05 
MOLE   2 
Q1    1  0.5899  0.4101  0.1095 10.500000  0.05  219.42 
Q2    1  0.5227  0.4773  0.1079 10.500000  0.05  218.11 
Q6    1  0.6384  0.4406  0.0023 11.000000  0.05  110.81 
Q8    1  0.4367  0.3027  0.1091 11.000000  0.05  100.08 
MOLE   3 
Q3    1  0.0831  0.9169  0.1211 10.500000  0.05  181.66 
Q7    1  0.0293  0.7750  0.1176 11.000000  0.05  110.81 
MOLE   4 
Q4    1  0.1385  0.8615  0.4462 10.500000  0.05  133.55 
MOLE   5 
Q5    1  0.2016  0.7984  0.1302 10.500000  0.05  119.80 
HKLF 4                                                                          
END  
