TITL 1230 in P6(3)mc 
CELL 0.71073  12.4770  12.4770   4.8820  90.000  90.000 120.000 
ZERR    8.00   0.0018   0.0018   0.0010   0.000   0.000   0.000 
LATT -1 
SYMM -Y, X-Y, Z 
SYMM -X+Y, -X, Z 
SYMM -X, -Y, 0.5+Z 
SYMM Y, -X+Y, 0.5+Z 
SYMM X-Y, X, 0.5+Z 
SYMM -Y, -X, Z 
SYMM -X+Y, Y, Z 
SYMM X, X-Y, Z 
SYMM Y, X, 0.5+Z 
SYMM X-Y, -Y, 0.5+Z 
SYMM -X, -X+Y, 0.5+Z 
SFAC O H V CO 
UNIT 8 8 8 8 
 
L.S. 4 
BOND 
FMAP 2 
PLAN 20 
 
MOLE   1 
CO1   4  0.7061  0.8531  0.2154 10.500000  0.05 
V2    3  0.5742  0.9183  0.7103 11.000000  0.05 
V3    3  1.0000  1.0000  0.5207 10.166667  0.05 
V4    3  0.6667  1.3333  0.6100 10.166667  0.05 
Q1    1  0.6003  1.2005  0.6923 10.500000  0.05  120.85 
Q2    1  0.5353  1.0706  0.6325 10.500000  0.05  118.32 
Q3    1  0.6114  0.8057  0.4653 10.500000  0.05  107.33 
Q4    1  0.6164  0.8082 -0.0296 10.500000  0.05  105.45 
Q5    1  0.4731  0.9462  0.3668 10.500000  0.05   97.90 
Q6    1  0.3955  0.7909  0.5694 10.500000  0.05   94.47 
Q7    1  0.8560  0.9280  0.2051 10.500000  0.05   87.56 
Q8    1  0.3883  0.7767  0.8798 10.500000  0.05   78.06 
MOLE   2 
HKLF 4                                                                          
END  
