TITL shelx in Pbm2 
CELL 0.71073   3.6400  11.8470  35.8000  90.000  90.000  90.000 
ZERR   31.00   0.0007   0.0024   0.0072   0.000   0.000   0.000 
LATT -1 
SYMM -X, -Y, Z 
SYMM -X, 0.5+Y, Z 
SYMM X, 0.5-Y, Z 
SFAC C H N O 
UNIT 31 31 31 31 
 
L.S. 4 
BOND 
FMAP 2 
PLAN 20 
 
MOLE   1 
Q1    1  0.1030  0.2500  0.6173 10.500000  0.05  326.22 
MOLE   2 
Q2    1  0.2847  0.2500  0.4725 10.500000  0.05  285.37 
Q4    1  0.6707  0.2500  0.4605 10.500000  0.05  210.50 
MOLE   3 
Q3    1  0.2207  0.2500  0.5502 10.500000  0.05  283.02 
Q5    1  0.3459  0.4109  0.5865 11.000000  0.05  186.54 
Q6    1  0.0569  0.3712  0.5497 11.000000  0.05  182.77 
Q8    1  0.0970  0.4084  0.5102 11.000000  0.05  161.29 
Q12   1 -0.1652  0.2500  0.5571 10.500000  0.05  133.99 
Q13   1  0.0000  0.5000  0.4800 10.500000  0.05  132.63 
Q16   1 -0.5000  0.5000  0.4684 10.500000  0.05  122.01 
MOLE   4 
Q7    1  0.2784  0.4111  0.6450 11.000000  0.05  173.24 
MOLE   5 
Q9    1  0.4712  0.2500  0.7303 10.500000  0.05  150.21 
Q10   1  1.0967  0.2500  0.8472 10.500000  0.05  143.39 
Q15   1  0.7487  0.3086  0.8577 11.000000  0.05  126.30 
Q18   1  0.7286  0.3625  0.7513 11.000000  0.05  106.70 
Q21   1  0.7377  0.3257  0.7811 11.000000  0.05   98.93 
Q25   1  0.7357  0.2500  0.8263 10.500000  0.05   90.16 
MOLE   6 
Q11   1  0.1917  0.2500  0.4137 10.500000  0.05  139.16 
Q20   1 -0.5564  0.4502  0.4081 11.000000  0.05  100.12 
Q29   1 -0.1777  0.2500  0.3721 10.500000  0.05   84.25 
Q31   1 -0.2493  0.3468  0.4018 11.000000  0.05   83.23 
MOLE   7 
Q14   1  0.3206  0.6877  0.2366 11.000000  0.05  130.80 
MOLE   8 
Q17   1  0.3705  0.6911  0.1017 11.000000  0.05  109.14 
Q22   1  0.3170  0.6993  0.1722 11.000000  0.05   93.61 
Q26   1  0.2267  0.6540  0.1410 11.000000  0.05   87.59 
MOLE   9 
Q19   1  0.1505  0.5239  0.0131 11.000000  0.05  106.12 
Q27   1  0.2739  0.6550  0.0123 11.000000  0.05   87.05 
MOLE  10 
Q23   1  0.2869  0.6971  0.3069 11.000000  0.05   93.26 
MOLE  11 
Q24   1  0.2190  0.4198  0.7151 11.000000  0.05   92.90 
MOLE  12 
Q28   1  0.2463  0.6927  0.9239 11.000000  0.05   85.71 
MOLE  13 
Q30   1  0.4199  0.4480  0.8496 11.000000  0.05   84.22 
MOLE  14 
Q32   1  0.2376  0.4864  0.1124 11.000000  0.05   76.82 
HKLF 4                                                                          
END  
