TITL 1230_expF_1_5_expS_0_6_1230_c.res in P-62c
REM Old TITL 1230 in P6(3)mc
REM SHELXT solution in P-62c: R1 0.342, Rweak 0.042, Alpha 0.247
REM <I/s>   0.000 for    0 systematic absences,  Orientation as input
REM Flack x = -1.178 ( 0.895 ) from   136 Parsons' quotients
REM Formula found by SHELXT:  O34 V9

CELL  0.71073  12.4770  12.4770   4.8820   90.000   90.000  120.000
ZERR    8.000   0.0018   0.0018   0.0010    0.000    0.000    0.000
LATT -1
SYMM -Y, X-Y, Z
SYMM -X+Y, -X, Z
SYMM X, Y, 1/2-Z
SYMM -Y, X-Y, 1/2-Z
SYMM -X+Y, -X, 1/2-Z
SYMM Y, X, -Z
SYMM X-Y, -Y, -Z
SYMM -X, -X+Y, -Z
SYMM Y, X, 1/2+Z
SYMM X-Y, -Y, 1/2+Z
SYMM -X, -X+Y, 1/2+Z
SFAC O H V CO
UNIT 8 8 8 8
L.S. 10
BOND
LIST 6
FMAP 2
PLAN 20
V001  3 -0.06615  0.58511  0.25000 10.50000  0.04651  22.79
V002  3  0.13651  0.83983  0.25000 10.50000  0.04752  21.86
V003  3  0.34959  0.92166  0.75000 10.50000  0.05009  21.75
O004  1  0.00000  1.00000  0.50000 10.16667  0.00010  12.52
O005  1  0.33334  0.66667  0.25001 10.16667  0.10944  11.88
O006  1  0.33334  0.66667  0.75000 10.16667  0.11903   9.97
O007  1  0.39455  0.80159  0.61743 11.00000  0.05439   8.13
O008  1  0.18679  0.81114  0.53368 11.00000  0.06951   6.96
O009  1  0.46182  0.92398  0.39902 11.00000  0.05059   6.52
O00A  1  0.06626  0.73997  0.35974 11.00000  0.03925   6.20
O00B  1  0.00000  1.00000  0.25000 10.16667  0.04689   5.88
O00C  1  0.08379  0.94382  0.32465 11.00000  0.10817   5.47
HKLF 4
END
