TITL 1230_expF_1_3_expS_1_0_1230_c.res in P-62c
REM Old TITL 1230 in P6(3)mc
REM SHELXT solution in P-62c: R1 0.254, Rweak 0.077, Alpha 0.235
REM <I/s>   0.000 for    0 systematic absences,  Orientation as input
REM Flack x =  0.098 ( 0.313 ) from   106 Parsons' quotients
REM Formula found by SHELXT:  O46 V6 Co3

CELL  0.71073  12.4770  12.4770   4.8820   90.000   90.000  120.000
ZERR    8.000   0.0018   0.0018   0.0010    0.000    0.000    0.000
LATT -1
SYMM -Y, X-Y, Z
SYMM -X+Y, -X, Z
SYMM X, Y, 1/2-Z
SYMM -Y, X-Y, 1/2-Z
SYMM -X+Y, -X, 1/2-Z
SYMM Y, X, -Z
SYMM X-Y, -Y, -Z
SYMM -X, -X+Y, -Z
SYMM Y, X, 1/2+Z
SYMM X-Y, -Y, 1/2+Z
SYMM -X, -X+Y, 1/2+Z
SFAC O H V CO
UNIT 8 8 8 8
L.S. 10
BOND
LIST 6
FMAP 2
PLAN 20
CO01  4  0.35362  0.91878  0.25000 10.50000  0.04946  28.71
V002  3  0.70560  0.86128  0.75000 10.50000  0.02327  23.22
V003  3  0.58376  0.92816  0.25000 10.50000  0.03670  18.76
O004  1  0.99999  1.00000  1.00000 10.16667  0.00010  14.85
O005  1  0.33332  0.66667 -0.01006 10.33333  0.02863  12.49
O006  1  0.33332  0.66667  0.25000 10.16667  0.04890   9.02
O007  1  0.53962  1.06533  0.40198 11.00000  0.02355   7.50
O008  1  0.64560  0.90452  0.54042 11.00000  0.05028   7.34
O009  1  0.84070  0.93206  0.75000 10.50000  0.06081   7.28
O00A  1  0.37053  0.80531  0.14632 11.00000  0.07685   6.80
O00B  1  0.49987  1.08734  0.25000 10.50000  0.00650   6.60
O00C  1  0.67717  0.72600  0.55682 11.00000  0.03157   6.55
O00D  1  0.48784  0.97819  0.25000 10.50000  0.02081   6.45
O00E  1  0.56892  0.82273  0.75000 10.50000  0.05804   6.38
O00F  1  0.62732  0.80936  0.43600 11.00000  0.04848   6.18
HKLF 4
END
