TITL 1230_expF_1_4_expS_1_2_1230_b.res in P-6m2
REM Old TITL 1230 in P6(3)mc
REM SHELXT solution in P-6m2: R1 0.255, Rweak 0.038, Alpha 0.191
REM <I/s>   0.000 for    0 systematic absences,  Orientation as input
REM Flack x =  0.378 ( 0.292 ) from    91 Parsons' quotients
REM Formula found by SHELXT:  O47 V17 Co3

CELL  0.71073  12.4770  12.4770   4.8820   90.000   90.000  120.000
ZERR    8.000   0.0018   0.0018   0.0010    0.000    0.000    0.000
LATT -1
SYMM -Y, X-Y, Z
SYMM -X+Y, -X, Z
SYMM X, Y, -Z
SYMM -Y, X-Y, -Z
SYMM -X+Y, -X, -Z
SYMM -Y, -X, Z
SYMM -X+Y, Y, Z
SYMM X, X-Y, Z
SYMM -Y, -X, -Z
SYMM -X+Y, Y, -Z
SYMM X, X-Y, -Z
SFAC O H V CO
UNIT 8 8 8 8
L.S. 10
BOND
LIST 6
FMAP 2
PLAN 20
CO01  4  0.48243  0.51757  1.00000 10.25000  0.04365  26.38
V002  3  0.25879  0.24071  0.00000 10.50000  0.03247  22.59
V003  3  0.33333  0.66667  0.50000 10.08333  0.05691  21.96
V004  3  0.41164  0.32295  0.50000 10.50000  0.04985  18.53
V005  3  0.66666  0.33334  0.50000 10.08333  0.07059  16.53
V006  3  0.17382  0.34765  0.50000 10.25000  0.10062  15.81
O007  1  0.00000  0.00000  0.24605 10.16667  0.00010  14.04
O008  1  0.66666  0.33334  0.00000 10.08333  0.00010  12.03
O009  1  0.33333  0.66667  0.66752 10.16667  0.00384   9.77
O00A  1  0.40850  0.59150  1.00000 10.25000  0.02287   9.35
O00B  1  0.14315  0.07158  0.14883 10.50000  0.02623   9.33
O00C  1  0.26831  0.13416  0.31432 10.50000  0.02112   8.87
O00D  1  0.53098  0.46902  0.71785 10.50000  0.01172   8.84
O00E  1  0.25053  0.50108  0.62577 10.50000  0.01740   7.72
O00F  1  0.26599  0.32720  0.33775 11.00000  0.05055   6.17
O00G  1  0.33265  0.16633  0.50000 10.25000  0.02042   5.78
HKLF 4
END
