TITL 1230_expF_1_3_expS_0_9_1230_c.res in P-62c
REM Old TITL 1230 in P6(3)mc
REM SHELXT solution in P-62c: R1 0.254, Rweak 0.071, Alpha 0.235
REM <I/s>   0.000 for    0 systematic absences,  Orientation as input
REM Flack x =  0.049 ( 0.268 ) from   120 Parsons' quotients
REM Formula found by SHELXT:  O46 V6 Co3

CELL  0.71073  12.4770  12.4770   4.8820   90.000   90.000  120.000
ZERR    8.000   0.0018   0.0018   0.0010    0.000    0.000    0.000
LATT -1
SYMM -Y, X-Y, Z
SYMM -X+Y, -X, Z
SYMM X, Y, 1/2-Z
SYMM -Y, X-Y, 1/2-Z
SYMM -X+Y, -X, 1/2-Z
SYMM Y, X, -Z
SYMM X-Y, -Y, -Z
SYMM -X, -X+Y, -Z
SYMM Y, X, 1/2+Z
SYMM X-Y, -Y, 1/2+Z
SYMM -X, -X+Y, 1/2+Z
SFAC O H V CO
UNIT 8 8 8 8
L.S. 10
BOND
LIST 6
FMAP 2
PLAN 20
CO01  4  0.35803  0.92476  0.25000 10.50000  0.04865  28.71
V002  3  0.70322  0.86055  0.75000 10.50000  0.02318  23.22
V003  3  0.57875  0.92485  0.25000 10.50000  0.05108  18.76
O004  1  1.00000  1.00000  1.00000 10.16667  0.00010  14.85
O005  1  0.33334  0.66667  0.01254 10.33333  0.00470  12.49
O006  1  0.33334  0.66667  0.25000 10.16667  0.00010   9.02
O007  1  0.53394  1.06185  0.40138 11.00000  0.02836   7.50
O008  1  0.64594  0.91146  0.55028 11.00000  0.04464   7.34
O009  1  0.83612  0.92179  0.75000 10.50000  0.04355   7.28
O00A  1  0.36771  0.79433  0.14152 11.00000  0.07142   6.80
O00B  1  0.51044  1.10511  0.25000 10.50000  0.01228   6.60
O00C  1  0.67244  0.72366  0.54915 11.00000  0.06387   6.55
O00D  1  0.49066  0.96554  0.25000 10.50000  0.00751   6.45
O00E  1  0.55796  0.81683  0.75000 10.50000  0.04790   6.38
O00F  1  0.62246  0.81051  0.43321 11.00000  0.02848   6.18
HKLF 4
END
