TITL 1230_expF_1_5_expS_0_7_1230_d.res in P6(3)22
REM Old TITL 1230 in P6(3)mc
REM SHELXT solution in P6(3)22: R1 0.392, Rweak 0.042, Alpha 0.250
REM <I/s>   0.000 for    0 systematic absences,  Orientation as input
REM Flack x =  0.318 ( 0.777 ) from    90 Parsons' quotients
REM Formula found by SHELXT:  O3 V

CELL  0.71073  12.4770  12.4770   4.8820   90.000   90.000  120.000
ZERR    8.000   0.0018   0.0018   0.0010    0.000    0.000    0.000
LATT -1
SYMM -Y, X-Y, Z
SYMM -X+Y, -X, Z
SYMM -X, -Y, 1/2+Z
SYMM Y, -X+Y, 1/2+Z
SYMM X-Y, X, 1/2+Z
SYMM Y, X, -Z
SYMM X-Y, -Y, -Z
SYMM -X, -X+Y, -Z
SYMM -Y, -X, 1/2-Z
SYMM -X+Y, Y, 1/2-Z
SYMM X, X-Y, 1/2-Z
SFAC O H V CO
UNIT 8 8 8 8
L.S. 10
BOND
LIST 6
FMAP 2
PLAN 20
V001  3  0.64914  0.57161  0.77224 11.00000  0.04558  24.39
V002  3  0.85080  0.70161  0.25000 10.50000  0.04345  22.97
V003  3  1.00000  1.00000  0.00000 10.16667  0.10606  15.61
O004  1  0.33333  0.66666  0.75000 10.16667  0.01712  11.22
O005  1  0.33333  0.66666  1.25000 10.16667  0.11268  10.47
O006  1  0.38484  0.57379  1.10659 11.00000  0.00010  10.06
O007  1  0.78916  0.60870  0.54547 11.00000  0.03213   8.56
O008  1  0.47872  0.55425  0.90691 11.00000  0.02338   7.78
O009  1  1.00000  1.00000  0.25000 10.16667  0.01997   6.69
O00A  1  0.73033  0.68163  0.38940 11.00000  0.01842   6.59
O00B  1  0.48510  0.51491  0.75000 10.50000  0.05105   6.18
HKLF 4
END
