TITL 1230_expF_1_4_expS_1_0_1230_b.res in P-6m2
REM Old TITL 1230 in P6(3)mc
REM SHELXT solution in P-6m2: R1 0.259, Rweak 0.040, Alpha 0.191
REM <I/s>   0.000 for    0 systematic absences,  Orientation as input
REM Flack x =  0.496 ( 0.287 ) from   123 Parsons' quotients
REM Formula found by SHELXT:  O47 V17 Co3

CELL  0.71073  12.4770  12.4770   4.8820   90.000   90.000  120.000
ZERR    8.000   0.0018   0.0018   0.0010    0.000    0.000    0.000
LATT -1
SYMM -Y, X-Y, Z
SYMM -X+Y, -X, Z
SYMM X, Y, -Z
SYMM -Y, X-Y, -Z
SYMM -X+Y, -X, -Z
SYMM -Y, -X, Z
SYMM -X+Y, Y, Z
SYMM X, X-Y, Z
SYMM -Y, -X, -Z
SYMM -X+Y, Y, -Z
SYMM X, X-Y, -Z
SFAC O H V CO
UNIT 8 8 8 8
L.S. 10
BOND
LIST 6
FMAP 2
PLAN 20
CO01  4  0.51826  0.48174  0.00000 10.25000  0.04550  26.38
V002  3  0.24092  0.25814  0.00000 10.50000  0.03285  22.59
V003  3  0.66667  0.33334  0.50000 10.08333  0.06378  21.96
V004  3  0.32344  0.41383  0.50000 10.50000  0.05339  18.53
V005  3  0.33333  0.66666  0.50000 10.08333  0.06527  16.53
V006  3  0.34884  0.17442  0.50000 10.25000  0.09727  15.81
O007  1  0.00000  0.00000  0.23849 10.16667  0.00010  14.04
O008  1  0.33332  0.66666  0.00000 10.08333  0.00010  12.03
O009  1  0.66666  0.33334  0.67265 10.16667  0.00782   9.77
O00A  1  0.59255  0.40745  0.00000 10.25000  0.02914   9.35
O00B  1  0.07193  0.14386  0.15231 10.50000  0.02911   9.33
O00C  1  0.13390  0.26781  0.31339 10.50000  0.02000   8.87
O00D  1  0.46855  0.53144  0.28363 10.50000  0.01097   8.84
O00E  1  0.49967  0.24983  0.62915 10.50000  0.01006   7.72
O00F  1  0.32911  0.26966  0.33818 11.00000  0.04371   6.17
O00G  1  0.16473  0.32947  0.50000 10.25000  0.02099   5.78
HKLF 4
END
