TITL 1230_expF_1_2_expS_1_3_1230_b.res in P-62c
REM Old TITL 1230 in P6(3)mc
REM SHELXT solution in P-62c: R1 0.257, Rweak 0.117, Alpha 0.290
REM <I/s>   0.000 for    0 systematic absences,  Orientation as input
REM Flack x =  0.367 ( 0.280 ) from    63 Parsons' quotients
REM Formula found by SHELXT:  O41 V6 Co3

CELL  0.71073  12.4770  12.4770   4.8820   90.000   90.000  120.000
ZERR    8.000   0.0018   0.0018   0.0010    0.000    0.000    0.000
LATT -1
SYMM -Y, X-Y, Z
SYMM -X+Y, -X, Z
SYMM X, Y, 1/2-Z
SYMM -Y, X-Y, 1/2-Z
SYMM -X+Y, -X, 1/2-Z
SYMM Y, X, -Z
SYMM X-Y, -Y, -Z
SYMM -X, -X+Y, -Z
SYMM Y, X, 1/2+Z
SYMM X-Y, -Y, 1/2+Z
SYMM -X, -X+Y, 1/2+Z
SFAC O H V CO
UNIT 8 8 8 8
L.S. 10
BOND
LIST 6
FMAP 2
PLAN 20
CO01  4  0.93874  0.34352  0.75000 10.50000  0.06555  27.18
V002  3  0.64750  0.07893  0.75000 10.50000  0.01790  23.19
V003  3  0.85129  0.15261  0.25000 10.50000  0.04624  21.07
O004  1  1.00000  0.00001  0.00000 10.16667  0.02594  14.13
O005  1  0.33333 -0.33332  0.25000 10.16667  0.00366  10.97
O006  1  0.33333 -0.33333  0.75000 10.16667  0.13013   9.28
O007  1  0.40449 -0.19844  0.39982 11.00000  0.03316   8.62
O008  1  0.81469  0.19591  0.56318 11.00000  0.00762   8.21
O009  1  0.53228 -0.01150  0.75000 10.50000  0.04464   6.76
O00A  1  0.33333 -0.33333  0.54690 10.33333  0.04038   6.40
O00B  1  0.74062  0.07233  0.40960 11.00000  0.04791   6.36
O00C  1  0.44160 -0.10244  0.60267 11.00000  0.15851   6.09
O00D  1  0.99917  0.17990  0.25000 10.50000  0.06500   6.06
O00E  1  0.93547  0.08778  0.10848 11.00000  0.04956   6.05
HKLF 4
END
