TITL 1230_expF_1_2_expS_0_8_1230_c.res in P6(3)22
REM Old TITL 1230 in P6(3)mc
REM SHELXT solution in P6(3)22: R1 0.284, Rweak 0.107, Alpha 0.243
REM <I/s>   0.000 for    0 systematic absences,  Orientation as input
REM Flack x =  0.419 ( 0.270 ) from    88 Parsons' quotients
REM Formula found by SHELXT:  O16 V5

CELL  0.71073  12.4770  12.4770   4.8820   90.000   90.000  120.000
ZERR    8.000   0.0018   0.0018   0.0010    0.000    0.000    0.000
LATT -1
SYMM -Y, X-Y, Z
SYMM -X+Y, -X, Z
SYMM -X, -Y, 1/2+Z
SYMM Y, -X+Y, 1/2+Z
SYMM X-Y, X, 1/2+Z
SYMM Y, X, -Z
SYMM X-Y, -Y, -Z
SYMM -X, -X+Y, -Z
SYMM -Y, -X, 1/2-Z
SYMM -X+Y, Y, 1/2-Z
SYMM X, X-Y, 1/2-Z
SFAC O H V CO
UNIT 8 8 8 8
L.S. 10
BOND
LIST 6
FMAP 2
PLAN 20
V001  3  0.15025  0.84975  0.75000 10.50000  0.03106  22.75
V002  3  0.07255  0.65013  0.21720 11.00000  0.04065  22.46
V003  3  0.00000  1.00000  1.00000 10.16667  0.06109  18.12
O004  1  0.33333  0.66667  0.50838 10.33333  0.00010  11.91
O005  1  0.07401  0.72743  0.58645 11.00000  0.00052   9.58
O006  1  0.19099  0.61863  0.34886 11.00000  0.02219   8.14
O007  1 -0.05811  0.48758  0.33246 11.00000  0.13354   8.13
O008  1  0.08662  0.91339  0.75000 10.50000  0.03590   7.55
O009  1  0.17763  0.79332  0.41941 11.00000  0.02625   7.28
O00A  1  0.21034  0.78966  0.75000 10.50000  0.16650   6.74
HKLF 4
END
