TITL 1230_expF_1_4_expS_0_8_1230_a.res in P6(3)mc
REM Old TITL 1230 in P6(3)mc
REM SHELXT solution in P6(3)mc: R1 0.257, Rweak 0.030, Alpha 0.220
REM <I/s>   0.000 for    0 systematic absences,  Orientation as input
REM Flack x = -0.761 ( 0.437 ) from   116 Parsons' quotients
REM Formula found by SHELXT:  O22 V9

CELL  0.71073  12.4770  12.4770   4.8820   90.000   90.000  120.000
ZERR    8.000   0.0018   0.0018   0.0010    0.000    0.000    0.000
LATT -1
SYMM -Y, X-Y, Z
SYMM -X+Y, -X, Z
SYMM -X, -Y, 1/2+Z
SYMM Y, -X+Y, 1/2+Z
SYMM X-Y, X, 1/2+Z
SYMM -Y, -X, Z
SYMM -X+Y, Y, Z
SYMM X, X-Y, Z
SYMM Y, X, 1/2+Z
SYMM X-Y, -Y, 1/2+Z
SYMM -X, -X+Y, 1/2+Z
SFAC O H V CO
UNIT 8 8 8 8
L.S. 10
BOND
LIST 6
FMAP 2
PLAN 20
V001  3  0.15091  0.84909  0.20771 10.50000  0.06014  17.74
V002  3  0.07699  0.64833  0.68896 11.00000  0.05566  17.32
O003  1  0.00000  1.00000  0.52057 10.16667  0.00010  11.69
O004  1  0.20051  0.60025  0.83442 10.50000  0.03187  10.49
O005  1  0.33333  0.66666  0.95607 10.16667  0.02913   9.99
O006  1  0.33333  0.66666  0.74777 10.16667  0.02416   9.63
O007  1  0.19302  0.80698  0.51010 10.50000  0.01314   9.38
O008  1  0.04504  0.52253  0.39304 10.50000  0.01672   8.56
O009  1  0.07678  0.92322  0.29977 10.50000  0.01414   7.23
O00A  1  0.26716  0.93470  0.04393 11.00000  0.02808   6.33
O00B  1  0.33333  0.66666  0.43498 10.16667  0.08088   5.15
HKLF 4
END
