TITL 1230_expF_1_4_expS_0_6_1230_b.res in P-6m2
REM Old TITL 1230 in P6(3)mc
REM SHELXT solution in P-6m2: R1 0.266, Rweak 0.039, Alpha 0.191
REM <I/s>   0.000 for    0 systematic absences,  Orientation as input
REM Flack x =  0.121 ( 0.304 ) from   159 Parsons' quotients
REM Formula found by SHELXT:  O47 V17 Co3

CELL  0.71073  12.4770  12.4770   4.8820   90.000   90.000  120.000
ZERR    8.000   0.0018   0.0018   0.0010    0.000    0.000    0.000
LATT -1
SYMM -Y, X-Y, Z
SYMM -X+Y, -X, Z
SYMM X, Y, -Z
SYMM -Y, X-Y, -Z
SYMM -X+Y, -X, -Z
SYMM -Y, -X, Z
SYMM -X+Y, Y, Z
SYMM X, X-Y, Z
SYMM -Y, -X, -Z
SYMM -X+Y, Y, -Z
SYMM X, X-Y, -Z
SFAC O H V CO
UNIT 8 8 8 8
L.S. 10
BOND
LIST 6
FMAP 2
PLAN 20
CO01  4  0.48242  0.51758  0.50000 10.25000  0.06004  26.38
V002  3  0.75837  1.01583  1.50000 10.50000  0.04957  22.59
V003  3  0.33333  0.66666  1.00000 10.08333  0.13353  21.96
V004  3  0.41137  0.31933  0.00000 10.50000  0.04295  18.53
V005  3  0.66667  0.33333  0.00000 10.08333  0.08207  16.53
V006  3  0.64353  0.82176  1.00000 10.25000  0.06729  15.81
O007  1  0.00000  0.00000 -0.22476 10.16667  0.00010  14.04
O008  1  0.66667  0.33333 -0.50000 10.08333  0.03230  12.03
O009  1  0.33334  0.66666  0.81393 10.16667  0.06201   9.77
O00A  1  0.39271  0.60729  0.50000 10.25000  0.01594   9.35
O00B  1  0.13470  0.06735 -0.33516 10.50000  0.00891   9.33
O00C  1  0.28964  0.14482 -0.11132 10.50000  0.00576   8.87
O00D  1  0.52953  0.47047  0.21513 10.50000  0.00280   8.84
O00E  1  0.49426  0.74713  0.85838 10.50000  0.01845   7.72
O00F  1  0.65806  0.91939  1.18803 11.00000  0.04367   6.17
O00G  1  0.35665  0.17832  0.00000 10.25000  0.00706   5.78
HKLF 4
END
