TITL 1230_expF_1_2_expS_0_6_1230_b.res in P-6m2
REM Old TITL 1230 in P6(3)mc
REM SHELXT solution in P-6m2: R1 0.257, Rweak 0.122, Alpha 0.214
REM <I/s>   0.000 for    0 systematic absences,  Orientation as input
REM Flack x =  0.130 ( 0.208 ) from   158 Parsons' quotients
REM Formula found by SHELXT:  O11 V3

CELL  0.71073  12.4770  12.4770   4.8820   90.000   90.000  120.000
ZERR    8.000   0.0018   0.0018   0.0010    0.000    0.000    0.000
LATT -1
SYMM -Y, X-Y, Z
SYMM -X+Y, -X, Z
SYMM X, Y, -Z
SYMM -Y, X-Y, -Z
SYMM -X+Y, -X, -Z
SYMM -Y, -X, Z
SYMM -X+Y, Y, Z
SYMM X, X-Y, Z
SYMM -Y, -X, -Z
SYMM -X+Y, Y, -Z
SYMM X, X-Y, -Z
SFAC O H V CO
UNIT 8 8 8 8
L.S. 10
BOND
LIST 6
FMAP 2
PLAN 20
V001  3  0.30380  0.15190  0.50000 10.25000  0.04455  21.71
V002  3  0.42697  0.35019  1.00000 10.50000  0.03977  19.56
V003  3  0.35192  0.42826  0.50000 10.50000  0.05241  18.43
O004  1  0.66667  0.33333  1.00000 10.08333  0.00010  14.15
O005  1  0.15876  0.31753  1.00000 10.25000  0.01243  10.94
O006  1  0.33333  0.66667  0.69044 10.16667  0.03048  10.05
O007  1  0.00000  0.00001  0.19340 10.16667  0.00010   9.26
O008  1  0.17147  0.08574  0.50000 10.25000  0.00639   8.79
O009  1  0.50635  0.49365  0.50000 10.25000  0.01361   8.50
O00A  1  0.20114  0.40228  1.00000 10.25000  0.01258   8.03
O00B  1  0.40721  0.59279  0.63178 10.50000  0.00210   7.97
O00C  1  0.66667  0.33334  0.61252 10.16667  0.11919   7.54
O00D  1  0.26779  0.34109  0.82006 11.00000  0.03584   6.85
O00E  1  0.39497  0.19749  0.80111 10.50000  0.01263   6.52
O00F  1  0.55142  0.44858  0.62178 10.50000  0.14120   5.86
O00G  1  0.16633  0.33268  0.72468 10.50000  0.06624   5.01
HKLF 4
END
