TITL 1230_expF_1_5_expS_0_7_1230_a.res in P6(3)mc
REM Old TITL 1230 in P6(3)mc
REM SHELXT solution in P6(3)mc: R1 0.332, Rweak 0.027, Alpha 0.153
REM <I/s>   0.000 for    0 systematic absences,  Orientation as input
REM Flack x = -0.647 ( 0.391 ) from   124 Parsons' quotients
REM Formula found by SHELXT:  O8 V5

CELL  0.71073  12.4770  12.4770   4.8820   90.000   90.000  120.000
ZERR    8.000   0.0018   0.0018   0.0010    0.000    0.000    0.000
LATT -1
SYMM -Y, X-Y, Z
SYMM -X+Y, -X, Z
SYMM -X, -Y, 1/2+Z
SYMM Y, -X+Y, 1/2+Z
SYMM X-Y, X, 1/2+Z
SYMM -Y, -X, Z
SYMM -X+Y, Y, Z
SYMM X, X-Y, Z
SYMM Y, X, 1/2+Z
SYMM X-Y, -Y, 1/2+Z
SYMM -X, -X+Y, 1/2+Z
SFAC O H V CO
UNIT 8 8 8 8
L.S. 10
BOND
LIST 6
FMAP 2
PLAN 20
V001  3  0.65291  0.57509  0.53737 11.00000  0.04617  19.02
V002  3  0.85068  0.70135  0.06134 10.50000  0.06970  17.10
V003  3  0.66666  0.33334  0.78507 10.16667  0.07175  15.50
O004  1  0.59922  0.40078  0.71245 10.50000  0.00569  11.93
O005  1  0.80290  0.60580  0.37850 10.50000  0.03352  11.31
O006  1  0.66666  0.33334  1.17046 10.16667  0.01462  10.76
O007  1  1.00000  1.00000 -0.17046 10.16667  0.03606  10.68
O008  1  1.00000  1.00000  0.04468 10.16667  0.07706   8.67
O009  1  0.47424  0.52576  0.69977 10.50000  0.01499   7.79
O00A  1  0.66667  0.33333  0.56646 10.16667  0.09752   6.86
O00B  1  0.92551  0.85103  0.14697 10.50000  0.02604   6.24
HKLF 4
END
