TITL 1230_expF_1_2_expS_0_8_1230_d.res in P-62c
REM Old TITL 1230 in P6(3)mc
REM SHELXT solution in P-62c: R1 0.300, Rweak 0.222, Alpha 0.240
REM <I/s>   0.000 for    0 systematic absences,  Orientation as input
REM Flack x =  0.307 ( 0.156 ) from   130 Parsons' quotients
REM Formula found by SHELXT:  O37 V3 Co3

CELL  0.71073  12.4770  12.4770   4.8820   90.000   90.000  120.000
ZERR    8.000   0.0018   0.0018   0.0010    0.000    0.000    0.000
LATT -1
SYMM -Y, X-Y, Z
SYMM -X+Y, -X, Z
SYMM X, Y, 1/2-Z
SYMM -Y, X-Y, 1/2-Z
SYMM -X+Y, -X, 1/2-Z
SYMM Y, X, -Z
SYMM X-Y, -Y, -Z
SYMM -X, -X+Y, -Z
SYMM Y, X, 1/2+Z
SYMM X-Y, -Y, 1/2+Z
SYMM -X, -X+Y, 1/2+Z
SFAC O H V CO
UNIT 8 8 8 8
L.S. 10
BOND
LIST 6
FMAP 2
PLAN 20
CO01  4  0.35095  0.42910  0.75000 10.50000  0.03290  27.22
V002  3  0.15718  0.29994  0.25000 10.50000  0.06394  19.40
O003  1  0.00000  0.00000  0.00000 10.16667  0.02703  13.97
O004  1  0.05844  0.40761  0.75000 10.50000  0.00010  12.25
O005  1  0.33334  0.66667  0.52422 10.33333  0.03206  10.95
O006  1  0.33334  0.66667  0.75000 10.16667  0.06549   8.56
O007  1  0.22084  0.62914  0.57120 11.00000  0.05245   7.16
O008  1  0.18318  0.37096  0.60963 11.00000  0.02795   6.29
O009  1  0.05661  0.37725  0.47008 11.00000  0.07678   6.03
O00A  1  0.07044  0.16740  0.25000 10.50000  0.01546   5.93
O00B  1  0.09881  0.54543  0.31560 11.00000  0.18933   5.85
O00C  1  0.14899  0.41324  0.25000 10.50000  0.05647   5.00
HKLF 4
END
