TITL 1230_expF_1_4_expS_0_7_1230_d.res in P6(3)22
REM Old TITL 1230 in P6(3)mc
REM SHELXT solution in P6(3)22: R1 0.328, Rweak 0.095, Alpha 0.284
REM <I/s>   0.000 for    0 systematic absences,  Orientation as input
REM Flack x =  0.479 ( 0.465 ) from    86 Parsons' quotients
REM Formula found by SHELXT:  O32 V9

CELL  0.71073  12.4770  12.4770   4.8820   90.000   90.000  120.000
ZERR    8.000   0.0018   0.0018   0.0010    0.000    0.000    0.000
LATT -1
SYMM -Y, X-Y, Z
SYMM -X+Y, -X, Z
SYMM -X, -Y, 1/2+Z
SYMM Y, -X+Y, 1/2+Z
SYMM X-Y, X, 1/2+Z
SYMM Y, X, -Z
SYMM X-Y, -Y, -Z
SYMM -X, -X+Y, -Z
SYMM -Y, -X, 1/2-Z
SYMM -X+Y, Y, 1/2-Z
SYMM X, X-Y, 1/2-Z
SFAC O H V CO
UNIT 8 8 8 8
L.S. 10
BOND
LIST 6
FMAP 2
PLAN 20
V001  3  0.42938  0.35415  0.22769 11.00000  0.05534  20.88
V002  3  0.30157  0.15079  0.75000 10.50000  0.06696  19.44
O003  1  0.00000  0.00000  0.75000 10.16667  0.05879  12.56
O004  1  0.66667  0.33334  0.25000 10.16667  0.09722   9.48
O005  1  0.66667  0.33334 -0.13783 10.33333  0.05774   9.39
O006  1  0.00000  0.00000  0.50000 10.16667  0.04419   9.14
O007  1  0.62290  0.41323  0.13006 11.00000  0.01643   8.51
O008  1  0.33916  0.27326  0.56362 11.00000  0.06089   7.14
O009  1  0.51753  0.45656 -0.07983 11.00000  0.03800   6.94
O00A  1  0.37592  0.19195  0.47968 11.00000  0.04462   6.33
O00B  1  0.12678  0.06340  0.75000 10.50000  0.13714   5.86
HKLF 4
END
