TITL 1230_expF_1_2_expS_1_0_1230_b.res in P-6m2
REM Old TITL 1230 in P6(3)mc
REM SHELXT solution in P-6m2: R1 0.258, Rweak 0.096, Alpha 0.272
REM <I/s>   0.000 for    0 systematic absences,  Orientation as input
REM Flack x =  0.254 ( 0.208 ) from   131 Parsons' quotients
REM Formula found by SHELXT:  O43 V17 Co3

CELL  0.71073  12.4770  12.4770   4.8820   90.000   90.000  120.000
ZERR    8.000   0.0018   0.0018   0.0010    0.000    0.000    0.000
LATT -1
SYMM -Y, X-Y, Z
SYMM -X+Y, -X, Z
SYMM X, Y, -Z
SYMM -Y, X-Y, -Z
SYMM -X+Y, -X, -Z
SYMM -Y, -X, Z
SYMM -X+Y, Y, Z
SYMM X, X-Y, Z
SYMM -Y, -X, -Z
SYMM -X+Y, Y, -Z
SYMM X, X-Y, -Z
SFAC O H V CO
UNIT 8 8 8 8
L.S. 10
BOND
LIST 6
FMAP 2
PLAN 20
CO01  4  0.38053  0.19026  1.00000 10.25000  0.08709  26.99
V002  3  0.23147  0.25046  0.50000 10.50000  0.03133  23.88
O003  1  0.33333  0.66667  0.57271 10.16667  0.01972  19.73
V004  3  0.31824  0.40245  1.00000 10.50000  0.03441  17.21
V005  3  0.00000  0.00000  0.31787 10.16667  0.08556  15.69
V006  3  0.51149  0.48850  0.50000 10.25000  0.06965  15.60
O007  1  0.14156  0.28313  0.50000 10.25000  0.04516  14.46
O008  1  0.66666  0.33334  0.80139 10.16667  0.00010  14.20
O009  1  0.58980  0.41020  0.50000 10.25000  0.01004  11.19
O00A  1  0.20074  0.40149  0.66494 10.50000  0.00010   8.70
O00B  1  0.09186  0.18373  0.00000 10.25000  0.05875   8.28
O00C  1  0.05684  0.11368  0.38531 10.50000  0.03576   8.22
O00D  1  0.31864  0.26685  0.80557 11.00000  0.03873   6.83
O00E  1  0.30408  0.15205  0.72412 10.50000  0.05218   5.62
HKLF 4
END
