TITL 1230_expF_1_4_expS_1_1_1230_d.res in P6(3)22
REM Old TITL 1230 in P6(3)mc
REM SHELXT solution in P6(3)22: R1 0.290, Rweak 0.058, Alpha 0.284
REM <I/s>   0.000 for    0 systematic absences,  Orientation as input
REM Flack x = -0.296 ( 0.470 ) from    69 Parsons' quotients
REM Formula found by SHELXT:  O32 V9

CELL  0.71073  12.4770  12.4770   4.8820   90.000   90.000  120.000
ZERR    8.000   0.0018   0.0018   0.0010    0.000    0.000    0.000
LATT -1
SYMM -Y, X-Y, Z
SYMM -X+Y, -X, Z
SYMM -X, -Y, 1/2+Z
SYMM Y, -X+Y, 1/2+Z
SYMM X-Y, X, 1/2+Z
SYMM Y, X, -Z
SYMM X-Y, -Y, -Z
SYMM -X, -X+Y, -Z
SYMM -Y, -X, 1/2-Z
SYMM -X+Y, Y, 1/2-Z
SYMM X, X-Y, 1/2-Z
SFAC O H V CO
UNIT 8 8 8 8
L.S. 10
BOND
LIST 6
FMAP 2
PLAN 20
V001  3  0.43152  0.35175  0.22426 11.00000  0.05423  20.88
V002  3  0.29599  0.14800  0.75000 10.50000  0.06873  19.44
O003  1  0.00000  0.00000  0.75000 10.16667  0.03850  12.56
O004  1  0.66666  0.33334  0.25000 10.16667  0.12073   9.48
O005  1  0.66666  0.33334  0.67475 10.33333  0.02742   9.39
O006  1  0.00000  0.00000  0.50000 10.16667  0.00175   9.14
O007  1  0.58222  0.36066  0.33871 11.00000  0.06169   8.51
O008  1  0.32917  0.25952  0.55741 11.00000  0.02175   7.14
O009  1  0.53597  0.47514 -0.05523 11.00000  0.02817   6.94
O00A  1  0.36927  0.18455  0.49177 11.00000  0.06447   6.33
O00B  1  0.12430  0.06215  0.75000 10.50000  0.05198   5.86
HKLF 4
END
