TITL 1230_expF_1_4_expS_0_6_1230_a.res in P6(3)mc
REM Old TITL 1230 in P6(3)mc
REM SHELXT solution in P6(3)mc: R1 0.263, Rweak 0.032, Alpha 0.220
REM <I/s>   0.000 for    0 systematic absences,  Orientation as input
REM Flack x = -0.596 ( 0.471 ) from   123 Parsons' quotients
REM Formula found by SHELXT:  O22 V9

CELL  0.71073  12.4770  12.4770   4.8820   90.000   90.000  120.000
ZERR    8.000   0.0018   0.0018   0.0010    0.000    0.000    0.000
LATT -1
SYMM -Y, X-Y, Z
SYMM -X+Y, -X, Z
SYMM -X, -Y, 1/2+Z
SYMM Y, -X+Y, 1/2+Z
SYMM X-Y, X, 1/2+Z
SYMM -Y, -X, Z
SYMM -X+Y, Y, Z
SYMM X, X-Y, Z
SYMM Y, X, 1/2+Z
SYMM X-Y, -Y, 1/2+Z
SYMM -X, -X+Y, 1/2+Z
SFAC O H V CO
UNIT 8 8 8 8
L.S. 10
BOND
LIST 6
FMAP 2
PLAN 20
V001  3  0.15135  0.84865  0.21375 10.50000  0.06096  17.74
V002  3  0.35159  0.92276  0.69633 11.00000  0.05644  17.32
O003  1  0.00000  1.00000  0.52254 10.16667  0.00682  11.69
O004  1  0.39987  0.79972  0.84184 10.50000  0.03928  10.49
O005  1  0.33334  0.66666  0.95109 10.16667  0.04816   9.99
O006  1  0.33334  0.66666  0.74864 10.16667  0.03188   9.63
O007  1  0.19451  0.80549  0.52564 10.50000  0.01348   9.38
O008  1  0.47943  0.95886  0.39382 10.50000  0.02446   8.56
O009  1  0.07709  0.92291  0.30783 10.50000  0.00744   7.23
O00A  1  0.06520  0.73246  0.04891 11.00000  0.02719   6.33
O00B  1  0.33334  0.66666  0.45249 10.16667  0.04254   5.15
HKLF 4
END
