TITL 1230_expF_1_2_expS_0_6_1230_d.res in P6(3)22
REM Old TITL 1230 in P6(3)mc
REM SHELXT solution in P6(3)22: R1 0.315, Rweak 0.102, Alpha 0.273
REM <I/s>   0.000 for    0 systematic absences,  Orientation as input
REM Flack x = -0.153 ( 0.310 ) from    90 Parsons' quotients
REM Formula found by SHELXT:  O33 V10

CELL  0.71073  12.4770  12.4770   4.8820   90.000   90.000  120.000
ZERR    8.000   0.0018   0.0018   0.0010    0.000    0.000    0.000
LATT -1
SYMM -Y, X-Y, Z
SYMM -X+Y, -X, Z
SYMM -X, -Y, 1/2+Z
SYMM Y, -X+Y, 1/2+Z
SYMM X-Y, X, 1/2+Z
SYMM Y, X, -Z
SYMM X-Y, -Y, -Z
SYMM -X, -X+Y, -Z
SYMM -Y, -X, 1/2-Z
SYMM -X+Y, Y, 1/2-Z
SYMM X, X-Y, 1/2-Z
SFAC O H V CO
UNIT 8 8 8 8
L.S. 10
BOND
LIST 6
FMAP 2
PLAN 20
V001  3  0.64676  0.57430  0.30086 11.00000  0.02968  24.26
V002  3  0.84839  0.69677  0.75000 10.50000  0.04385  23.07
V003  3  1.00000  1.00000  1.00000 10.16667  0.06313  18.15
O004  1  0.33333  0.66667  0.02260 10.33333  0.01530  10.34
O005  1  0.73947  0.66334  0.57760 11.00000  0.00010   9.74
O006  1  0.33333  0.66666 -0.25000 10.16667  0.11773   9.46
O007  1  0.79770  0.62334  0.45232 11.00000  0.00521   8.28
O008  1  0.40767  0.60922 -0.13658 11.00000  0.02512   7.39
O009  1  0.91301  0.82604  0.75000 10.50000  0.03146   7.36
O00A  1  0.49994  0.50007  0.25000 10.50000  0.09101   6.78
O00B  1  0.48453  0.55341  0.14372 11.00000  0.15635   6.72
HKLF 4
END
