TITL 1230_expF_0_6_expS_1_3_1230_a.res in P-62m
REM Old TITL 1230 in P6(3)mc
REM SHELXT solution in P-62m: R1 0.212, Rweak 0.359, Alpha 0.274
REM <I/s>   0.000 for    0 systematic absences,  Orientation as input
REM Formula found by SHELXT:  O64 Co3

CELL  0.71073  12.4770  12.4770   4.8820   90.000   90.000  120.000
ZERR    8.000   0.0018   0.0018   0.0010    0.000    0.000    0.000
LATT -1
SYMM -Y, X-Y, Z
SYMM -X+Y, -X, Z
SYMM X, Y, -Z
SYMM -Y, X-Y, -Z
SYMM -X+Y, -X, -Z
SYMM Y, X, -Z
SYMM X-Y, -Y, -Z
SYMM -X, -X+Y, -Z
SYMM Y, X, Z
SYMM X-Y, -Y, Z
SYMM -X, -X+Y, Z
SFAC O H V CO
UNIT 8 8 8 8
L.S. 10
BOND
LIST 6
FMAP 2
PLAN 20
CO01  4  0.74918  0.00000  0.50000 10.25000  0.01166  48.31
O002  1  0.41051  0.11078  0.00000 10.50000  0.00010  11.90
O003  1  0.29888  0.00000  0.50000 10.25000  0.01554  10.64
O004  1  0.15630  0.00000  0.50000 10.25000  0.06381   8.25
O005  1  0.00000  0.00000  0.50000 10.08333  0.17181   8.23
O006  1  0.62515  0.03039  0.00000 10.50000  0.05448   7.61
O007  1  0.55730 -0.23894  0.50000 10.50000  0.07557   7.08
O008  1  0.51270  0.08319  0.00000 10.50000  0.00010   6.67
O009  1  0.48124 -0.17731  0.50000 10.50000  0.05095   6.56
O00A  1  0.31073  0.07825  0.00000 10.50000  0.05221   5.86
O00B  1  0.36425 -0.19438  0.50000 10.50000  0.06235   5.26
O00C  1  0.24581  0.00000  0.00000 10.50000  0.10864   5.17
O00D  1  0.43993  0.00000  0.50000 10.25000  0.00010   4.69
O00E  1  0.64513  0.26276  0.00000 10.50000  0.02934   4.47
HKLF 4
END
