TITL 1230_expF_1_4_expS_1_5_1230_d.res in P6(3)22
REM Old TITL 1230 in P6(3)mc
REM SHELXT solution in P6(3)22: R1 0.305, Rweak 0.037, Alpha 0.284
REM <I/s>   0.000 for    0 systematic absences,  Orientation as input
REM Flack x = -0.049 ( 0.837 ) from    29 Parsons' quotients
REM Formula found by SHELXT:  O32 V9

CELL  0.71073  12.4770  12.4770   4.8820   90.000   90.000  120.000
ZERR    8.000   0.0018   0.0018   0.0010    0.000    0.000    0.000
LATT -1
SYMM -Y, X-Y, Z
SYMM -X+Y, -X, Z
SYMM -X, -Y, 1/2+Z
SYMM Y, -X+Y, 1/2+Z
SYMM X-Y, X, 1/2+Z
SYMM Y, X, -Z
SYMM X-Y, -Y, -Z
SYMM -X, -X+Y, -Z
SYMM -Y, -X, 1/2-Z
SYMM -X+Y, Y, 1/2-Z
SYMM X, X-Y, 1/2-Z
SFAC O H V CO
UNIT 8 8 8 8
L.S. 10
BOND
LIST 6
FMAP 2
PLAN 20
V001  3  0.43127  0.35321  0.23325 11.00000  0.04563  20.88
V002  3  0.29720  0.14861  0.75000 10.50000  0.06565  19.44
O003  1  0.00000  0.00000  0.75000 10.16667  0.02675  12.56
O004  1  0.66666  0.33334  0.25000 10.16667  0.17553   9.48
O005  1  0.66666  0.33333 -0.05261 10.33333  0.02692   9.39
O006  1  0.00000  0.00000  0.50000 10.16667  0.00010   9.14
O007  1  0.59014  0.37354  0.36108 11.00000  0.02609   8.51
O008  1  0.35060  0.28107  0.53307 11.00000  0.00621   7.14
O009  1  0.51952  0.45107 -0.09610 11.00000  0.02773   6.94
O00A  1  0.33276  0.22717  0.49084 11.00000  0.22142   6.33
O00B  1  0.15247  0.07623  0.75000 10.50000  0.12883   5.86
HKLF 4
END
