TITL 1230_expF_1_4_expS_1_2_1230_a.res in P6(3)mc
REM Old TITL 1230 in P6(3)mc
REM SHELXT solution in P6(3)mc: R1 0.247, Rweak 0.028, Alpha 0.220
REM <I/s>   0.000 for    0 systematic absences,  Orientation as input
REM Flack x = -1.180 ( 0.509 ) from    77 Parsons' quotients
REM Formula found by SHELXT:  O22 V9

CELL  0.71073  12.4770  12.4770   4.8820   90.000   90.000  120.000
ZERR    8.000   0.0018   0.0018   0.0010    0.000    0.000    0.000
LATT -1
SYMM -Y, X-Y, Z
SYMM -X+Y, -X, Z
SYMM -X, -Y, 1/2+Z
SYMM Y, -X+Y, 1/2+Z
SYMM X-Y, X, 1/2+Z
SYMM -Y, -X, Z
SYMM -X+Y, Y, Z
SYMM X, X-Y, Z
SYMM Y, X, 1/2+Z
SYMM X-Y, -Y, 1/2+Z
SYMM -X, -X+Y, 1/2+Z
SFAC O H V CO
UNIT 8 8 8 8
L.S. 10
BOND
LIST 6
FMAP 2
PLAN 20
V001  3  0.15064  0.84936  0.77752 10.50000  0.05726  17.74
V002  3  0.07588  0.64961  0.25319 11.00000  0.05142  17.32
O003  1  0.00000  1.00000  0.66968 10.16667  0.00010  11.69
O004  1  0.18558  0.59279  0.41307 10.50000  0.04254  10.49
O005  1  0.33334  0.66667  0.51406 10.16667  0.00010   9.99
O006  1  0.33334  0.66667  0.28444 10.16667  0.03260   9.63
O007  1  0.19174  0.80827  1.07048 10.50000  0.01848   9.38
O008  1  0.05460  0.52730 -0.05181 10.50000  0.00606   8.56
O009  1  0.07945  0.92056  0.85380 10.50000  0.02327   7.23
O00A  1  0.06655  0.72444  0.59676 11.00000  0.01381   6.33
O00B  1  0.33334  0.66667 -0.07048 10.16667  0.05290   5.15
HKLF 4
END
