TITL 1230_expF_1_4_expS_1_2_1230_c.res in P6(3)22
REM Old TITL 1230 in P6(3)mc
REM SHELXT solution in P6(3)22: R1 0.285, Rweak 0.060, Alpha 0.284
REM <I/s>   0.000 for    0 systematic absences,  Orientation as input
REM Flack x = -0.265 ( 0.494 ) from    59 Parsons' quotients
REM Formula found by SHELXT:  O32 V9

CELL  0.71073  12.4770  12.4770   4.8820   90.000   90.000  120.000
ZERR    8.000   0.0018   0.0018   0.0010    0.000    0.000    0.000
LATT -1
SYMM -Y, X-Y, Z
SYMM -X+Y, -X, Z
SYMM -X, -Y, 1/2+Z
SYMM Y, -X+Y, 1/2+Z
SYMM X-Y, X, 1/2+Z
SYMM Y, X, -Z
SYMM X-Y, -Y, -Z
SYMM -X, -X+Y, -Z
SYMM -Y, -X, 1/2-Z
SYMM -X+Y, Y, 1/2-Z
SYMM X, X-Y, 1/2-Z
SFAC O H V CO
UNIT 8 8 8 8
L.S. 10
BOND
LIST 6
FMAP 2
PLAN 20
V001  3  0.43141  0.35184  0.22337 11.00000  0.05525  20.88
V002  3  0.29586  0.14793  0.75000 10.50000  0.06806  19.44
O003  1  0.00000  0.00000  0.75000 10.16667  0.03366  12.56
O004  1  0.66667  0.33334  0.25000 10.16667  0.12100   9.48
O005  1  0.66667  0.33334 -0.17164 10.33333  0.02635   9.39
O006  1  0.00000  0.00000  0.50000 10.16667  0.00010   9.14
O007  1  0.58185  0.35909  0.32842 11.00000  0.06830   8.51
O008  1  0.32994  0.25929  0.55679 11.00000  0.02446   7.14
O009  1  0.53623  0.47587 -0.05827 11.00000  0.03003   6.94
O00A  1  0.37211  0.18480  0.49344 11.00000  0.06442   6.33
O00B  1  0.12389  0.06194  0.75000 10.50000  0.05460   5.86
HKLF 4
END
