TITL 1230_expF_1_3_expS_1_2_1230_d.res in P6(3)22
REM Old TITL 1230 in P6(3)mc
REM SHELXT solution in P6(3)22: R1 0.275, Rweak 0.062, Alpha 0.236
REM <I/s>   0.000 for    0 systematic absences,  Orientation as input
REM Flack x =  0.464 ( 0.388 ) from    64 Parsons' quotients
REM Formula found by SHELXT:  O3 V

CELL  0.71073  12.4770  12.4770   4.8820   90.000   90.000  120.000
ZERR    8.000   0.0018   0.0018   0.0010    0.000    0.000    0.000
LATT -1
SYMM -Y, X-Y, Z
SYMM -X+Y, -X, Z
SYMM -X, -Y, 1/2+Z
SYMM Y, -X+Y, 1/2+Z
SYMM X-Y, X, 1/2+Z
SYMM Y, X, -Z
SYMM X-Y, -Y, -Z
SYMM -X, -X+Y, -Z
SYMM -Y, -X, 1/2-Z
SYMM -X+Y, Y, 1/2-Z
SYMM X, X-Y, 1/2-Z
SFAC O H V CO
UNIT 8 8 8 8
L.S. 10
BOND
LIST 6
FMAP 2
PLAN 20
V001  3  0.42513  0.35079  0.27789 11.00000  0.04116  23.39
V002  3  0.29655  0.14827  0.75000 10.50000  0.04435  23.24
V003  3  0.00000  0.00000  0.50000 10.16667  0.04964  15.86
O004  1  0.66667  0.33333 -0.03305 10.33333  0.00010  12.19
O005  1  0.33546  0.06807  0.60984 11.00000  0.01227  10.85
O006  1  0.66667  0.33333  0.25000 10.16667  0.13049   8.61
O007  1  0.51818  0.45923 -0.06547 11.00000  0.01758   7.60
O008  1  0.57753  0.38353  0.14523 11.00000  0.02703   7.47
O009  1  0.17003  0.08501  0.75000 10.50000  0.00301   6.57
O00A  1  0.38742  0.20215  0.47191 11.00000  0.03016   6.55
HKLF 4
END
