TITL 1230_expF_1_2_expS_1_2_1230_a.res in P6(3)mc
REM Old TITL 1230 in P6(3)mc
REM SHELXT solution in P6(3)mc: R1 0.199, Rweak 0.068, Alpha 0.237
REM <I/s>   0.000 for    0 systematic absences,  Orientation as input
REM Flack x = -0.547 ( 0.364 ) from    76 Parsons' quotients
REM Formula found by SHELXT:  O21 V10

CELL  0.71073  12.4770  12.4770   4.8820   90.000   90.000  120.000
ZERR    8.000   0.0018   0.0018   0.0010    0.000    0.000    0.000
LATT -1
SYMM -Y, X-Y, Z
SYMM -X+Y, -X, Z
SYMM -X, -Y, 1/2+Z
SYMM Y, -X+Y, 1/2+Z
SYMM X-Y, X, 1/2+Z
SYMM -Y, -X, Z
SYMM -X+Y, Y, Z
SYMM X, X-Y, Z
SYMM Y, X, 1/2+Z
SYMM X-Y, -Y, 1/2+Z
SYMM -X, -X+Y, 1/2+Z
SFAC O H V CO
UNIT 8 8 8 8
L.S. 10
BOND
LIST 6
FMAP 2
PLAN 20
V001  3  0.35079  0.42635  0.23890 11.00000  0.03954  19.23
V002  3  0.14945  0.29888  0.77549 10.50000  0.04123  17.70
V003  3  0.33334  0.66667  0.53923 10.16667  0.09036  16.16
O004  1  0.19422  0.38843  1.06048 10.50000  0.00068  11.98
O005  1  0.00000  0.00000  1.06481 10.16667  0.00010  11.90
O006  1  0.39831  0.60170  0.37963 10.50000  0.00953  10.68
O007  1  0.33334  0.66667  0.28344 10.16667  0.00431   9.72
O008  1  0.47541  0.52459 -0.06481 10.50000  0.01498   8.78
O009  1  0.07807  0.15613  0.82736 10.50000  0.00578   7.82
O00A  1  0.27169  0.33319  0.56671 11.00000  0.00691   7.24
O00B  1  0.33334  0.66667 -0.06119 10.16667  0.05608   5.27
HKLF 4
END
