TITL 1230_expF_1_5_expS_1_3_1230_c.res in P-62c
REM Old TITL 1230 in P6(3)mc
REM SHELXT solution in P-62c: R1 0.341, Rweak 0.034, Alpha 0.247
REM <I/s>   0.000 for    0 systematic absences,  Orientation as input
REM Flack x = -0.639 ( 0.720 ) from    55 Parsons' quotients
REM Formula found by SHELXT:  O34 V9

CELL  0.71073  12.4770  12.4770   4.8820   90.000   90.000  120.000
ZERR    8.000   0.0018   0.0018   0.0010    0.000    0.000    0.000
LATT -1
SYMM -Y, X-Y, Z
SYMM -X+Y, -X, Z
SYMM X, Y, 1/2-Z
SYMM -Y, X-Y, 1/2-Z
SYMM -X+Y, -X, 1/2-Z
SYMM Y, X, -Z
SYMM X-Y, -Y, -Z
SYMM -X, -X+Y, -Z
SYMM Y, X, 1/2+Z
SYMM X-Y, -Y, 1/2+Z
SYMM -X, -X+Y, 1/2+Z
SFAC O H V CO
UNIT 8 8 8 8
L.S. 10
BOND
LIST 6
FMAP 2
PLAN 20
V001  3 -0.06675  0.58291 -0.25000 10.50000  0.05063  22.79
V002  3  0.14825  0.85289 -0.25000 10.50000  0.06997  21.86
V003  3  0.34794  0.91535  0.25000 10.50000  0.05026  21.75
O004  1  0.00000  1.00000  0.00000 10.16667  0.01550  12.52
O005  1  0.33333  0.66666  0.75000 10.16667  0.02812  11.88
O006  1  0.33333  0.66666  0.25000 10.16667  0.05920   9.97
O007  1  0.40175  0.79611  0.38282 11.00000  0.06480   8.13
O008  1  0.19594  0.81169  0.01558 11.00000  0.05070   6.96
O009  1  0.45578  0.93522  0.55581 11.00000  0.04046   6.52
O00A  1  0.06875  0.73169 -0.09687 11.00000  0.06132   6.20
O00B  1  0.00000  1.00000 -0.25000 10.16667  0.03648   5.88
O00C  1  0.07773  0.92559 -0.15096 11.00000  0.05610   5.47
HKLF 4
END
