TITL 1230_expF_1_3_expS_0_7_1230_b.res in P-6m2
REM Old TITL 1230 in P6(3)mc
REM SHELXT solution in P-6m2: R1 0.252, Rweak 0.078, Alpha 0.197
REM <I/s>   0.000 for    0 systematic absences,  Orientation as input
REM Flack x =  0.439 ( 0.519 ) from   155 Parsons' quotients
REM Formula found by SHELXT:  O45 V19

CELL  0.71073  12.4770  12.4770   4.8820   90.000   90.000  120.000
ZERR    8.000   0.0018   0.0018   0.0010    0.000    0.000    0.000
LATT -1
SYMM -Y, X-Y, Z
SYMM -X+Y, -X, Z
SYMM X, Y, -Z
SYMM -Y, X-Y, -Z
SYMM -X+Y, -X, -Z
SYMM -Y, -X, Z
SYMM -X+Y, Y, Z
SYMM X, X-Y, Z
SYMM -Y, -X, -Z
SYMM -X+Y, Y, -Z
SYMM X, X-Y, -Z
SFAC O H V CO
UNIT 8 8 8 8
L.S. 10
BOND
LIST 6
FMAP 2
PLAN 20
V001  3  0.70544  0.85272  0.50000 10.25000  0.02907  23.79
V002  3  0.57338  0.64468  0.00000 10.50000  0.04007  20.65
V003  3  0.65828  0.57517  0.50000 10.50000  0.05956  19.28
V004  3  0.33333  0.66667  0.00000 10.08333  0.04142  17.47
V005  3  0.84402  0.68805  0.00000 10.25000  0.05037  17.44
O006  1  0.33334  0.66667  0.39464 10.16667  0.00868  11.78
O007  1  0.99999  0.99999  0.82791 10.16667  0.01422  10.91
O008  1  0.83387  0.91693  0.50000 10.25000  0.00010  10.89
O009  1  0.66666  0.33333  0.25745 10.16667  0.00010   9.53
O00A  1  0.47205  0.52794  0.65433 10.50000  0.01662   8.79
O00B  1  0.59936  0.79968  0.22214 10.50000  0.00864   8.48
O00C  1  0.79667  0.59334  0.00000 10.25000  0.06580   8.39
O00D  1  0.50475  0.49524  0.50000 10.25000  0.00094   7.95
O00E  1  0.58493  0.41506  0.35999 10.50000  0.00912   7.38
O00F  1  0.73378  0.67362  0.18280 11.00000  0.04088   5.56
HKLF 4
END
