TITL 1230_expF_1_3_expS_1_0_1230_b.res in P-6m2
REM Old TITL 1230 in P6(3)mc
REM SHELXT solution in P-6m2: R1 0.243, Rweak 0.083, Alpha 0.197
REM <I/s>   0.000 for    0 systematic absences,  Orientation as input
REM Flack x =  0.490 ( 0.457 ) from   127 Parsons' quotients
REM Formula found by SHELXT:  O45 V19

CELL  0.71073  12.4770  12.4770   4.8820   90.000   90.000  120.000
ZERR    8.000   0.0018   0.0018   0.0010    0.000    0.000    0.000
LATT -1
SYMM -Y, X-Y, Z
SYMM -X+Y, -X, Z
SYMM X, Y, -Z
SYMM -Y, X-Y, -Z
SYMM -X+Y, -X, -Z
SYMM -Y, -X, Z
SYMM -X+Y, Y, Z
SYMM X, X-Y, Z
SYMM -Y, -X, -Z
SYMM -X+Y, Y, -Z
SYMM X, X-Y, -Z
SFAC O H V CO
UNIT 8 8 8 8
L.S. 10
BOND
LIST 6
FMAP 2
PLAN 20
V001  3  0.70499  0.85249  0.50000 10.25000  0.03357  23.79
V002  3  0.57408  0.64575  0.00000 10.50000  0.04062  20.65
V003  3  0.65532  0.57530  0.50000 10.50000  0.05881  19.28
V004  3  0.33333  0.66666  0.00000 10.08333  0.04893  17.47
V005  3  0.84391  0.68783  0.00000 10.25000  0.05208  17.44
O006  1  0.33334  0.66667  0.39433 10.16667  0.05009  11.78
O007  1  0.99999  1.00001  0.85919 10.16667  0.00709  10.91
O008  1  0.83244  0.91623  0.50000 10.25000  0.00010  10.89
O009  1  0.66667  0.33333  0.76023 10.16667  0.00010   9.53
O00A  1  0.47220  0.52780  0.65303 10.50000  0.03636   8.79
O00B  1  0.59668  0.79834  0.21825 10.50000  0.01330   8.48
O00C  1  0.78868  0.57737  0.00000 10.25000  0.07544   8.39
O00D  1  0.50599  0.49401  0.50000 10.25000  0.00010   7.95
O00E  1  0.58750  0.41250  0.65273 10.50000  0.00971   7.38
O00F  1  0.73395  0.67084  0.18351 11.00000  0.04550   5.56
HKLF 4
END
