TITL 1230_expF_1_5_expS_1_5_1230_c.res in P-62c
REM Old TITL 1230 in P6(3)mc
REM SHELXT solution in P-62c: R1 0.341, Rweak 0.042, Alpha 0.247
REM <I/s>   0.000 for    0 systematic absences,  Orientation as input
REM Flack x = -0.062 ( 1.232 ) from    17 Parsons' quotients
REM Formula found by SHELXT:  O34 V9

CELL  0.71073  12.4770  12.4770   4.8820   90.000   90.000  120.000
ZERR    8.000   0.0018   0.0018   0.0010    0.000    0.000    0.000
LATT -1
SYMM -Y, X-Y, Z
SYMM -X+Y, -X, Z
SYMM X, Y, 1/2-Z
SYMM -Y, X-Y, 1/2-Z
SYMM -X+Y, -X, 1/2-Z
SYMM Y, X, -Z
SYMM X-Y, -Y, -Z
SYMM -X, -X+Y, -Z
SYMM Y, X, 1/2+Z
SYMM X-Y, -Y, 1/2+Z
SYMM -X, -X+Y, 1/2+Z
SFAC O H V CO
UNIT 8 8 8 8
L.S. 10
BOND
LIST 6
FMAP 2
PLAN 20
V001  3  0.07302  0.42023  0.25000 10.50000  0.05356  22.79
V002  3  0.15048  0.29804  0.75000 10.50000  0.07200  21.86
V003  3  0.35765  0.43049  0.25000 10.50000  0.08602  21.75
O004  1  0.00000  0.00000  1.00000 10.16667  0.02162  12.52
O005  1  0.33333  0.66666  0.75000 10.16667  0.07290  11.88
O006  1  0.33333  0.66666  0.25000 10.16667  0.00010   9.97
O007  1  0.37584  0.57916  0.37711 11.00000  0.06159   8.13
O008  1  0.19351  0.39495  0.50306 11.00000  0.05054   6.96
O009  1  0.45488  0.51806  0.56718 11.00000  0.04171   6.52
O00A  1  0.08570  0.34480  0.62379 11.00000  0.05293   6.20
O00B  1  0.00000  0.00000  0.75000 10.16667  0.03309   5.88
O00C  1  0.06006  0.15831  0.63299 11.00000  0.07525   5.47
HKLF 4
END
