TITL 1230_expF_1_4_expS_0_5_1230_a.res in P6(3)mc
REM Old TITL 1230 in P6(3)mc
REM SHELXT solution in P6(3)mc: R1 0.265, Rweak 0.030, Alpha 0.220
REM <I/s>   0.000 for    0 systematic absences,  Orientation as input
REM Flack x = -0.436 ( 0.478 ) from   122 Parsons' quotients
REM Formula found by SHELXT:  O22 V9

CELL  0.71073  12.4770  12.4770   4.8820   90.000   90.000  120.000
ZERR    8.000   0.0018   0.0018   0.0010    0.000    0.000    0.000
LATT -1
SYMM -Y, X-Y, Z
SYMM -X+Y, -X, Z
SYMM -X, -Y, 1/2+Z
SYMM Y, -X+Y, 1/2+Z
SYMM X-Y, X, 1/2+Z
SYMM -Y, -X, Z
SYMM -X+Y, Y, Z
SYMM X, X-Y, Z
SYMM Y, X, 1/2+Z
SYMM X-Y, -Y, 1/2+Z
SYMM -X, -X+Y, 1/2+Z
SFAC O H V CO
UNIT 8 8 8 8
L.S. 10
BOND
LIST 6
FMAP 2
PLAN 20
V001  3  0.15141  0.84859  0.21581 10.50000  0.06191  17.74
V002  3  0.35171  0.92273  0.69912 11.00000  0.05777  17.32
O003  1  0.00000  1.00000  0.52518 10.16667  0.00950  11.69
O004  1  0.39952  0.79904  0.84628 10.50000  0.04170  10.49
O005  1  0.33334  0.66666  0.94708 10.16667  0.05185   9.99
O006  1  0.33334  0.66666  0.74950 10.16667  0.03090   9.63
O007  1  0.19476  0.80524  0.52992 10.50000  0.01346   9.38
O008  1  0.47991  0.95983  0.39496 10.50000  0.02680   8.56
O009  1  0.07726  0.92274  0.31202 10.50000  0.00814   7.23
O00A  1  0.06552  0.73253  0.05292 11.00000  0.02823   6.33
O00B  1  0.33334  0.66666  0.46107 10.16667  0.03931   5.15
HKLF 4
END
