TITL 1230_expF_1_3_expS_1_1_1230_a.res in P6(3)mc
REM Old TITL 1230 in P6(3)mc
REM SHELXT solution in P6(3)mc: R1 0.192, Rweak 0.043, Alpha 0.098
REM <I/s>   0.000 for    0 systematic absences,  Orientation as input
REM Flack x = -1.101 ( 0.440 ) from    92 Parsons' quotients
REM Formula found by SHELXT:  O19 V11

CELL  0.71073  12.4770  12.4770   4.8820   90.000   90.000  120.000
ZERR    8.000   0.0018   0.0018   0.0010    0.000    0.000    0.000
LATT -1
SYMM -Y, X-Y, Z
SYMM -X+Y, -X, Z
SYMM -X, -Y, 1/2+Z
SYMM Y, -X+Y, 1/2+Z
SYMM X-Y, X, 1/2+Z
SYMM -Y, -X, Z
SYMM -X+Y, Y, Z
SYMM X, X-Y, Z
SYMM Y, X, 1/2+Z
SYMM X-Y, -Y, 1/2+Z
SYMM -X, -X+Y, 1/2+Z
SFAC O H V CO
UNIT 8 8 8 8
L.S. 10
BOND
LIST 6
FMAP 2
PLAN 20
V001  3  0.42659  0.34970  0.67454 11.00000  0.03616  20.39
V002  3  0.29817  0.14909  0.20388 10.50000  0.04377  20.38
V003  3  0.00000  0.00000  0.04866 10.16667  0.08345  16.25
V004  3  0.66667  0.33334  0.97460 10.16667  0.10344  16.11
O005  1  0.52539  0.47461  0.38048 10.50000  0.00010  10.85
O006  1  0.33859  0.27300  0.02540 11.00000  0.00386  10.71
O007  1  0.38513  0.19257  0.48539 10.50000  0.00010  10.51
O008  1  0.59951  0.40049  0.82389 10.50000  0.00770  10.14
O009  1  0.66667  0.33334  0.72512 10.16667  0.02234   8.90
O00A  1  0.16195  0.08097  0.26492 10.50000  0.00804   8.02
HKLF 4
END
