TITL 1230_expF_1_5_expS_1_2_1230_d.res in P6(3)22
REM Old TITL 1230 in P6(3)mc
REM SHELXT solution in P6(3)22: R1 0.365, Rweak 0.080, Alpha 0.250
REM <I/s>   0.000 for    0 systematic absences,  Orientation as input
REM Flack x =  0.487 ( 0.639 ) from    53 Parsons' quotients
REM Formula found by SHELXT:  O3 V

CELL  0.71073  12.4770  12.4770   4.8820   90.000   90.000  120.000
ZERR    8.000   0.0018   0.0018   0.0010    0.000    0.000    0.000
LATT -1
SYMM -Y, X-Y, Z
SYMM -X+Y, -X, Z
SYMM -X, -Y, 1/2+Z
SYMM Y, -X+Y, 1/2+Z
SYMM X-Y, X, 1/2+Z
SYMM Y, X, -Z
SYMM X-Y, -Y, -Z
SYMM -X, -X+Y, -Z
SYMM -Y, -X, 1/2-Z
SYMM -X+Y, Y, 1/2-Z
SYMM X, X-Y, 1/2-Z
SFAC O H V CO
UNIT 8 8 8 8
L.S. 10
BOND
LIST 6
FMAP 2
PLAN 20
V001  3  0.64843  0.57328  0.77104 11.00000  0.05350  24.39
V002  3  0.70324  0.85162  0.75000 10.50000  0.06730  22.97
V003  3  1.00000  1.00000  1.00000 10.16667  0.13807  15.61
O004  1  0.66666  0.33333  0.25000 10.16667  0.08765  11.22
O005  1  0.66666  0.33333  0.75000 10.16667  0.00762  10.47
O006  1  0.62205  0.42387  0.62754 11.00000  0.02429  10.06
O007  1  0.61125  0.80599  0.48963 11.00000  0.03733   8.56
O008  1  0.51621  0.45591  0.42234 11.00000  0.03287   7.78
O009  1  1.00000  1.00000  0.75000 10.16667  0.05959   6.69
O00A  1  0.66285  0.72224  0.59186 11.00000  0.04506   6.59
O00B  1  0.53605  0.46394  0.25000 10.50000  0.20163   6.18
HKLF 4
END
