TITL 1230_expF_0_6_expS_1_4_1230_a.res in P-62m
REM Old TITL 1230 in P6(3)mc
REM SHELXT solution in P-62m: R1 0.216, Rweak 0.358, Alpha 0.274
REM <I/s>   0.000 for    0 systematic absences,  Orientation as input
REM Formula found by SHELXT:  O64 Co3

CELL  0.71073  12.4770  12.4770   4.8820   90.000   90.000  120.000
ZERR    8.000   0.0018   0.0018   0.0010    0.000    0.000    0.000
LATT -1
SYMM -Y, X-Y, Z
SYMM -X+Y, -X, Z
SYMM X, Y, -Z
SYMM -Y, X-Y, -Z
SYMM -X+Y, -X, -Z
SYMM Y, X, -Z
SYMM X-Y, -Y, -Z
SYMM -X, -X+Y, -Z
SYMM Y, X, Z
SYMM X-Y, -Y, Z
SYMM -X, -X+Y, Z
SFAC O H V CO
UNIT 8 8 8 8
L.S. 10
BOND
LIST 6
FMAP 2
PLAN 20
CO01  4  0.74927  1.00000  1.00000 10.25000  0.01180  48.31
O002  1  0.70109  0.59041  0.50000 10.50000  0.00010  11.90
O003  1  0.69973  0.69973  1.00000 10.25000  0.00840  10.64
O004  1  0.84282  0.84282  1.00000 10.25000  0.07629   8.25
O005  1  1.00000  0.99999  1.00000 10.08333  0.14228   8.23
O006  1  0.40665  0.37597  0.50000 10.50000  0.05030   7.61
O007  1  0.44276  0.20302  1.00000 10.50000  0.07336   7.08
O008  1  0.57082  0.48723  0.50000 10.50000  0.00010   6.67
O009  1  0.51849  0.34147  1.00000 10.50000  0.04655   6.56
O00A  1  0.76659  0.68896  0.50000 10.50000  0.04782   5.86
O00B  1  0.63695  0.44018  1.00000 10.50000  0.07058   5.26
O00C  1  0.75484  0.75484  0.50000 10.50000  0.09702   5.17
O00D  1  0.56100  0.56099  1.00000 10.25000  0.00010   4.69
O00E  1  0.61701  0.35327  0.50000 10.50000  0.03183   4.47
HKLF 4
END
