TITL 1230_expF_1_2_expS_1_5_1230_c.res in P-62c
REM Old TITL 1230 in P6(3)mc
REM SHELXT solution in P-62c: R1 0.269, Rweak 0.089, Alpha 0.253
REM <I/s>   0.000 for    0 systematic absences,  Orientation as input
REM Flack x =  0.450 ( 0.626 ) from    20 Parsons' quotients
REM Formula found by SHELXT:  O10 V2 Co

CELL  0.71073  12.4770  12.4770   4.8820   90.000   90.000  120.000
ZERR    8.000   0.0018   0.0018   0.0010    0.000    0.000    0.000
LATT -1
SYMM -Y, X-Y, Z
SYMM -X+Y, -X, Z
SYMM X, Y, 1/2-Z
SYMM -Y, X-Y, 1/2-Z
SYMM -X+Y, -X, 1/2-Z
SYMM Y, X, -Z
SYMM X-Y, -Y, -Z
SYMM -X, -X+Y, -Z
SYMM Y, X, 1/2+Z
SYMM X-Y, -Y, 1/2+Z
SYMM -X, -X+Y, 1/2+Z
SFAC O H V CO
UNIT 8 8 8 8
L.S. 10
BOND
LIST 6
FMAP 2
PLAN 20
CO01  4  0.92392  0.35208  0.75000 10.50000  0.03733  26.45
V002  3  0.85665  0.15988  0.25000 10.50000  0.03295  20.93
V003  3  0.58251 -0.06813  0.25000 10.50000  0.04884  19.09
O004  1  0.33334 -0.33333 -0.05202 10.33333  0.00010  13.22
O005  1  1.00000  0.00000  0.00000 10.16667  0.00010  11.50
O006  1  0.42289 -0.19583  0.11124 11.00000  0.01013   8.61
O007  1  0.76188  0.01426  0.25000 10.50000  0.03723   7.99
O008  1  0.90380  0.06720  0.25000 10.50000  0.00010   7.01
O009  1  0.80904  0.18778  0.56028 11.00000  0.02683   6.92
O00A  1  0.92916  0.28225  0.45731 11.00000  0.02411   6.74
O00B  1  0.57129  0.06749  0.25000 10.50000  0.04720   5.82
HKLF 4
END
