TITL 1230_expF_1_5_expS_1_0_1230_a.res in P6(3)mc
REM Old TITL 1230 in P6(3)mc
REM SHELXT solution in P6(3)mc: R1 0.333, Rweak 0.028, Alpha 0.153
REM <I/s>   0.000 for    0 systematic absences,  Orientation as input
REM Flack x = -0.235 ( 0.411 ) from    84 Parsons' quotients
REM Formula found by SHELXT:  O8 V5

CELL  0.71073  12.4770  12.4770   4.8820   90.000   90.000  120.000
ZERR    8.000   0.0018   0.0018   0.0010    0.000    0.000    0.000
LATT -1
SYMM -Y, X-Y, Z
SYMM -X+Y, -X, Z
SYMM -X, -Y, 1/2+Z
SYMM Y, -X+Y, 1/2+Z
SYMM X-Y, X, 1/2+Z
SYMM -Y, -X, Z
SYMM -X+Y, Y, Z
SYMM X, X-Y, Z
SYMM Y, X, 1/2+Z
SYMM X-Y, -Y, 1/2+Z
SYMM -X, -X+Y, 1/2+Z
SFAC O H V CO
UNIT 8 8 8 8
L.S. 10
BOND
LIST 6
FMAP 2
PLAN 20
V001  3  0.65194  0.57463  0.72990 11.00000  0.04936  19.02
V002  3  0.85048  0.70098  0.25145 10.50000  0.07125  17.10
V003  3  0.66666  0.33334  0.98310 10.16667  0.08597  15.50
O004  1  0.59885  0.40115  0.89696 10.50000  0.01301  11.93
O005  1  0.80445  0.60890  0.57487 10.50000  0.03115  11.31
O006  1  0.66666  0.33334  0.38056 10.16667  0.03069  10.76
O007  1  1.00000  1.00000  0.01690 10.16667  0.02980  10.68
O008  1  1.00000  1.00000  0.23230 10.16667  0.06852   8.67
O009  1  0.47450  0.52550  0.88407 10.50000  0.02469   7.79
O00A  1  0.66666  0.33334  0.77561 10.16667  0.07875   6.86
O00B  1  0.92433  0.84867  0.32901 10.50000  0.02019   6.24
HKLF 4
END
