TITL 1230_expF_1_3_expS_1_5_1230_d.res in P6(3)22
REM Old TITL 1230 in P6(3)mc
REM SHELXT solution in P6(3)22: R1 0.286, Rweak 0.078, Alpha 0.236
REM <I/s>   0.000 for    0 systematic absences,  Orientation as input
REM Flack x = -0.183 ( 0.771 ) from    19 Parsons' quotients
REM Formula found by SHELXT:  O3 V

CELL  0.71073  12.4770  12.4770   4.8820   90.000   90.000  120.000
ZERR    8.000   0.0018   0.0018   0.0010    0.000    0.000    0.000
LATT -1
SYMM -Y, X-Y, Z
SYMM -X+Y, -X, Z
SYMM -X, -Y, 1/2+Z
SYMM Y, -X+Y, 1/2+Z
SYMM X-Y, X, 1/2+Z
SYMM Y, X, -Z
SYMM X-Y, -Y, -Z
SYMM -X, -X+Y, -Z
SYMM -Y, -X, 1/2-Z
SYMM -X+Y, Y, 1/2-Z
SYMM X, X-Y, 1/2-Z
SFAC O H V CO
UNIT 8 8 8 8
L.S. 10
BOND
LIST 6
FMAP 2
PLAN 20
V001  3  0.42786  0.35496  0.77165 11.00000  0.03795  23.39
V002  3  0.30102  0.15051  0.25000 10.50000  0.03930  23.24
V003  3  0.00000  0.00000  0.00000 10.16667  0.12030  15.86
O004  1  0.66666  0.33333  0.48778 10.33333  0.00746  12.19
O005  1  0.34138  0.26414  0.38616 11.00000  0.02681  10.85
O006  1  0.66667  0.33333  0.75000 10.16667  0.06972   8.61
O007  1  0.51662  0.43812  0.39340 11.00000  0.11595   7.60
O008  1  0.58401  0.38194  0.61677 11.00000  0.03766   7.47
O009  1  0.17240  0.08619  0.25000 10.50000  0.10825   6.57
O00A  1  0.37483  0.20181  0.58172 11.00000  0.00276   6.55
HKLF 4
END
