TITL 1230_expF_1_3_expS_0_6_1230_b.res in P-62c
REM Old TITL 1230 in P6(3)mc
REM SHELXT solution in P-62c: R1 0.258, Rweak 0.112, Alpha 0.235
REM <I/s>   0.000 for    0 systematic absences,  Orientation as input
REM Flack x =  0.223 ( 0.221 ) from   138 Parsons' quotients
REM Formula found by SHELXT:  O46 V6 Co3

CELL  0.71073  12.4770  12.4770   4.8820   90.000   90.000  120.000
ZERR    8.000   0.0018   0.0018   0.0010    0.000    0.000    0.000
LATT -1
SYMM -Y, X-Y, Z
SYMM -X+Y, -X, Z
SYMM X, Y, 1/2-Z
SYMM -Y, X-Y, 1/2-Z
SYMM -X+Y, -X, 1/2-Z
SYMM Y, X, -Z
SYMM X-Y, -Y, -Z
SYMM -X, -X+Y, -Z
SYMM Y, X, 1/2+Z
SYMM X-Y, -Y, 1/2+Z
SYMM -X, -X+Y, 1/2+Z
SFAC O H V CO
UNIT 8 8 8 8
L.S. 10
BOND
LIST 6
FMAP 2
PLAN 20
CO01  4  0.35946  0.92751  0.25000 10.50000  0.05092  28.71
V002  3  0.70233  0.85730  0.75000 10.50000  0.02869  23.22
V003  3  0.57906  0.91896  0.25000 10.50000  0.03839  18.76
O004  1  0.99999  1.00000  1.00000 10.16667  0.00010  14.85
O005  1  0.33334  0.66666 -0.00901 10.33333  0.03421  12.49
O006  1  0.33333  0.66667  0.25000 10.16667  0.00010   9.02
O007  1  0.53046  1.06044  0.40623 11.00000  0.03329   7.50
O008  1  0.63904  0.91422  0.53516 11.00000  0.02436   7.34
O009  1  0.85281  0.92815  0.75000 10.50000  0.07383   7.28
O00A  1  0.37417  0.80082  0.13346 11.00000  0.03611   6.80
O00B  1  0.52281  1.10791  0.25000 10.50000  0.02300   6.60
O00C  1  0.68221  0.72413  0.54880 11.00000  0.02422   6.55
O00D  1  0.50581  0.97812  0.25000 10.50000  0.01210   6.45
O00E  1  0.53649  0.75013  0.75000 10.50000  0.03226   6.38
O00F  1  0.62324  0.81054  0.44718 11.00000  0.02364   6.18
HKLF 4
END
