TITL 1230_expF_1_3_expS_0_6_1230_d.res in P6(3)22
REM Old TITL 1230 in P6(3)mc
REM SHELXT solution in P6(3)22: R1 0.318, Rweak 0.057, Alpha 0.236
REM <I/s>   0.000 for    0 systematic absences,  Orientation as input
REM Flack x = -0.378 ( 0.437 ) from    94 Parsons' quotients
REM Formula found by SHELXT:  O3 V

CELL  0.71073  12.4770  12.4770   4.8820   90.000   90.000  120.000
ZERR    8.000   0.0018   0.0018   0.0010    0.000    0.000    0.000
LATT -1
SYMM -Y, X-Y, Z
SYMM -X+Y, -X, Z
SYMM -X, -Y, 1/2+Z
SYMM Y, -X+Y, 1/2+Z
SYMM X-Y, X, 1/2+Z
SYMM Y, X, -Z
SYMM X-Y, -Y, -Z
SYMM -X, -X+Y, -Z
SYMM -Y, -X, 1/2-Z
SYMM -X+Y, Y, 1/2-Z
SYMM X, X-Y, 1/2-Z
SFAC O H V CO
UNIT 8 8 8 8
L.S. 10
BOND
LIST 6
FMAP 2
PLAN 20
V001  3  0.57600  0.64889  0.70575 11.00000  0.04536  23.39
V002  3  0.69950  0.84975  0.25000 10.50000  0.05339  23.24
V003  3  1.00000  1.00000  0.50000 10.16667  0.04649  15.86
O004  1  0.33334  0.66666  1.02158 10.33333  0.00010  12.19
O005  1  0.67721  0.93777  0.45591 11.00000  0.02707  10.85
O006  1  0.33334  0.66666  0.75000 10.16667  0.20521   8.61
O007  1  0.47226  0.53252  0.41952 11.00000  0.03057   7.60
O008  1  0.38397  0.58360  0.63983 11.00000  0.02636   7.47
O009  1  0.82449  0.91225  0.25000 10.50000  0.00869   6.57
O00A  1  0.61755  0.81529  0.56128 11.00000  0.05446   6.55
HKLF 4
END
