TITL 1230_expF_1_4_expS_0_7_1230_b.res in P-6m2
REM Old TITL 1230 in P6(3)mc
REM SHELXT solution in P-6m2: R1 0.269, Rweak 0.039, Alpha 0.191
REM <I/s>   0.000 for    0 systematic absences,  Orientation as input
REM Flack x =  0.162 ( 0.288 ) from   155 Parsons' quotients
REM Formula found by SHELXT:  O47 V17 Co3

CELL  0.71073  12.4770  12.4770   4.8820   90.000   90.000  120.000
ZERR    8.000   0.0018   0.0018   0.0010    0.000    0.000    0.000
LATT -1
SYMM -Y, X-Y, Z
SYMM -X+Y, -X, Z
SYMM X, Y, -Z
SYMM -Y, X-Y, -Z
SYMM -X+Y, -X, -Z
SYMM -Y, -X, Z
SYMM -X+Y, Y, Z
SYMM X, X-Y, Z
SYMM -Y, -X, -Z
SYMM -X+Y, Y, -Z
SYMM X, X-Y, -Z
SFAC O H V CO
UNIT 8 8 8 8
L.S. 10
BOND
LIST 6
FMAP 2
PLAN 20
CO01  4  0.48295  0.51705  0.50000 10.25000  0.05845  26.38
V002  3  0.75777  0.74233  0.50000 10.50000  0.04749  22.59
V003  3  0.33333  0.66666  1.00000 10.08333  0.13431  21.96
V004  3  0.41168  0.31922  0.00000 10.50000  0.04162  18.53
V005  3  0.66666  0.33334  0.00000 10.08333  0.07080  16.53
V006  3  0.64336  0.82168  1.00000 10.25000  0.07176  15.81
O007  1  0.00000  0.00000 -0.21928 10.16667  0.00010  14.04
O008  1  0.66666  0.33334 -0.50000 10.08333  0.02763  12.03
O009  1  0.33334  0.66666  0.82751 10.16667  0.04908   9.77
O00A  1  0.39358  0.60642  0.50000 10.25000  0.01882   9.35
O00B  1  0.13400  0.06699 -0.33070 10.50000  0.00749   9.33
O00C  1  0.28896  0.14448 -0.11389 10.50000  0.00812   8.87
O00D  1  0.52941  0.47059  0.21561 10.50000  0.00384   8.84
O00E  1  0.49313  0.74656  0.85544 10.50000  0.01921   7.72
O00F  1  0.66093  0.73730  0.81834 11.00000  0.04556   6.17
O00G  1  0.35376  0.17688  0.00000 10.25000  0.00927   5.78
HKLF 4
END
