TITL 1230_expF_1_3_expS_0_5_1230_c.res in P-62c
REM Old TITL 1230 in P6(3)mc
REM SHELXT solution in P-62c: R1 0.269, Rweak 0.066, Alpha 0.235
REM <I/s>   0.000 for    0 systematic absences,  Orientation as input
REM Flack x =  0.251 ( 0.216 ) from   139 Parsons' quotients
REM Formula found by SHELXT:  O46 V6 Co3

CELL  0.71073  12.4770  12.4770   4.8820   90.000   90.000  120.000
ZERR    8.000   0.0018   0.0018   0.0010    0.000    0.000    0.000
LATT -1
SYMM -Y, X-Y, Z
SYMM -X+Y, -X, Z
SYMM X, Y, 1/2-Z
SYMM -Y, X-Y, 1/2-Z
SYMM -X+Y, -X, 1/2-Z
SYMM Y, X, -Z
SYMM X-Y, -Y, -Z
SYMM -X, -X+Y, -Z
SYMM Y, X, 1/2+Z
SYMM X-Y, -Y, 1/2+Z
SYMM -X, -X+Y, 1/2+Z
SFAC O H V CO
UNIT 8 8 8 8
L.S. 10
BOND
LIST 6
FMAP 2
PLAN 20
CO01  4  0.35207  0.91723  0.25000 10.50000  0.05163  28.71
V002  3  0.70242  0.86013  0.75000 10.50000  0.02791  23.22
V003  3  0.58373  0.92915  0.25000 10.50000  0.03589  18.76
O004  1  1.00000  1.00000  1.00000 10.16667  0.01005  14.85
O005  1  0.33334  0.66667 -0.00670 10.33333  0.10236  12.49
O006  1  0.33334  0.66667  0.25000 10.16667  0.01310   9.02
O007  1  0.54192  1.05932  0.42989 11.00000  0.01654   7.50
O008  1  0.65145  0.91925  0.54299 11.00000  0.02992   7.34
O009  1  0.83578  0.93260  0.75000 10.50000  0.08739   7.28
O00A  1  0.36642  0.78377  0.14011 11.00000  0.04297   6.80
O00B  1  0.50650  1.08069  0.25000 10.50000  0.05324   6.60
O00C  1  0.68005  0.72246  0.54975 11.00000  0.02669   6.55
O00D  1  0.47253  0.98172  0.25000 10.50000  0.03004   6.45
O00E  1  0.53961  0.79619  0.75000 10.50000  0.03597   6.38
O00F  1  0.62476  0.81459  0.44215 11.00000  0.03163   6.18
HKLF 4
END
