TITL 1230_expF_1_5_expS_0_7_1230_c.res in P-62c
REM Old TITL 1230 in P6(3)mc
REM SHELXT solution in P-62c: R1 0.355, Rweak 0.049, Alpha 0.247
REM <I/s>   0.000 for    0 systematic absences,  Orientation as input
REM Flack x = -2.156 ( 0.725 ) from   133 Parsons' quotients
REM Formula found by SHELXT:  O34 V9

CELL  0.71073  12.4770  12.4770   4.8820   90.000   90.000  120.000
ZERR    8.000   0.0018   0.0018   0.0010    0.000    0.000    0.000
LATT -1
SYMM -Y, X-Y, Z
SYMM -X+Y, -X, Z
SYMM X, Y, 1/2-Z
SYMM -Y, X-Y, 1/2-Z
SYMM -X+Y, -X, 1/2-Z
SYMM Y, X, -Z
SYMM X-Y, -Y, -Z
SYMM -X, -X+Y, -Z
SYMM Y, X, 1/2+Z
SYMM X-Y, -Y, 1/2+Z
SYMM -X, -X+Y, 1/2+Z
SFAC O H V CO
UNIT 8 8 8 8
L.S. 10
BOND
LIST 6
FMAP 2
PLAN 20
V001  3 -0.07010  0.58357  0.25000 10.50000  0.04590  22.79
V002  3  0.14101  0.84609  0.25000 10.50000  0.04036  21.86
V003  3  0.35198  0.91506  0.75000 10.50000  0.05432  21.75
O004  1  0.00000  0.99999  0.50000 10.16667  0.00010  12.52
O005  1  0.33334  0.66667  0.25000 10.16667  0.04022  11.88
O006  1  0.33333  0.66667  0.75000 10.16667  0.11313   9.97
O007  1  0.38710  0.79247  0.66159 11.00000  0.09799   8.13
O008  1  0.20434  0.81756  0.48754 11.00000  0.04435   6.96
O009  1  0.45469  0.92358  0.39930 11.00000  0.04766   6.52
O00A  1  0.05682  0.72396  0.35249 11.00000  0.03735   6.20
O00B  1  0.00000  1.00000  0.25000 10.16667  0.20410   5.88
O00C  1  0.07991  0.93143  0.25000 11.00000  0.09940   5.47
HKLF 4
END
