TITL 1230_expF_1_5_expS_0_6_1230_a.res in P6(3)mc
REM Old TITL 1230 in P6(3)mc
REM SHELXT solution in P6(3)mc: R1 0.323, Rweak 0.032, Alpha 0.153
REM <I/s>   0.000 for    0 systematic absences,  Orientation as input
REM Flack x = -0.761 ( 0.409 ) from   125 Parsons' quotients
REM Formula found by SHELXT:  O8 V5

CELL  0.71073  12.4770  12.4770   4.8820   90.000   90.000  120.000
ZERR    8.000   0.0018   0.0018   0.0010    0.000    0.000    0.000
LATT -1
SYMM -Y, X-Y, Z
SYMM -X+Y, -X, Z
SYMM -X, -Y, 1/2+Z
SYMM Y, -X+Y, 1/2+Z
SYMM X-Y, X, 1/2+Z
SYMM -Y, -X, Z
SYMM -X+Y, Y, Z
SYMM X, X-Y, Z
SYMM Y, X, 1/2+Z
SYMM X-Y, -Y, 1/2+Z
SYMM -X, -X+Y, 1/2+Z
SFAC O H V CO
UNIT 8 8 8 8
L.S. 10
BOND
LIST 6
FMAP 2
PLAN 20
V001  3  0.65352  0.57646  0.53913 11.00000  0.04870  19.02
V002  3  0.85130  0.70260  0.06925 10.50000  0.07680  17.10
V003  3  0.66666  0.33333  0.80054 10.16667  0.07528  15.50
O004  1  0.59970  0.40030  0.71592 10.50000  0.00487  11.93
O005  1  0.80232  0.60463  0.36929 10.50000  0.04626  11.31
O006  1  0.66666  0.33333  1.15565 10.16667  0.01782  10.76
O007  1  1.00000  1.00000 -0.15565 10.16667  0.04215  10.68
O008  1  1.00000  1.00000  0.02690 10.16667  0.07874   8.67
O009  1  0.52692  0.47307  0.21732 10.50000  0.01622   7.79
O00A  1  0.66666  0.33332  0.51134 10.16667  0.07284   6.86
O00B  1  0.92577  0.85154  0.16718 10.50000  0.02834   6.24
HKLF 4
END
