TITL 1230_expF_1_3_expS_1_1_1230_b.res in P-6m2
REM Old TITL 1230 in P6(3)mc
REM SHELXT solution in P-6m2: R1 0.250, Rweak 0.069, Alpha 0.197
REM <I/s>   0.000 for    0 systematic absences,  Orientation as input
REM Flack x =  0.381 ( 0.441 ) from   111 Parsons' quotients
REM Formula found by SHELXT:  O45 V19

CELL  0.71073  12.4770  12.4770   4.8820   90.000   90.000  120.000
ZERR    8.000   0.0018   0.0018   0.0010    0.000    0.000    0.000
LATT -1
SYMM -Y, X-Y, Z
SYMM -X+Y, -X, Z
SYMM X, Y, -Z
SYMM -Y, X-Y, -Z
SYMM -X+Y, -X, -Z
SYMM -Y, -X, Z
SYMM -X+Y, Y, Z
SYMM X, X-Y, Z
SYMM -Y, -X, -Z
SYMM -X+Y, Y, -Z
SYMM X, X-Y, -Z
SFAC O H V CO
UNIT 8 8 8 8
L.S. 10
BOND
LIST 6
FMAP 2
PLAN 20
V001  3  0.70476  0.85238  0.50000 10.25000  0.03109  23.79
V002  3  0.57397  0.64596  0.00000 10.50000  0.04025  20.65
V003  3  0.65462  0.57531  0.50000 10.50000  0.05444  19.28
V004  3  0.33333  0.66667  0.00000 10.08333  0.05021  17.47
V005  3  0.84338  0.68676  0.00000 10.25000  0.05609  17.44
O006  1  0.33333  0.66667  0.38718 10.16667  0.05619  11.78
O007  1  1.00000  1.00000  0.86078 10.16667  0.00010  10.91
O008  1  0.83202  0.91601  0.50000 10.25000  0.00010  10.89
O009  1  0.66666  0.33333  0.24085 10.16667  0.00010   9.53
O00A  1  0.47246  0.52753  0.65090 10.50000  0.04559   8.79
O00B  1  0.59649  0.79825  0.21689 10.50000  0.01345   8.48
O00C  1  0.78594  0.57189  0.00000 10.25000  0.05986   8.39
O00D  1  0.50638  0.49362  0.50000 10.25000  0.00010   7.95
O00E  1  0.58955  0.41044  0.34280 10.50000  0.00953   7.38
O00F  1  0.73244  0.66958  0.18159 11.00000  0.04456   5.56
HKLF 4
END
