TITL 1230_expF_1_3_expS_0_9_1230_a.res in P6(3)mc
REM Old TITL 1230 in P6(3)mc
REM SHELXT solution in P6(3)mc: R1 0.217, Rweak 0.046, Alpha 0.098
REM <I/s>   0.000 for    0 systematic absences,  Orientation as input
REM Flack x = -1.366 ( 0.437 ) from   112 Parsons' quotients
REM Formula found by SHELXT:  O19 V11

CELL  0.71073  12.4770  12.4770   4.8820   90.000   90.000  120.000
ZERR    8.000   0.0018   0.0018   0.0010    0.000    0.000    0.000
LATT -1
SYMM -Y, X-Y, Z
SYMM -X+Y, -X, Z
SYMM -X, -Y, 1/2+Z
SYMM Y, -X+Y, 1/2+Z
SYMM X-Y, X, 1/2+Z
SYMM -Y, -X, Z
SYMM -X+Y, Y, Z
SYMM X, X-Y, Z
SYMM Y, X, 1/2+Z
SYMM X-Y, -Y, 1/2+Z
SYMM -X, -X+Y, 1/2+Z
SFAC O H V CO
UNIT 8 8 8 8
L.S. 10
BOND
LIST 6
FMAP 2
PLAN 20
V001  3  0.42960  0.35121  0.45855 11.00000  0.04491  20.39
V002  3  0.14970  0.29941  0.48249 10.50000  0.03482  20.38
V003  3  0.00000  0.00000  0.81663 10.16667  0.09901  16.25
V004  3  0.66666  0.33333  0.76405 10.16667  0.07864  16.11
O005  1  0.53439  0.46561  0.18337 10.50000  0.00177  10.85
O006  1  0.27521  0.33911  0.31327 11.00000  0.00534  10.71
O007  1  0.18967  0.37935  0.76143 10.50000  0.00293  10.51
O008  1  0.60542  0.39458  0.59907 10.50000  0.01889  10.14
O009  1  0.66666  0.33334  0.52132 10.16667  0.03476   8.90
O00A  1  0.07777  0.15553  0.58979 10.50000  0.01536   8.02
HKLF 4
END
