TITL 1230_expF_1_3_expS_0_8_1230_c.res in P-62c
REM Old TITL 1230 in P6(3)mc
REM SHELXT solution in P-62c: R1 0.256, Rweak 0.062, Alpha 0.235
REM <I/s>   0.000 for    0 systematic absences,  Orientation as input
REM Flack x =  0.471 ( 0.213 ) from   127 Parsons' quotients
REM Formula found by SHELXT:  O46 V6 Co3

CELL  0.71073  12.4770  12.4770   4.8820   90.000   90.000  120.000
ZERR    8.000   0.0018   0.0018   0.0010    0.000    0.000    0.000
LATT -1
SYMM -Y, X-Y, Z
SYMM -X+Y, -X, Z
SYMM X, Y, 1/2-Z
SYMM -Y, X-Y, 1/2-Z
SYMM -X+Y, -X, 1/2-Z
SYMM Y, X, -Z
SYMM X-Y, -Y, -Z
SYMM -X, -X+Y, -Z
SYMM Y, X, 1/2+Z
SYMM X-Y, -Y, 1/2+Z
SYMM -X, -X+Y, 1/2+Z
SFAC O H V CO
UNIT 8 8 8 8
L.S. 10
BOND
LIST 6
FMAP 2
PLAN 20
CO01  4  0.64326  0.07577  0.25000 10.50000  0.05782  28.71
V002  3  0.85989  0.15748  0.75000 10.50000  0.02347  23.22
V003  3  0.42117  0.07467  0.25000 10.50000  0.04190  18.76
O004  1  1.00000  0.00000  1.00000 10.16667  0.00010  14.85
O005  1  0.66666  0.33333  0.48880 10.33333  0.00703  12.49
O006  1  0.66666  0.33333  0.25000 10.16667  0.00694   9.02
O007  1  0.46757 -0.06262  0.11013 11.00000  0.02119   7.50
O008  1  0.90809  0.26431  0.55736 11.00000  0.03202   7.34
O009  1  0.91570  0.08002  0.75000 10.50000  0.01171   7.28
O00A  1  0.62811  0.20653  0.34473 11.00000  0.05193   6.80
O00B  1  0.47759 -0.10940  0.25000 10.50000  0.00020   6.60
O00C  1  0.71529  0.04262  0.52044 11.00000  0.01934   6.55
O00D  1  0.51894  0.03583  0.25000 10.50000  0.00564   6.45
O00E  1  0.83323  0.27186  0.75000 10.50000  0.02682   6.38
O00F  1  0.80368  0.18525  0.45850 11.00000  0.01653   6.18
HKLF 4
END
