TITL 1230_expF_1_4_expS_1_3_1230_d.res in P-62c
REM Old TITL 1230 in P6(3)mc
REM SHELXT solution in P-62c: R1 0.287, Rweak 0.089, Alpha 0.279
REM <I/s>   0.000 for    0 systematic absences,  Orientation as input
REM Flack x = -0.467 ( 0.578 ) from    76 Parsons' quotients
REM Formula found by SHELXT:  O35 V9

CELL  0.71073  12.4770  12.4770   4.8820   90.000   90.000  120.000
ZERR    8.000   0.0018   0.0018   0.0010    0.000    0.000    0.000
LATT -1
SYMM -Y, X-Y, Z
SYMM -X+Y, -X, Z
SYMM X, Y, 1/2-Z
SYMM -Y, X-Y, 1/2-Z
SYMM -X+Y, -X, 1/2-Z
SYMM Y, X, -Z
SYMM X-Y, -Y, -Z
SYMM -X, -X+Y, -Z
SYMM Y, X, 1/2+Z
SYMM X-Y, -Y, 1/2+Z
SYMM -X, -X+Y, 1/2+Z
SFAC O H V CO
UNIT 8 8 8 8
L.S. 10
BOND
LIST 6
FMAP 2
PLAN 20
V001  3  0.07986  0.42959  0.25000 10.50000  0.03166  24.04
V002  3 -0.14996  0.70114  0.25000 10.50000  0.06302  22.27
V003  3  0.07046  0.64535  0.25000 10.50000  0.07366  19.88
O004  1  0.00000  1.00000  0.25000 10.16667  0.12696  12.92
O005  1  0.33333  0.66666  0.25000 10.16667  0.10511   9.81
O006  1  0.00000  1.00000  0.00000 10.16667  0.00010   9.52
O007  1  0.33333  0.66666  0.56384 10.33333  0.04342   8.67
O008  1  0.21570  0.62061  0.36879 11.00000  0.05897   8.52
O009  1  0.05834  0.52600  0.57968 11.00000  0.04871   7.10
O00A  1 -0.02664  0.70493  0.25000 11.00000  0.10220   6.74
O00B  1 -0.08788  0.85062  0.25000 10.50000  0.08396   6.67
O00C  1 -0.19694  0.60880  0.00823 11.00000  0.03848   6.12
O00D  1 -0.18942  0.78114  0.25000 10.50000  0.01220   5.59
HKLF 4
END
