TITL 1230_expF_1_5_expS_1_1_1230_c.res in P-62c
REM Old TITL 1230 in P6(3)mc
REM SHELXT solution in P-62c: R1 0.337, Rweak 0.034, Alpha 0.247
REM <I/s>   0.000 for    0 systematic absences,  Orientation as input
REM Flack x = -0.871 ( 0.676 ) from    76 Parsons' quotients
REM Formula found by SHELXT:  O34 V9

CELL  0.71073  12.4770  12.4770   4.8820   90.000   90.000  120.000
ZERR    8.000   0.0018   0.0018   0.0010    0.000    0.000    0.000
LATT -1
SYMM -Y, X-Y, Z
SYMM -X+Y, -X, Z
SYMM X, Y, 1/2-Z
SYMM -Y, X-Y, 1/2-Z
SYMM -X+Y, -X, 1/2-Z
SYMM Y, X, -Z
SYMM X-Y, -Y, -Z
SYMM -X, -X+Y, -Z
SYMM Y, X, 1/2+Z
SYMM X-Y, -Y, 1/2+Z
SYMM -X, -X+Y, 1/2+Z
SFAC O H V CO
UNIT 8 8 8 8
L.S. 10
BOND
LIST 6
FMAP 2
PLAN 20
V001  3 -0.06811  0.58150  0.25000 10.50000  0.04879  22.79
V002  3  0.14716  0.85344  0.25000 10.50000  0.07114  21.86
V003  3  0.34801  0.91504  0.75000 10.50000  0.05174  21.75
O004  1  0.00000  1.00000  0.50000 10.16667  0.01480  12.52
O005  1  0.33334  0.66667  1.25000 10.16667  0.04251  11.88
O006  1  0.33334  0.66667  0.75000 10.16667  0.05891   9.97
O007  1  0.39766  0.79340  0.88260 11.00000  0.06585   8.13
O008  1  0.19505  0.81292  0.51561 11.00000  0.04464   6.96
O009  1  0.45565  0.93561  1.05583 11.00000  0.03995   6.52
O00A  1  0.06157  0.72066  0.39713 11.00000  0.04659   6.20
O00B  1  0.00000  1.00000  0.25000 10.16667  0.04951   5.88
O00C  1  0.07671  0.93015  0.34880 11.00000  0.05597   5.47
HKLF 4
END
