TITL 1230_expF_1_4_expS_1_3_1230_c.res in P6(3)22
REM Old TITL 1230 in P6(3)mc
REM SHELXT solution in P6(3)22: R1 0.287, Rweak 0.040, Alpha 0.284
REM <I/s>   0.000 for    0 systematic absences,  Orientation as input
REM Flack x =  0.208 ( 0.595 ) from    51 Parsons' quotients
REM Formula found by SHELXT:  O32 V9

CELL  0.71073  12.4770  12.4770   4.8820   90.000   90.000  120.000
ZERR    8.000   0.0018   0.0018   0.0010    0.000    0.000    0.000
LATT -1
SYMM -Y, X-Y, Z
SYMM -X+Y, -X, Z
SYMM -X, -Y, 1/2+Z
SYMM Y, -X+Y, 1/2+Z
SYMM X-Y, X, 1/2+Z
SYMM Y, X, -Z
SYMM X-Y, -Y, -Z
SYMM -X, -X+Y, -Z
SYMM -Y, -X, 1/2-Z
SYMM -X+Y, Y, 1/2-Z
SYMM X, X-Y, 1/2-Z
SFAC O H V CO
UNIT 8 8 8 8
L.S. 10
BOND
LIST 6
FMAP 2
PLAN 20
V001  3  0.43001  0.35189  0.23078 11.00000  0.05190  20.88
V002  3  0.29606  0.14803  0.75000 10.50000  0.05699  19.44
O003  1  0.00000  0.00000  0.75000 10.16667  0.02598  12.56
O004  1  0.66666  0.33333  0.25000 10.16667  0.19207   9.48
O005  1  0.66666  0.33333 -0.13632 10.33333  0.03443   9.39
O006  1  0.00000  0.00000  0.50000 10.16667  0.00988   9.14
O007  1  0.58904  0.37365  0.35377 11.00000  0.03705   8.51
O008  1  0.34616  0.27376  0.56156 11.00000  0.01997   7.14
O009  1  0.51980  0.45961 -0.07219 11.00000  0.02652   6.94
O00A  1  0.37300  0.20073  0.49751 11.00000  0.06556   6.33
O00B  1  0.13703  0.06851  0.75000 10.50000  0.09300   5.86
HKLF 4
END
