TITL 1230_expF_1_4_expS_1_2_1230_d.res in P-62c
REM Old TITL 1230 in P6(3)mc
REM SHELXT solution in P-62c: R1 0.288, Rweak 0.091, Alpha 0.279
REM <I/s>   0.000 for    0 systematic absences,  Orientation as input
REM Flack x =  0.162 ( 0.653 ) from    87 Parsons' quotients
REM Formula found by SHELXT:  O35 V9

CELL  0.71073  12.4770  12.4770   4.8820   90.000   90.000  120.000
ZERR    8.000   0.0018   0.0018   0.0010    0.000    0.000    0.000
LATT -1
SYMM -Y, X-Y, Z
SYMM -X+Y, -X, Z
SYMM X, Y, 1/2-Z
SYMM -Y, X-Y, 1/2-Z
SYMM -X+Y, -X, 1/2-Z
SYMM Y, X, -Z
SYMM X-Y, -Y, -Z
SYMM -X, -X+Y, -Z
SYMM Y, X, 1/2+Z
SYMM X-Y, -Y, 1/2+Z
SYMM -X, -X+Y, 1/2+Z
SFAC O H V CO
UNIT 8 8 8 8
L.S. 10
BOND
LIST 6
FMAP 2
PLAN 20
V001  3  0.91815  0.57148  0.75000 10.50000  0.03758  24.04
V002  3  1.15058  0.29850  0.75000 10.50000  0.05597  22.27
V003  3  0.92951  0.35935  0.75000 10.50000  0.06520  19.88
O004  1  1.00000  0.00000  0.75000 10.16667  0.16833  12.92
O005  1  0.66667  0.33334  0.75000 10.16667  0.13197   9.81
O006  1  1.00000  0.00000  1.00000 10.16667  0.00010   9.52
O007  1  0.66667  0.33334  0.39837 10.33333  0.07256   8.67
O008  1  0.78292  0.37376  0.64036 11.00000  0.05140   8.52
O009  1  0.93453  0.47007  0.42564 11.00000  0.03732   7.10
O00A  1  1.02539  0.31279  0.75000 11.00000  0.13915   6.74
O00B  1  1.09394  0.15661  0.75000 10.50000  0.08207   6.67
O00C  1  1.19279  0.39093  0.99339 11.00000  0.03738   6.12
O00D  1  1.19480  0.22246  0.75000 10.50000  0.01542   5.59
HKLF 4
END
