TITL 1230_expF_1_4_expS_1_5_1230_c.res in P-62c
REM Old TITL 1230 in P6(3)mc
REM SHELXT solution in P-62c: R1 0.287, Rweak 0.037, Alpha 0.279
REM <I/s>   0.000 for    0 systematic absences,  Orientation as input
REM Flack x = -1.392 ( 0.588 ) from    37 Parsons' quotients
REM Formula found by SHELXT:  O35 V9

CELL  0.71073  12.4770  12.4770   4.8820   90.000   90.000  120.000
ZERR    8.000   0.0018   0.0018   0.0010    0.000    0.000    0.000
LATT -1
SYMM -Y, X-Y, Z
SYMM -X+Y, -X, Z
SYMM X, Y, 1/2-Z
SYMM -Y, X-Y, 1/2-Z
SYMM -X+Y, -X, 1/2-Z
SYMM Y, X, -Z
SYMM X-Y, -Y, -Z
SYMM -X, -X+Y, -Z
SYMM Y, X, 1/2+Z
SYMM X-Y, -Y, 1/2+Z
SYMM -X, -X+Y, 1/2+Z
SFAC O H V CO
UNIT 8 8 8 8
L.S. 10
BOND
LIST 6
FMAP 2
PLAN 20
V001  3  0.07376  0.43136  0.25000 10.50000  0.07938  24.04
V002  3 -0.14637  0.70061  1.25000 10.50000  0.05486  22.27
V003  3 -0.07512  0.57192  0.75000 10.50000  0.03636  19.88
O004  1  0.00000  1.00000  1.25000 10.16667  0.01483  12.92
O005  1  0.33334  0.66667  0.25000 10.16667  0.04790   9.81
O006  1  0.00000  1.00000  1.00000 10.16667  0.00010   9.52
O007  1  0.33334  0.66667  0.53297 10.33333  0.00202   8.67
O008  1  0.19132  0.58075  0.37386 11.00000  0.04532   8.52
O009  1  0.06023  0.53407  0.61032 11.00000  0.03620   7.10
O00A  1 -0.07087  0.64929  1.02924 11.00000  0.02867   6.74
O00B  1 -0.09105  0.83911  1.25000 10.50000  0.03405   6.67
O00C  1 -0.18892  0.61214  1.01763 11.00000  0.05584   6.12
O00D  1 -0.20309  0.76110  1.25000 10.50000  0.02747   5.59
HKLF 4
END
