TITL 1230_expF_1_4_expS_0_9_1230_a.res in P6(3)mc
REM Old TITL 1230 in P6(3)mc
REM SHELXT solution in P6(3)mc: R1 0.252, Rweak 0.034, Alpha 0.220
REM <I/s>   0.000 for    0 systematic absences,  Orientation as input
REM Flack x = -0.890 ( 0.445 ) from   106 Parsons' quotients
REM Formula found by SHELXT:  O22 V9

CELL  0.71073  12.4770  12.4770   4.8820   90.000   90.000  120.000
ZERR    8.000   0.0018   0.0018   0.0010    0.000    0.000    0.000
LATT -1
SYMM -Y, X-Y, Z
SYMM -X+Y, -X, Z
SYMM -X, -Y, 1/2+Z
SYMM Y, -X+Y, 1/2+Z
SYMM X-Y, X, 1/2+Z
SYMM -Y, -X, Z
SYMM -X+Y, Y, Z
SYMM X, X-Y, Z
SYMM Y, X, 1/2+Z
SYMM X-Y, -Y, 1/2+Z
SYMM -X, -X+Y, 1/2+Z
SFAC O H V CO
UNIT 8 8 8 8
L.S. 10
BOND
LIST 6
FMAP 2
PLAN 20
V001  3  0.15104  0.84896  0.19910 10.50000  0.06002  17.74
V002  3  0.35093  0.92304  0.68269 11.00000  0.05548  17.32
O003  1  0.00000  1.00000  0.53042 10.16667  0.00010  11.69
O004  1  0.40043  0.80086  0.83053 10.50000  0.02835  10.49
O005  1  0.33333  0.66667  0.95617 10.16667  0.02489   9.99
O006  1  0.33333  0.66667  0.75105 10.16667  0.02878   9.63
O007  1  0.19105  0.80895  0.49542 10.50000  0.01117   9.38
O008  1  0.47462  0.94925  0.38713 10.50000  0.01335   8.56
O009  1  0.07669  0.92331  0.29136 10.50000  0.02076   7.23
O00A  1  0.06822  0.73242  0.04383 11.00000  0.02836   6.33
O00B  1  0.33333  0.66667  0.40784 10.16667  0.11390   5.15
HKLF 4
END
