TITL 1230_expF_1_2_expS_1_3_1230_c.res in P-6m2
REM Old TITL 1230 in P6(3)mc
REM SHELXT solution in P-6m2: R1 0.258, Rweak 0.231, Alpha 0.201
REM <I/s>   0.000 for    0 systematic absences,  Orientation as input
REM Flack x =  0.312 ( 0.279 ) from    66 Parsons' quotients
REM Formula found by SHELXT:  O47 V15

CELL  0.71073  12.4770  12.4770   4.8820   90.000   90.000  120.000
ZERR    8.000   0.0018   0.0018   0.0010    0.000    0.000    0.000
LATT -1
SYMM -Y, X-Y, Z
SYMM -X+Y, -X, Z
SYMM X, Y, -Z
SYMM -Y, X-Y, -Z
SYMM -X+Y, -X, -Z
SYMM -Y, -X, Z
SYMM -X+Y, Y, Z
SYMM X, X-Y, Z
SYMM -Y, -X, -Z
SYMM -X+Y, Y, -Z
SYMM X, X-Y, -Z
SFAC O H V CO
UNIT 8 8 8 8
L.S. 10
BOND
LIST 6
FMAP 2
PLAN 20
V001  3  1.18086  0.81914  0.50000 10.25000  0.03646  22.65
V002  3  0.68465  0.59489  0.50000 10.50000  0.03836  18.22
V003  3  0.98589  0.74398  1.00000 10.50000  0.04744  17.63
O004  1  0.33333  0.66667 -0.17377 10.16667  0.00010  12.74
O005  1  0.73397  0.46795  0.61420 10.50000  0.02967  10.35
O006  1  0.99999  1.00001  0.00000 10.08333  0.00010   9.91
O007  1  0.66667  0.33333  0.80133 10.16667  0.00010   9.69
O008  1  0.83071  0.66142  1.00000 10.25000  0.00010   9.55
O009  1  0.99999  1.00001  0.50000 10.08333  0.07328   8.50
O00A  1  1.00000  1.00000  0.31905 10.16667  0.09734   7.84
O00B  1  0.79704  0.59409  0.81487 10.50000  0.03676   7.64
O00C  1  1.12773  0.87226  0.76383 10.50000  0.07404   7.34
O00D  1  0.48156  0.51844  0.00000 10.25000  0.00010   6.85
O00E  1  0.92675  0.85351  0.50000 10.25000  0.12871   6.63
O00F  1  0.41839  0.58161 -0.08498 10.50000  0.01867   6.61
O00G  1  0.51316  0.48684  0.32476 10.50000  0.00754   6.55
HKLF 4
END
