TITL 1230_expF_1_3_expS_0_6_1230_a.res in P6(3)mc
REM Old TITL 1230 in P6(3)mc
REM SHELXT solution in P6(3)mc: R1 0.241, Rweak 0.053, Alpha 0.098
REM <I/s>   0.000 for    0 systematic absences,  Orientation as input
REM Flack x = -0.905 ( 0.622 ) from   125 Parsons' quotients
REM Formula found by SHELXT:  O19 V11

CELL  0.71073  12.4770  12.4770   4.8820   90.000   90.000  120.000
ZERR    8.000   0.0018   0.0018   0.0010    0.000    0.000    0.000
LATT -1
SYMM -Y, X-Y, Z
SYMM -X+Y, -X, Z
SYMM -X, -Y, 1/2+Z
SYMM Y, -X+Y, 1/2+Z
SYMM X-Y, X, 1/2+Z
SYMM -Y, -X, Z
SYMM -X+Y, Y, Z
SYMM X, X-Y, Z
SYMM Y, X, 1/2+Z
SYMM X-Y, -Y, 1/2+Z
SYMM -X, -X+Y, 1/2+Z
SFAC O H V CO
UNIT 8 8 8 8
L.S. 10
BOND
LIST 6
FMAP 2
PLAN 20
V001  3  0.43220  0.35286  0.70598 11.00000  0.04756  20.39
V002  3  0.30080  0.15040  0.22776 10.50000  0.02962  20.38
V003  3  0.00000  0.00000  0.03908 10.16667  0.09844  16.25
V004  3  0.66666  0.33334  0.96092 10.16667  0.04819  16.11
O005  1  0.54017  0.45983  0.41569 10.50000  0.00010  10.85
O006  1  0.34066  0.06792  0.04112 11.00000  0.01236  10.71
O007  1  0.38452  0.19226  0.54227 10.50000  0.01137  10.51
O008  1  0.60714  0.39286  0.84628 10.50000  0.06418  10.14
O009  1  0.66666  0.33333  0.63002 10.16667  0.01650   8.90
O00A  1  0.16730  0.08365  0.26374 10.50000  0.06163   8.02
HKLF 4
END
