TITL 1230_expF_1_4_expS_1_4_1230_b.res in P-6m2
REM Old TITL 1230 in P6(3)mc
REM SHELXT solution in P-6m2: R1 0.256, Rweak 0.039, Alpha 0.191
REM <I/s>   0.000 for    0 systematic absences,  Orientation as input
REM Flack x =  0.230 ( 0.395 ) from    49 Parsons' quotients
REM Formula found by SHELXT:  O47 V17 Co3

CELL  0.71073  12.4770  12.4770   4.8820   90.000   90.000  120.000
ZERR    8.000   0.0018   0.0018   0.0010    0.000    0.000    0.000
LATT -1
SYMM -Y, X-Y, Z
SYMM -X+Y, -X, Z
SYMM X, Y, -Z
SYMM -Y, X-Y, -Z
SYMM -X+Y, -X, -Z
SYMM -Y, -X, Z
SYMM -X+Y, Y, Z
SYMM X, X-Y, Z
SYMM -Y, -X, -Z
SYMM -X+Y, Y, -Z
SYMM X, X-Y, -Z
SFAC O H V CO
UNIT 8 8 8 8
L.S. 10
BOND
LIST 6
FMAP 2
PLAN 20
CO01  4  0.48259  0.51741  1.00000 10.25000  0.04309  26.38
V002  3  0.25917  0.24110  0.00000 10.50000  0.03117  22.59
V003  3  0.33334  0.66667  0.50000 10.08333  0.04888  21.96
V004  3  0.41124  0.32277  0.50000 10.50000  0.04771  18.53
V005  3  0.66667  0.33334  0.50000 10.08333  0.08777  16.53
V006  3  0.17498  0.34995  0.50000 10.25000  0.10185  15.81
O007  1  0.00000  0.00000  0.23882 10.16667  0.00010  14.04
O008  1  0.66667  0.33334  0.00000 10.08333  0.00010  12.03
O009  1  0.33334  0.66667  0.67071 10.16667  0.00010   9.77
O00A  1  0.40949  0.59052  1.00000 10.25000  0.01478   9.35
O00B  1  0.14180  0.07090  0.14393 10.50000  0.02497   9.33
O00C  1  0.26711  0.13355  0.31083 10.50000  0.01825   8.87
O00D  1  0.53077  0.46923  0.71981 10.50000  0.01071   8.84
O00E  1  0.25035  0.50068  0.62695 10.50000  0.01775   7.72
O00F  1  0.26461  0.32659  0.34174 11.00000  0.05786   6.17
O00G  1  0.33342  0.16671  0.50000 10.25000  0.01268   5.78
HKLF 4
END
