TITL 1230_expF_1_5_expS_0_8_1230_a.res in P-6m2
REM Old TITL 1230 in P6(3)mc
REM SHELXT solution in P-6m2: R1 0.331, Rweak 0.022, Alpha 0.182
REM <I/s>   0.000 for    0 systematic absences,  Orientation as input
REM Flack x = -1.030 ( 0.406 ) from   145 Parsons' quotients
REM Formula found by SHELXT:  O33 V20 Co3

CELL  0.71073  12.4770  12.4770   4.8820   90.000   90.000  120.000
ZERR    8.000   0.0018   0.0018   0.0010    0.000    0.000    0.000
LATT -1
SYMM -Y, X-Y, Z
SYMM -X+Y, -X, Z
SYMM X, Y, -Z
SYMM -Y, X-Y, -Z
SYMM -X+Y, -X, -Z
SYMM -Y, -X, Z
SYMM -X+Y, Y, Z
SYMM X, X-Y, Z
SYMM -Y, -X, -Z
SYMM -X+Y, Y, -Z
SYMM X, X-Y, -Z
SFAC O H V CO
UNIT 8 8 8 8
L.S. 10
BOND
LIST 6
FMAP 2
PLAN 20
CO01  4  0.48410  0.51591  1.00000 10.25000  0.05717  26.83
V002  3  0.25573  0.24144  0.00000 10.50000  0.04012  22.89
V003  3  0.18429  0.36859  0.50000 10.25000  0.05046  18.64
V004  3  0.33333  0.66667  1.00000 10.08333  0.16252  17.99
V005  3  0.00000  0.00001  0.33085 10.16667  0.07640  17.70
V006  3  0.33333  0.66667  0.90538 10.16667  0.07810  17.16
V007  3  0.41613  0.31963  0.50000 10.50000  0.06539  16.25
O008  1  0.66667  0.33333  0.00000 10.08333  0.00010  15.20
O009  1  0.66667  0.33333 -0.50000 10.08333  0.00783  11.80
O00A  1  0.13633  0.06817  0.14064 10.50000  0.05536  11.11
O00B  1  0.50174  0.25088  0.00000 10.25000  0.03949  10.08
O00C  1  0.26082  0.52166  0.65263 10.50000  0.01818   9.81
O00D  1  0.52591  0.47409  0.74967 10.50000  0.00126   9.05
O00E  1  0.25429  0.12715  0.29988 10.50000  0.01272   7.94
O00F  1  0.33183  0.16592  0.00000 10.25000  0.02574   7.44
O00G  1  0.00000  0.00001  0.00001 10.08333  0.22576   5.79
HKLF 4
END
