TITL 1230_expF_1_3_expS_0_7_1230_d.res in P6(3)22
REM Old TITL 1230 in P6(3)mc
REM SHELXT solution in P6(3)22: R1 0.309, Rweak 0.059, Alpha 0.236
REM <I/s>   0.000 for    0 systematic absences,  Orientation as input
REM Flack x = -0.170 ( 0.418 ) from    93 Parsons' quotients
REM Formula found by SHELXT:  O3 V

CELL  0.71073  12.4770  12.4770   4.8820   90.000   90.000  120.000
ZERR    8.000   0.0018   0.0018   0.0010    0.000    0.000    0.000
LATT -1
SYMM -Y, X-Y, Z
SYMM -X+Y, -X, Z
SYMM -X, -Y, 1/2+Z
SYMM Y, -X+Y, 1/2+Z
SYMM X-Y, X, 1/2+Z
SYMM Y, X, -Z
SYMM X-Y, -Y, -Z
SYMM -X, -X+Y, -Z
SYMM -Y, -X, 1/2-Z
SYMM -X+Y, Y, 1/2-Z
SYMM X, X-Y, 1/2-Z
SFAC O H V CO
UNIT 8 8 8 8
L.S. 10
BOND
LIST 6
FMAP 2
PLAN 20
V001  3  0.57594  0.64876  0.70558 11.00000  0.04483  23.39
V002  3  0.69982  0.84992  0.25000 10.50000  0.05188  23.24
V003  3  1.00000  1.00000  0.50000 10.16667  0.04564  15.86
O004  1  0.33333  0.66666  1.02059 10.33333  0.00010  12.19
O005  1  0.67543  0.93642  0.45192 11.00000  0.02981  10.85
O006  1  0.33334  0.66666  0.75000 10.16667  0.20297   8.61
O007  1  0.46789  0.52834  1.08220 11.00000  0.03097   7.60
O008  1  0.41691  0.61620  0.85812 11.00000  0.02711   7.47
O009  1  0.82496  0.91248  0.25000 10.50000  0.00905   6.57
O00A  1  0.61693  0.81413  0.56207 11.00000  0.05403   6.55
HKLF 4
END
