TITL 1230 in P6(3)mc 
CELL 0.71073  12.4770  12.4770   4.8820  90.000  90.000 120.000 
ZERR    8.00   0.0018   0.0018   0.0010   0.000   0.000   0.000 
LATT -1 
SYMM -Y, X-Y, Z 
SYMM -X+Y, -X, Z 
SYMM -X, -Y, 0.5+Z 
SYMM Y, -X+Y, 0.5+Z 
SYMM X-Y, X, 0.5+Z 
SYMM -Y, -X, Z 
SYMM -X+Y, Y, Z 
SYMM X, X-Y, Z 
SYMM Y, X, 0.5+Z 
SYMM X-Y, -Y, 0.5+Z 
SYMM -X, -X+Y, 0.5+Z 
SFAC O H V CO 
UNIT 8 8 8 8 
 
L.S. 4 
BOND 
FMAP 2 
PLAN 20 
 
MOLE   1 
CO1   4  0.6667  0.3333  0.0093 10.166667  0.05 
V2    3  0.5871  0.4129 -0.4864 10.500000  0.05 
Q2    1  0.5213  0.4787 -0.4850 10.500000  0.05  227.33 
Q3    1  0.3866  0.1933 -0.7996 10.500000  0.05  145.32 
Q4    1  0.2729  0.1364 -0.6430 10.500000  0.05  142.89 
Q5    1  0.4047  0.3124 -0.3235 11.000000  0.05   84.11 
Q6    1  0.3280  0.2352 -0.4867 11.000000  0.05   80.29 
Q7    1  0.2480  0.2734 -0.4908 11.000000  0.05   80.17 
Q8    1  0.3930  0.1041 -0.9786 11.000000  0.05   78.58 
MOLE   2 
Q1    1  0.0812  0.9188  0.5216 10.500000  0.05  237.77 
HKLF 4                                                                          
END  
