TITL 1230_expF_1_2_expS_1_2_1230_b.res in P-6m2
REM Old TITL 1230 in P6(3)mc
REM SHELXT solution in P-6m2: R1 0.221, Rweak 0.087, Alpha 0.259
REM <I/s>   0.000 for    0 systematic absences,  Orientation as input
REM Flack x =  0.200 ( 0.281 ) from    94 Parsons' quotients
REM Formula found by SHELXT:  O47 V16

CELL  0.71073  12.4770  12.4770   4.8820   90.000   90.000  120.000
ZERR    8.000   0.0018   0.0018   0.0010    0.000    0.000    0.000
LATT -1
SYMM -Y, X-Y, Z
SYMM -X+Y, -X, Z
SYMM X, Y, -Z
SYMM -Y, X-Y, -Z
SYMM -X+Y, -X, -Z
SYMM -Y, -X, Z
SYMM -X+Y, Y, Z
SYMM X, X-Y, Z
SYMM -Y, -X, -Z
SYMM -X+Y, Y, -Z
SYMM X, X-Y, -Z
SFAC O H V CO
UNIT 8 8 8 8
L.S. 10
BOND
LIST 6
FMAP 2
PLAN 20
V001  3 -0.18465  0.18465  0.00000 10.25000  0.03152  22.83
V002  3  0.01656  0.25350  0.50000 10.50000  0.02853  21.98
V003  3  0.31963  0.40640  1.00000 10.50000  0.03787  20.28
V004  3  0.00000  0.00000  0.00000 10.08333  0.10325  18.45
O005  1  0.33334  0.66666  0.75968 10.16667  0.00010  12.65
O006  1  0.66666  0.33334  1.50000 10.08333  0.14594  12.64
O007  1  0.27042  0.54084  0.80831 10.50000  0.02016   9.92
O008  1  0.19911  0.39822  0.66491 10.50000  0.01991   9.25
O009  1  0.52122  0.47877  1.50000 10.25000  0.11414   8.86
O00A  1  0.48967  0.51033  1.12062 10.50000  0.04532   8.60
O00B  1  0.66666  0.33334  1.10395 10.16667  0.01018   8.23
O00C  1 -0.13412  0.13412  0.27483 10.50000  0.01942   7.96
O00D  1  0.17841  0.35681  0.50000 10.25000  0.02293   6.49
O00E  1  0.59214  0.40786  1.50000 10.25000  0.02734   6.08
O00F  1 -0.06757  0.06757  0.00000 10.25000  0.02618   5.41
O00G  1  0.51711  0.48289  1.28563 10.50000  0.06081   4.90
HKLF 4
END
