TITL 1230_expF_1_2_expS_0_6_1230_c.res in P-62c
REM Old TITL 1230 in P6(3)mc
REM SHELXT solution in P-62c: R1 0.315, Rweak 0.114, Alpha 0.271
REM <I/s>   0.000 for    0 systematic absences,  Orientation as input
REM Flack x =  0.376 ( 0.135 ) from   135 Parsons' quotients
REM Formula found by SHELXT:  O43 V6 Co3

CELL  0.71073  12.4770  12.4770   4.8820   90.000   90.000  120.000
ZERR    8.000   0.0018   0.0018   0.0010    0.000    0.000    0.000
LATT -1
SYMM -Y, X-Y, Z
SYMM -X+Y, -X, Z
SYMM X, Y, 1/2-Z
SYMM -Y, X-Y, 1/2-Z
SYMM -X+Y, -X, 1/2-Z
SYMM Y, X, -Z
SYMM X-Y, -Y, -Z
SYMM -X, -X+Y, -Z
SYMM Y, X, 1/2+Z
SYMM X-Y, -Y, 1/2+Z
SYMM -X, -X+Y, 1/2+Z
SFAC O H V CO
UNIT 8 8 8 8
L.S. 10
BOND
LIST 6
FMAP 2
PLAN 20
CO01  4  0.65295  0.58330  0.25000 10.50000  0.03108  27.08
V002  3  0.85097  0.70429  0.75000 10.50000  0.04158  21.40
V003  3  0.43800  0.35258  0.25000 10.50000  0.07259  17.66
O004  1  1.00000  1.00000  1.00000 10.16667  0.00010  14.76
O005  1  0.66666  0.33334  0.51094 10.33333  0.00010  11.31
O006  1  0.66666  0.33334  0.25000 10.16667  0.00010   9.70
O007  1  0.59486  0.44595  0.25000 10.50000  0.00010   8.40
O008  1  0.72397  0.67031  0.50817 11.00000  0.04371   8.19
O009  1  0.64777  0.40929  0.40913 11.00000  0.10870   7.09
O00A  1  0.58253  0.55099  0.25000 10.50000  0.16071   6.85
O00B  1  0.92081  0.84791  0.75000 11.00000  0.09114   6.74
O00C  1  0.47723  0.52347  0.11278 11.00000  0.05026   6.46
O00D  1  0.50014  0.60473  0.25000 10.50000  0.00932   6.31
O00E  1  0.82294  0.62463  0.40670 11.00000  0.03800   6.24
HKLF 4
END
