TITL 1230_expF_1_5_expS_1_3_1230_a.res in P6(3)mc
REM Old TITL 1230 in P6(3)mc
REM SHELXT solution in P6(3)mc: R1 0.327, Rweak 0.031, Alpha 0.153
REM <I/s>   0.000 for    0 systematic absences,  Orientation as input
REM Flack x =  0.073 ( 0.465 ) from    53 Parsons' quotients
REM Formula found by SHELXT:  O8 V5

CELL  0.71073  12.4770  12.4770   4.8820   90.000   90.000  120.000
ZERR    8.000   0.0018   0.0018   0.0010    0.000    0.000    0.000
LATT -1
SYMM -Y, X-Y, Z
SYMM -X+Y, -X, Z
SYMM -X, -Y, 1/2+Z
SYMM Y, -X+Y, 1/2+Z
SYMM X-Y, X, 1/2+Z
SYMM -Y, -X, Z
SYMM -X+Y, Y, Z
SYMM X, X-Y, Z
SYMM Y, X, 1/2+Z
SYMM X-Y, -Y, 1/2+Z
SYMM -X, -X+Y, 1/2+Z
SFAC O H V CO
UNIT 8 8 8 8
L.S. 10
BOND
LIST 6
FMAP 2
PLAN 20
V001  3  0.65067  0.57550  0.57261 11.00000  0.05960  19.02
V002  3  0.85217  0.70435  0.07029 10.50000  0.07574  17.10
V003  3  0.66666  0.33334  0.84915 10.16667  0.11751  15.50
O004  1  0.60172  0.39828  0.72376 10.50000  0.01129  11.93
O005  1  0.80971  0.61941  0.36741 10.50000  0.01710  11.31
O006  1  0.66666  0.33334  1.14080 10.16667  0.07062  10.76
O007  1  1.00000  1.00000 -0.14080 10.16667  0.01289  10.68
O008  1  1.00000  1.00000  0.05709 10.16667  0.06490   8.67
O009  1  0.52876  0.47125  0.26296 10.50000  0.03619   7.79
O00A  1  0.66666  0.33334  0.68361 10.16667  0.07252   6.86
O00B  1  0.92268  0.84535  0.17885 10.50000  0.02016   6.24
HKLF 4
END
