TITL 1230_expF_1_3_expS_1_4_1230_c.res in P-62c
REM Old TITL 1230 in P6(3)mc
REM SHELXT solution in P-62c: R1 0.264, Rweak 0.074, Alpha 0.235
REM <I/s>   0.000 for    0 systematic absences,  Orientation as input
REM Flack x =  0.325 ( 0.407 ) from    43 Parsons' quotients
REM Formula found by SHELXT:  O46 V6 Co3

CELL  0.71073  12.4770  12.4770   4.8820   90.000   90.000  120.000
ZERR    8.000   0.0018   0.0018   0.0010    0.000    0.000    0.000
LATT -1
SYMM -Y, X-Y, Z
SYMM -X+Y, -X, Z
SYMM X, Y, 1/2-Z
SYMM -Y, X-Y, 1/2-Z
SYMM -X+Y, -X, 1/2-Z
SYMM Y, X, -Z
SYMM X-Y, -Y, -Z
SYMM -X, -X+Y, -Z
SYMM Y, X, 1/2+Z
SYMM X-Y, -Y, 1/2+Z
SYMM -X, -X+Y, 1/2+Z
SFAC O H V CO
UNIT 8 8 8 8
L.S. 10
BOND
LIST 6
FMAP 2
PLAN 20
CO01  4  0.64482  0.08282  0.25000 10.50000  0.05929  28.71
V002  3  0.85520  0.15155  0.75000 10.50000  0.02731  23.22
V003  3  0.92516  0.34647  0.25000 10.50000  0.03048  18.76
O004  1  1.00000  0.00001  0.50000 10.16667  0.00010  14.85
O005  1  0.66666  0.33333  0.51105 10.33333  0.00010  12.49
O006  1  0.66666  0.33333  0.25000 10.16667  0.03962   9.02
O007  1  0.44377 -0.07176  0.09409 11.00000  0.02858   7.50
O008  1  0.92112  0.26912  0.58109 11.00000  0.03982   7.34
O009  1  0.92255  0.09982  0.75000 10.50000  0.01732   7.28
O00A  1  0.64995  0.21854  0.32179 11.00000  0.14473   6.80
O00B  1  0.47433 -0.12759  0.25000 10.50000  0.04967   6.60
O00C  1  0.71657  0.05182  0.53704 11.00000  0.10867   6.55
O00D  1  0.53412  0.01372  0.25000 10.50000  0.00401   6.45
O00E  1  0.79269  0.25782  0.75000 10.50000  0.03620   6.38
O00F  1  0.82472  0.20174  0.45294 11.00000  0.07522   6.18
HKLF 4
END
