TITL 1230_expF_1_4_expS_1_0_1230_a.res in P6(3)mc
REM Old TITL 1230 in P6(3)mc
REM SHELXT solution in P6(3)mc: R1 0.246, Rweak 0.030, Alpha 0.220
REM <I/s>   0.000 for    0 systematic absences,  Orientation as input
REM Flack x = -1.020 ( 0.438 ) from    97 Parsons' quotients
REM Formula found by SHELXT:  O22 V9

CELL  0.71073  12.4770  12.4770   4.8820   90.000   90.000  120.000
ZERR    8.000   0.0018   0.0018   0.0010    0.000    0.000    0.000
LATT -1
SYMM -Y, X-Y, Z
SYMM -X+Y, -X, Z
SYMM -X, -Y, 1/2+Z
SYMM Y, -X+Y, 1/2+Z
SYMM X-Y, X, 1/2+Z
SYMM -Y, -X, Z
SYMM -X+Y, Y, Z
SYMM X, X-Y, Z
SYMM Y, X, 1/2+Z
SYMM X-Y, -Y, 1/2+Z
SYMM -X, -X+Y, 1/2+Z
SFAC O H V CO
UNIT 8 8 8 8
L.S. 10
BOND
LIST 6
FMAP 2
PLAN 20
V001  3  1.15079  0.84921  0.52609 10.50000  0.05402  17.74
V002  3  0.92264  0.57214  0.50891 11.00000  0.05267  17.32
O003  1  1.00000  1.00000  0.40388 10.16667  0.00010  11.69
O004  1  0.79705  0.39853  0.66024 10.50000  0.02263  10.49
O005  1  0.66666  0.33333  0.77694 10.16667  0.00688   9.99
O006  1  0.66666  0.33334  0.56677 10.16667  0.02943   9.63
O007  1  1.18705  0.81294  0.81627 10.50000  0.01883   9.38
O008  1  0.93973  0.46987  0.20973 10.50000  0.00186   8.56
O009  1  1.07301  0.92698  0.62421 10.50000  0.03611   7.23
O00A  1  1.06579  0.72012  0.36860 11.00000  0.01959   6.33
O00B  1  0.66666  0.33334  0.18373 10.16667  0.12321   5.15
HKLF 4
END
