TITL 1230_expF_1_3_expS_1_2_1230_a.res in P6(3)mc
REM Old TITL 1230 in P6(3)mc
REM SHELXT solution in P6(3)mc: R1 0.198, Rweak 0.043, Alpha 0.098
REM <I/s>   0.000 for    0 systematic absences,  Orientation as input
REM Flack x = -1.183 ( 0.464 ) from    77 Parsons' quotients
REM Formula found by SHELXT:  O19 V11

CELL  0.71073  12.4770  12.4770   4.8820   90.000   90.000  120.000
ZERR    8.000   0.0018   0.0018   0.0010    0.000    0.000    0.000
LATT -1
SYMM -Y, X-Y, Z
SYMM -X+Y, -X, Z
SYMM -X, -Y, 1/2+Z
SYMM Y, -X+Y, 1/2+Z
SYMM X-Y, X, 1/2+Z
SYMM -Y, -X, Z
SYMM -X+Y, Y, Z
SYMM X, X-Y, Z
SYMM Y, X, 1/2+Z
SYMM X-Y, -Y, 1/2+Z
SYMM -X, -X+Y, 1/2+Z
SFAC O H V CO
UNIT 8 8 8 8
L.S. 10
BOND
LIST 6
FMAP 2
PLAN 20
V001  3  0.42646  0.34994  0.49334 11.00000  0.03616  20.39
V002  3  0.14913  0.29825  0.52324 10.50000  0.04224  20.38
V003  3  0.00000  0.00000  0.35886 10.16667  0.08469  16.25
V004  3  0.66667  0.33334  0.79042 10.16667  0.09750  16.11
O005  1  0.52575  0.47425  0.19628 10.50000  0.00010  10.85
O006  1  0.27329  0.33858  0.34171 11.00000  0.00514  10.71
O007  1  0.19285  0.38570  0.80372 10.50000  0.00010  10.51
O008  1  0.60021  0.39979  0.64079 10.50000  0.00558  10.14
O009  1  0.66667  0.33334  0.54047 10.16667  0.02151   8.90
O00A  1  0.08072  0.16145  0.58248 10.50000  0.00948   8.02
HKLF 4
END
