TITL 1230_expF_1_4_expS_1_0_1230_c.res in P-62c
REM Old TITL 1230 in P6(3)mc
REM SHELXT solution in P-62c: R1 0.264, Rweak 0.085, Alpha 0.279
REM <I/s>   0.000 for    0 systematic absences,  Orientation as input
REM Flack x = -1.836 ( 0.352 ) from   101 Parsons' quotients
REM Formula found by SHELXT:  O35 V9

CELL  0.71073  12.4770  12.4770   4.8820   90.000   90.000  120.000
ZERR    8.000   0.0018   0.0018   0.0010    0.000    0.000    0.000
LATT -1
SYMM -Y, X-Y, Z
SYMM -X+Y, -X, Z
SYMM X, Y, 1/2-Z
SYMM -Y, X-Y, 1/2-Z
SYMM -X+Y, -X, 1/2-Z
SYMM Y, X, -Z
SYMM X-Y, -Y, -Z
SYMM -X, -X+Y, -Z
SYMM Y, X, 1/2+Z
SYMM X-Y, -Y, 1/2+Z
SYMM -X, -X+Y, 1/2+Z
SFAC O H V CO
UNIT 8 8 8 8
L.S. 10
BOND
LIST 6
FMAP 2
PLAN 20
V001  3  0.08405  0.43236  0.25000 10.50000  0.06172  24.04
V002  3  0.14834  0.29958  0.75000 10.50000  0.05172  22.27
V003  3  0.42484  0.35474  0.75000 10.50000  0.04282  19.88
O004  1  0.00000  0.00000  0.75000 10.16667  0.10819  12.92
O005  1  0.33333  0.66666  0.25000 10.16667  0.10227   9.81
O006  1  0.00000  0.00001  1.00000 10.16667  0.00704   9.52
O007  1  0.33333  0.66666  0.66032 10.33333  0.06148   8.67
O008  1  0.21323  0.60586  0.34947 11.00000  0.05866   8.52
O009  1  0.06221  0.51943  0.56461 11.00000  0.03448   7.10
O00A  1  0.28406  0.34351  0.58872 11.00000  0.03590   6.74
O00B  1  0.06290  0.12204  0.75000 10.50000  0.09932   6.67
O00C  1  0.18931  0.38557  0.48598 11.00000  0.03681   6.12
O00D  1  0.02334  0.22552  0.75000 10.50000  0.02429   5.59
HKLF 4
END
