TITL 1230_expF_1_4_expS_0_8_1230_b.res in P-6m2
REM Old TITL 1230 in P6(3)mc
REM SHELXT solution in P-6m2: R1 0.270, Rweak 0.040, Alpha 0.191
REM <I/s>   0.000 for    0 systematic absences,  Orientation as input
REM Flack x =  0.282 ( 0.280 ) from   149 Parsons' quotients
REM Formula found by SHELXT:  O47 V17 Co3

CELL  0.71073  12.4770  12.4770   4.8820   90.000   90.000  120.000
ZERR    8.000   0.0018   0.0018   0.0010    0.000    0.000    0.000
LATT -1
SYMM -Y, X-Y, Z
SYMM -X+Y, -X, Z
SYMM X, Y, -Z
SYMM -Y, X-Y, -Z
SYMM -X+Y, -X, -Z
SYMM -Y, -X, Z
SYMM -X+Y, Y, Z
SYMM X, X-Y, Z
SYMM -Y, -X, -Z
SYMM -X+Y, Y, -Z
SYMM X, X-Y, -Z
SFAC O H V CO
UNIT 8 8 8 8
L.S. 10
BOND
LIST 6
FMAP 2
PLAN 20
CO01  4  0.48385  0.51615  0.50000 10.25000  0.05315  26.38
V002  3  0.75747  0.74042  0.50000 10.50000  0.04366  22.59
V003  3  0.33333  0.66666  1.00000 10.08333  0.09334  21.96
V004  3  0.41336  0.32075  0.00000 10.50000  0.04339  18.53
V005  3  0.66666  0.33334  0.00000 10.08333  0.05355  16.53
V006  3  0.64716  0.82358  1.00000 10.25000  0.07952  15.81
O007  1  0.00000  0.00000 -0.21407 10.16667  0.00010  14.04
O008  1  0.66666  0.33334 -0.50000 10.08333  0.03184  12.03
O009  1  0.33333  0.66666  0.83266 10.16667  0.03872   9.77
O00A  1  0.39584  0.60416  0.50000 10.25000  0.02009   9.35
O00B  1  0.12981  0.06491 -0.32323 10.50000  0.01869   9.33
O00C  1  0.28656  0.14329 -0.11996 10.50000  0.03348   8.87
O00D  1  0.52929  0.47071  0.21663 10.50000  0.00189   8.84
O00E  1  0.49531  0.74766  0.86513 10.50000  0.01352   7.72
O00F  1  0.67248  0.74229  0.82652 11.00000  0.04028   6.17
O00G  1  0.35435  0.17718  0.00000 10.25000  0.01287   5.78
HKLF 4
END
