TITL 1230_expF_1_3_expS_1_5_1230_b.res in P-6m2
REM Old TITL 1230 in P6(3)mc
REM SHELXT solution in P-6m2: R1 0.244, Rweak 0.065, Alpha 0.197
REM <I/s>   0.000 for    0 systematic absences,  Orientation as input
REM Flack x =  0.211 ( 0.759 ) from    34 Parsons' quotients
REM Formula found by SHELXT:  O45 V19

CELL  0.71073  12.4770  12.4770   4.8820   90.000   90.000  120.000
ZERR    8.000   0.0018   0.0018   0.0010    0.000    0.000    0.000
LATT -1
SYMM -Y, X-Y, Z
SYMM -X+Y, -X, Z
SYMM X, Y, -Z
SYMM -Y, X-Y, -Z
SYMM -X+Y, -X, -Z
SYMM -Y, -X, Z
SYMM -X+Y, Y, Z
SYMM X, X-Y, Z
SYMM -Y, -X, -Z
SYMM -X+Y, Y, -Z
SYMM X, X-Y, -Z
SFAC O H V CO
UNIT 8 8 8 8
L.S. 10
BOND
LIST 6
FMAP 2
PLAN 20
V001  3  0.29041  0.14520  0.50000 10.25000  0.02421  23.79
V002  3  0.42826  0.35462  1.00000 10.50000  0.03752  20.65
V003  3  0.34864  0.42478  0.50000 10.50000  0.03337  19.28
V004  3  0.66667  0.33334  0.00000 10.08333  0.08444  17.47
V005  3  0.16365  0.32729  1.00000 10.25000  0.06525  17.44
O006  1  0.66667  0.33334  0.29182 10.16667  0.02784  11.78
O007  1  0.00000  0.00000  0.24228 10.16667  0.00010  10.91
O008  1  0.15511  0.07755  0.50000 10.25000  0.01331  10.89
O009  1  0.33333  0.66667  0.19786 10.16667  0.00010   9.53
O00A  1  0.53296  0.46703  0.39693 10.50000  0.04857   8.79
O00B  1  0.38772  0.19386  0.79891 10.50000  0.01232   8.48
O00C  1  0.24120  0.48239  1.00000 10.25000  0.03870   8.39
O00D  1  0.48555  0.51445  0.50000 10.25000  0.00010   7.95
O00E  1  0.40625  0.59374  0.38155 10.50000  0.01960   7.38
O00F  1  0.28255  0.34428  0.81916 11.00000  0.02011   5.56
HKLF 4
END
