TITL 1230_expF_1_5_expS_0_9_1230_c.res in P-62c
REM Old TITL 1230 in P6(3)mc
REM SHELXT solution in P-62c: R1 0.354, Rweak 0.040, Alpha 0.247
REM <I/s>   0.000 for    0 systematic absences,  Orientation as input
REM Flack x = -0.242 ( 0.788 ) from    99 Parsons' quotients
REM Formula found by SHELXT:  O34 V9

CELL  0.71073  12.4770  12.4770   4.8820   90.000   90.000  120.000
ZERR    8.000   0.0018   0.0018   0.0010    0.000    0.000    0.000
LATT -1
SYMM -Y, X-Y, Z
SYMM -X+Y, -X, Z
SYMM X, Y, 1/2-Z
SYMM -Y, X-Y, 1/2-Z
SYMM -X+Y, -X, 1/2-Z
SYMM Y, X, -Z
SYMM X-Y, -Y, -Z
SYMM -X, -X+Y, -Z
SYMM Y, X, 1/2+Z
SYMM X-Y, -Y, 1/2+Z
SYMM -X, -X+Y, 1/2+Z
SFAC O H V CO
UNIT 8 8 8 8
L.S. 10
BOND
LIST 6
FMAP 2
PLAN 20
V001  3 -0.06879  0.58220  0.25000 10.50000  0.03833  22.79
V002  3  0.14128  0.84554  0.25000 10.50000  0.06408  21.86
V003  3  0.35059  0.91486  0.75000 10.50000  0.04909  21.75
O004  1  0.00000  1.00000  0.50000 10.16667  0.03536  12.52
O005  1  0.33334  0.66667  0.25000 10.16667  0.05104  11.88
O006  1  0.33334  0.66667  0.75000 10.16667  0.02799   9.97
O007  1  0.40259  0.79989  0.62525 11.00000  0.08327   8.13
O008  1  0.19491  0.82041  0.51402 11.00000  0.03788   6.96
O009  1  0.46867  0.93845  0.42457 11.00000  0.04761   6.52
O00A  1  0.05479  0.72469  0.37989 11.00000  0.05693   6.20
O00B  1  0.00000  1.00000  0.25000 10.16667  0.05979   5.88
O00C  1  0.08367  0.93823  0.33621 11.00000  0.07438   5.47
HKLF 4
END
