TITL 1230_expF_1_5_expS_1_4_1230_a.res in P6(3)mc
REM Old TITL 1230 in P6(3)mc
REM SHELXT solution in P6(3)mc: R1 0.319, Rweak 0.030, Alpha 0.153
REM <I/s>   0.000 for    0 systematic absences,  Orientation as input
REM Flack x =  0.167 ( 0.543 ) from    41 Parsons' quotients
REM Formula found by SHELXT:  O8 V5

CELL  0.71073  12.4770  12.4770   4.8820   90.000   90.000  120.000
ZERR    8.000   0.0018   0.0018   0.0010    0.000    0.000    0.000
LATT -1
SYMM -Y, X-Y, Z
SYMM -X+Y, -X, Z
SYMM -X, -Y, 1/2+Z
SYMM Y, -X+Y, 1/2+Z
SYMM X-Y, X, 1/2+Z
SYMM -Y, -X, Z
SYMM -X+Y, Y, Z
SYMM X, X-Y, Z
SYMM Y, X, 1/2+Z
SYMM X-Y, -Y, 1/2+Z
SYMM -X, -X+Y, 1/2+Z
SFAC O H V CO
UNIT 8 8 8 8
L.S. 10
BOND
LIST 6
FMAP 2
PLAN 20
V001  3  0.64966  0.57552  0.46308 11.00000  0.06743  19.02
V002  3  0.85210  0.70421 -0.03750 10.50000  0.07764  17.10
V003  3  0.66666  0.33333  0.73857 10.16667  0.12692  15.50
O004  1  0.60005  0.39995  0.62020 10.50000  0.01341  11.93
O005  1  0.80767  0.61534  0.26329 10.50000  0.01587  11.31
O006  1  0.66666  0.33333  1.03750 10.16667  0.04811  10.76
O007  1  1.00000  1.00000  0.24965 10.16667  0.00763  10.68
O008  1  1.00000  1.00000  0.41339 10.16667  0.04409   8.67
O009  1  0.52964  0.47036  0.17112 10.50000  0.03827   7.79
O00A  1  0.66666  0.33333  0.60449 10.16667  0.07189   6.86
O00B  1  0.91952  0.83903  0.08439 10.50000  0.01569   6.24
HKLF 4
END
