TITL 1230_expF_1_3_expS_1_1_1230_c.res in P-62c
REM Old TITL 1230 in P6(3)mc
REM SHELXT solution in P-62c: R1 0.260, Rweak 0.079, Alpha 0.235
REM <I/s>   0.000 for    0 systematic absences,  Orientation as input
REM Flack x =  0.081 ( 0.330 ) from    97 Parsons' quotients
REM Formula found by SHELXT:  O46 V6 Co3

CELL  0.71073  12.4770  12.4770   4.8820   90.000   90.000  120.000
ZERR    8.000   0.0018   0.0018   0.0010    0.000    0.000    0.000
LATT -1
SYMM -Y, X-Y, Z
SYMM -X+Y, -X, Z
SYMM X, Y, 1/2-Z
SYMM -Y, X-Y, 1/2-Z
SYMM -X+Y, -X, 1/2-Z
SYMM Y, X, -Z
SYMM X-Y, -Y, -Z
SYMM -X, -X+Y, -Z
SYMM Y, X, 1/2+Z
SYMM X-Y, -Y, 1/2+Z
SYMM -X, -X+Y, 1/2+Z
SFAC O H V CO
UNIT 8 8 8 8
L.S. 10
BOND
LIST 6
FMAP 2
PLAN 20
CO01  4  0.35336  0.91751  0.25000 10.50000  0.04674  28.71
V002  3  0.70578  0.86083  0.75000 10.50000  0.02244  23.22
V003  3  0.58358  0.92935  0.25000 10.50000  0.03612  18.76
O004  1  1.00000  1.00000  1.00000 10.16667  0.00010  14.85
O005  1  0.33334  0.66667 -0.00285 10.33333  0.02037  12.49
O006  1  0.33334  0.66667  0.25000 10.16667  0.05947   9.02
O007  1  0.54098  1.06379  0.40070 11.00000  0.02423   7.50
O008  1  0.64775  0.90705  0.53967 11.00000  0.05195   7.34
O009  1  0.83750  0.92978  0.75000 10.50000  0.04979   7.28
O00A  1  0.35526  0.79191  0.15414 11.00000  0.09582   6.80
O00B  1  0.49395  1.08222  0.25000 10.50000  0.00906   6.60
O00C  1  0.68063  0.72805  0.56616 11.00000  0.04364   6.55
O00D  1  0.48219  0.98085  0.25000 10.50000  0.01527   6.45
O00E  1  0.57175  0.82504  0.75000 10.50000  0.05010   6.38
O00F  1  0.62767  0.81304  0.43232 11.00000  0.05039   6.18
HKLF 4
END
