TITL 1230_expF_1_5_expS_1_2_1230_b.res in P-6m2
REM Old TITL 1230 in P6(3)mc
REM SHELXT solution in P-6m2: R1 0.327, Rweak 0.029, Alpha 0.182
REM <I/s>   0.000 for    0 systematic absences,  Orientation as input
REM Flack x = -0.025 ( 0.356 ) from    84 Parsons' quotients
REM Formula found by SHELXT:  O33 V20 Co3

CELL  0.71073  12.4770  12.4770   4.8820   90.000   90.000  120.000
ZERR    8.000   0.0018   0.0018   0.0010    0.000    0.000    0.000
LATT -1
SYMM -Y, X-Y, Z
SYMM -X+Y, -X, Z
SYMM X, Y, -Z
SYMM -Y, X-Y, -Z
SYMM -X+Y, -X, -Z
SYMM -Y, -X, Z
SYMM -X+Y, Y, Z
SYMM X, X-Y, Z
SYMM -Y, -X, -Z
SYMM -X+Y, Y, -Z
SYMM X, X-Y, -Z
SFAC O H V CO
UNIT 8 8 8 8
L.S. 10
BOND
LIST 6
FMAP 2
PLAN 20
CO01  4  0.48362  0.51638  1.00000 10.25000  0.07482  26.83
V002  3  0.26104  0.24550  0.00000 10.50000  0.04427  22.89
V003  3  0.18066  0.36130  0.50000 10.25000  0.07848  18.64
V004  3  0.33334  0.66666  1.00000 10.08333  0.11373  17.99
V005  3  0.00000  0.00000  0.29665 10.16667  0.12736  17.70
V006  3  0.33334  0.66666  0.84620 10.16667  0.15407  17.16
V007  3  0.41341  0.31978  0.50000 10.50000  0.06221  16.25
O008  1  0.66667  0.33333  0.00000 10.08333  0.00010  15.20
O009  1  0.66667  0.33333 -0.50000 10.08333  0.00010  11.80
O00A  1  0.15227  0.07612  0.13403 10.50000  0.03684  11.11
O00B  1  0.50519  0.25259  0.00000 10.25000  0.06922  10.08
O00C  1  0.25449  0.50898  0.62393 10.50000  0.03027   9.81
O00D  1  0.52874  0.47125  0.70918 10.50000  0.00901   9.05
O00E  1  0.25575  0.12788  0.29868 10.50000  0.03952   7.94
O00F  1  0.34409  0.17204  0.00000 10.25000  0.02095   7.44
O00G  1  0.00001  0.00000  0.00001 10.08333  0.31994   5.79
HKLF 4
END
