TITL 1230_expF_1_3_expS_0_7_1230_c.res in P-62c
REM Old TITL 1230 in P6(3)mc
REM SHELXT solution in P-62c: R1 0.256, Rweak 0.067, Alpha 0.235
REM <I/s>   0.000 for    0 systematic absences,  Orientation as input
REM Flack x =  0.454 ( 0.210 ) from   133 Parsons' quotients
REM Formula found by SHELXT:  O46 V6 Co3

CELL  0.71073  12.4770  12.4770   4.8820   90.000   90.000  120.000
ZERR    8.000   0.0018   0.0018   0.0010    0.000    0.000    0.000
LATT -1
SYMM -Y, X-Y, Z
SYMM -X+Y, -X, Z
SYMM X, Y, 1/2-Z
SYMM -Y, X-Y, 1/2-Z
SYMM -X+Y, -X, 1/2-Z
SYMM Y, X, -Z
SYMM X-Y, -Y, -Z
SYMM -X, -X+Y, -Z
SYMM Y, X, 1/2+Z
SYMM X-Y, -Y, 1/2+Z
SYMM -X, -X+Y, 1/2+Z
SFAC O H V CO
UNIT 8 8 8 8
L.S. 10
BOND
LIST 6
FMAP 2
PLAN 20
CO01  4  0.64383  0.07604  0.75000 10.50000  0.05354  28.71
V002  3  0.29834  0.13995  0.25000 10.50000  0.02368  23.22
V003  3  0.41949  0.07446  0.75000 10.50000  0.04210  18.76
O004  1  0.00000  0.00000  0.00000 10.16667  0.00010  14.85
O005  1  0.66666  0.33334  0.99006 10.33333  0.01621  12.49
O006  1  0.66666  0.33334  0.75000 10.16667  0.02928   9.02
O007  1  0.46461 -0.06413  0.60921 11.00000  0.02392   7.50
O008  1  0.35430  0.09165  0.44709 11.00000  0.03296   7.34
O009  1  0.16092  0.07852  0.25000 10.50000  0.01696   7.28
O00A  1  0.62229  0.20204  0.84993 11.00000  0.02449   6.80
O00B  1  0.47702 -0.10992  0.75000 10.50000  0.00010   6.60
O00C  1  0.32826  0.28523  0.47776 11.00000  0.01157   6.55
O00D  1  0.52010  0.03652  0.75000 10.50000  0.01253   6.45
O00E  1  0.44397  0.16827  0.25000 10.50000  0.03019   6.38
O00F  1  0.37944  0.19429  0.53799 11.00000  0.01891   6.18
HKLF 4
END
