TITL 1230_expF_1_3_expS_1_5_1230_c.res in P-62c
REM Old TITL 1230 in P6(3)mc
REM SHELXT solution in P-62c: R1 0.262, Rweak 0.078, Alpha 0.235
REM <I/s>   0.000 for    0 systematic absences,  Orientation as input
REM Flack x =  0.394 ( 0.503 ) from    22 Parsons' quotients
REM Formula found by SHELXT:  O46 V6 Co3

CELL  0.71073  12.4770  12.4770   4.8820   90.000   90.000  120.000
ZERR    8.000   0.0018   0.0018   0.0010    0.000    0.000    0.000
LATT -1
SYMM -Y, X-Y, Z
SYMM -X+Y, -X, Z
SYMM X, Y, 1/2-Z
SYMM -Y, X-Y, 1/2-Z
SYMM -X+Y, -X, 1/2-Z
SYMM Y, X, -Z
SYMM X-Y, -Y, -Z
SYMM -X, -X+Y, -Z
SYMM Y, X, 1/2+Z
SYMM X-Y, -Y, 1/2+Z
SYMM -X, -X+Y, 1/2+Z
SFAC O H V CO
UNIT 8 8 8 8
L.S. 10
BOND
LIST 6
FMAP 2
PLAN 20
CO01  4  0.64179  0.08145  0.75000 10.50000  0.05755  28.71
V002  3  0.29657  0.14622  0.25000 10.50000  0.02705  23.22
V003  3  0.42022  0.07508  0.75000 10.50000  0.02928  18.76
O004  1  0.00000  0.00000  0.00000 10.16667  0.00010  14.85
O005  1  0.66667  0.33333  1.01614 10.33333  0.00010  12.49
O006  1  0.66667  0.33333  0.75000 10.16667  0.03517   9.02
O007  1  0.44514 -0.07056  0.58504 11.00000  0.02822   7.50
O008  1  0.34824  0.07456  0.42251 11.00000  0.03120   7.34
O009  1  0.17544  0.07721  0.25000 10.50000  0.02796   7.28
O00A  1  0.65262  0.21580  0.75000 11.00000  0.19249   6.80
O00B  1  0.47705 -0.12353  0.75000 10.50000  0.06207   6.60
O00C  1  0.30764  0.21983  0.30673 11.00000  0.20805   6.55
O00D  1  0.53589  0.01392  0.75000 10.50000  0.00100   6.45
O00E  1  0.46501  0.21212  0.25000 10.50000  0.05556   6.38
O00F  1  0.37465  0.18325  0.55296 11.00000  0.08067   6.18
HKLF 4
END
