TITL 1230_expF_1_3_expS_0_7_1230_a.res in P6(3)mc
REM Old TITL 1230 in P6(3)mc
REM SHELXT solution in P6(3)mc: R1 0.236, Rweak 0.056, Alpha 0.098
REM <I/s>   0.000 for    0 systematic absences,  Orientation as input
REM Flack x = -1.179 ( 0.460 ) from   125 Parsons' quotients
REM Formula found by SHELXT:  O19 V11

CELL  0.71073  12.4770  12.4770   4.8820   90.000   90.000  120.000
ZERR    8.000   0.0018   0.0018   0.0010    0.000    0.000    0.000
LATT -1
SYMM -Y, X-Y, Z
SYMM -X+Y, -X, Z
SYMM -X, -Y, 1/2+Z
SYMM Y, -X+Y, 1/2+Z
SYMM X-Y, X, 1/2+Z
SYMM -Y, -X, Z
SYMM -X+Y, Y, Z
SYMM X, X-Y, Z
SYMM Y, X, 1/2+Z
SYMM X-Y, -Y, 1/2+Z
SYMM -X, -X+Y, 1/2+Z
SFAC O H V CO
UNIT 8 8 8 8
L.S. 10
BOND
LIST 6
FMAP 2
PLAN 20
V001  3  0.42747  0.34773  0.20064 11.00000  0.04553  20.39
V002  3  0.29946  0.14973  0.72383 10.50000  0.03760  20.38
V003  3  0.00000  0.00000  1.06565 10.16667  0.09450  16.25
V004  3  0.66667  0.33334  0.50625 10.16667  0.05307  16.11
O005  1  0.53710  0.46291 -0.06565 10.50000  0.00010  10.85
O006  1  0.34124  0.27241  0.55802 11.00000  0.02205  10.71
O007  1  0.37759  0.18880  0.97593 10.50000  0.02344  10.51
O008  1  0.60636  0.39364  0.33853 10.50000  0.03967  10.14
O009  1  0.66667  0.33334  0.27358 10.16667  0.00392   8.90
O00A  1  0.13685  0.06842  0.84539 10.50000  0.02344   8.02
HKLF 4
END
