TITL 1230_expF_1_2_expS_1_0_1230_a.res in P6(3)mc
REM Old TITL 1230 in P6(3)mc
REM SHELXT solution in P6(3)mc: R1 0.227, Rweak 0.079, Alpha 0.225
REM <I/s>   0.000 for    0 systematic absences,  Orientation as input
REM Flack x =  0.251 ( 0.297 ) from   103 Parsons' quotients
REM Formula found by SHELXT:  O24 V10 Co

CELL  0.71073  12.4770  12.4770   4.8820   90.000   90.000  120.000
ZERR    8.000   0.0018   0.0018   0.0010    0.000    0.000    0.000
LATT -1
SYMM -Y, X-Y, Z
SYMM -X+Y, -X, Z
SYMM -X, -Y, 1/2+Z
SYMM Y, -X+Y, 1/2+Z
SYMM X-Y, X, 1/2+Z
SYMM -Y, -X, Z
SYMM -X+Y, Y, Z
SYMM X, X-Y, Z
SYMM Y, X, 1/2+Z
SYMM X-Y, -Y, 1/2+Z
SYMM -X, -X+Y, 1/2+Z
SFAC O H V CO
UNIT 8 8 8 8
L.S. 10
BOND
LIST 6
FMAP 2
PLAN 20
CO01  4  0.66667  0.33333 -0.04790 10.16667  0.07404  28.51
V002  3  0.84979  0.15021  0.73673 10.50000  0.04594  23.66
V003  3  0.64753  0.07625  0.26296 11.00000  0.04383  21.75
V004  3  1.00000  0.00000  1.00867 10.16667  0.07319  19.67
O005  1  0.80915  0.19085  1.04790 10.50000  0.02936  10.17
O006  1  0.71965  0.06870  0.55714 11.00000  0.00010   9.80
O007  1  0.59925  0.19850  0.14763 10.50000  0.01443   8.34
O008  1  0.51155  0.02310  0.25264 10.50000  0.04628   8.04
O009  1  0.92051  0.07949  0.80493 10.50000  0.02737   7.51
O00A  1  0.47299 -0.05402  0.37988 10.50000  0.00010   7.41
O00B  1  0.43427 -0.13147  0.18879 10.50000  0.08623   6.21
HKLF 4
END
