TITL 1230_expF_1_3_expS_1_4_1230_b.res in P-6m2
REM Old TITL 1230 in P6(3)mc
REM SHELXT solution in P-6m2: R1 0.246, Rweak 0.063, Alpha 0.197
REM <I/s>   0.000 for    0 systematic absences,  Orientation as input
REM Flack x =  0.138 ( 0.646 ) from    50 Parsons' quotients
REM Formula found by SHELXT:  O45 V19

CELL  0.71073  12.4770  12.4770   4.8820   90.000   90.000  120.000
ZERR    8.000   0.0018   0.0018   0.0010    0.000    0.000    0.000
LATT -1
SYMM -Y, X-Y, Z
SYMM -X+Y, -X, Z
SYMM X, Y, -Z
SYMM -Y, X-Y, -Z
SYMM -X+Y, -X, -Z
SYMM -Y, -X, Z
SYMM -X+Y, Y, Z
SYMM X, X-Y, Z
SYMM -Y, -X, -Z
SYMM -X+Y, Y, -Z
SYMM X, X-Y, -Z
SFAC O H V CO
UNIT 8 8 8 8
L.S. 10
BOND
LIST 6
FMAP 2
PLAN 20
V001  3  0.62406  0.81203  0.50000 10.25000  0.02510  23.79
V002  3  0.76109  0.74017  1.00000 10.50000  0.03671  20.65
V003  3  0.68170  0.58994  0.50000 10.50000  0.03211  19.28
V004  3  1.00000  0.99999  1.00000 10.08333  0.08079  17.47
V005  3  0.49729  0.50271  1.00000 10.25000  0.07230  17.44
O006  1  1.00000  0.99999  0.70033 10.16667  0.02831  11.78
O007  1  0.33333  0.66667  0.20741 10.16667  0.00010  10.91
O008  1  0.49068  0.74534  0.50000 10.25000  0.01776  10.89
O009  1  0.66667  0.33333  0.20493 10.16667  0.00010   9.53
O00A  1  0.86489  0.72978  0.60713 10.50000  0.05072   8.79
O00B  1  0.72225  0.86112  0.79923 10.50000  0.01079   8.48
O00C  1  0.57311  0.42689  1.00000 10.25000  0.02928   8.39
O00D  1  0.81877  0.63754  0.50000 10.25000  0.00010   7.95
O00E  1  0.73937  0.47875  0.37720 10.50000  0.01789   7.38
O00F  1  0.61470  0.60512  0.81766 11.00000  0.02283   5.56
HKLF 4
END
