TITL 1230_expF_1_4_expS_0_5_1230_c.res in P-6m2
REM Old TITL 1230 in P6(3)mc
REM SHELXT solution in P-6m2: R1 0.298, Rweak 0.033, Alpha 0.191
REM <I/s>   0.000 for    0 systematic absences,  Orientation as input
REM Flack x =  0.467 ( 0.322 ) from   158 Parsons' quotients
REM Formula found by SHELXT:  O47 V17 Co3

CELL  0.71073  12.4770  12.4770   4.8820   90.000   90.000  120.000
ZERR    8.000   0.0018   0.0018   0.0010    0.000    0.000    0.000
LATT -1
SYMM -Y, X-Y, Z
SYMM -X+Y, -X, Z
SYMM X, Y, -Z
SYMM -Y, X-Y, -Z
SYMM -X+Y, -X, -Z
SYMM -Y, -X, Z
SYMM -X+Y, Y, Z
SYMM X, X-Y, Z
SYMM -Y, -X, -Z
SYMM -X+Y, Y, -Z
SYMM X, X-Y, -Z
SFAC O H V CO
UNIT 8 8 8 8
L.S. 10
BOND
LIST 6
FMAP 2
PLAN 20
CO01  4  0.14871 -0.14871  0.00000 10.25000  0.05798  26.38
V002  3  0.42462  0.34953  1.00000 10.50000  0.03829  22.59
V003  3 -0.00001  0.00000  0.50000 10.08333  0.12806  21.96
V004  3  0.57047  0.65275  1.50000 10.50000  0.06142  18.53
V005  3  0.33333  0.66667  1.50000 10.08333  0.15591  16.53
V006  3  0.31932  0.15967  0.50000 10.25000  0.07890  15.81
O007  1  0.66666  0.33333  1.19541 10.16667  0.04264  14.04
O008  1  0.33333  0.66667  1.00000 10.08333  0.00010  12.03
O009  1  0.00000  0.00000  0.22534 10.16667  0.00527   9.77
O00A  1  0.05760 -0.05760  0.00000 10.25000  0.09295   9.35
O00B  1  0.59753  0.40246  1.15343 10.50000  0.01574   9.33
O00C  1  0.52766  0.47235  1.35931 10.50000  0.00481   8.87
O00D  1  0.19457 -0.19458 -0.26051 10.50000  0.01672   8.84
O00E  1  0.15277  0.07638  0.31699 10.50000  0.00920   7.72
O00F  1  0.34795  0.27417  0.66409 11.00000  0.07571   6.17
O00G  1  0.50089  0.49912  1.50000 10.25000  0.02179   5.78
HKLF 4
END
