TITL 1230_expF_1_5_expS_1_4_1230_d.res in P6(3)22
REM Old TITL 1230 in P6(3)mc
REM SHELXT solution in P6(3)22: R1 0.376, Rweak 0.055, Alpha 0.250
REM <I/s>   0.000 for    0 systematic absences,  Orientation as input
REM Flack x = -0.191 ( 0.863 ) from    35 Parsons' quotients
REM Formula found by SHELXT:  O3 V

CELL  0.71073  12.4770  12.4770   4.8820   90.000   90.000  120.000
ZERR    8.000   0.0018   0.0018   0.0010    0.000    0.000    0.000
LATT -1
SYMM -Y, X-Y, Z
SYMM -X+Y, -X, Z
SYMM -X, -Y, 1/2+Z
SYMM Y, -X+Y, 1/2+Z
SYMM X-Y, X, 1/2+Z
SYMM Y, X, -Z
SYMM X-Y, -Y, -Z
SYMM -X, -X+Y, -Z
SYMM -Y, -X, 1/2-Z
SYMM -X+Y, Y, 1/2-Z
SYMM X, X-Y, 1/2-Z
SFAC O H V CO
UNIT 8 8 8 8
L.S. 10
BOND
LIST 6
FMAP 2
PLAN 20
V001  3  0.35390  0.42967  0.23402 11.00000  0.06055  24.39
V002  3  0.15064  0.30129  0.75000 10.50000  0.06577  22.97
V003  3  0.00000  0.00000  1.00000 10.16667  0.13281  15.61
O004  1  0.33334  0.66667  0.75000 10.16667  0.04363  11.22
O005  1  0.33334  0.66667  0.25000 10.16667  0.00402  10.47
O006  1  0.36774  0.57578  0.37128 11.00000  0.05235  10.06
O007  1  0.20742  0.39794  0.48188 11.00000  0.04841   8.56
O008  1  0.51656  0.43697  0.09674 11.00000  0.08673   7.78
O009  1  0.00000  0.00000  0.75000 10.16667  0.05038   6.69
O00A  1  0.27048  0.35102  0.56110 11.00000  0.03964   6.59
O00B  1  0.50534  0.49466  0.25000 10.50000  0.12232   6.18
HKLF 4
END
