TITL 1230_expF_1_2_expS_0_8_1230_b.res in P-6m2
REM Old TITL 1230 in P6(3)mc
REM SHELXT solution in P-6m2: R1 0.237, Rweak 0.085, Alpha 0.217
REM <I/s>   0.000 for    0 systematic absences,  Orientation as input
REM Flack x =  0.244 ( 0.181 ) from   148 Parsons' quotients
REM Formula found by SHELXT:  O50 V17 Co3

CELL  0.71073  12.4770  12.4770   4.8820   90.000   90.000  120.000
ZERR    8.000   0.0018   0.0018   0.0010    0.000    0.000    0.000
LATT -1
SYMM -Y, X-Y, Z
SYMM -X+Y, -X, Z
SYMM X, Y, -Z
SYMM -Y, X-Y, -Z
SYMM -X+Y, -X, -Z
SYMM -Y, -X, Z
SYMM -X+Y, Y, Z
SYMM X, X-Y, Z
SYMM -Y, -X, -Z
SYMM -X+Y, Y, -Z
SYMM X, X-Y, -Z
SFAC O H V CO
UNIT 8 8 8 8
L.S. 10
BOND
LIST 6
FMAP 2
PLAN 20
CO01  4  0.85254  0.70508  1.00000 10.25000  0.02438  29.27
V002  3  0.65026  0.57601  0.50000 10.50000  0.03484  22.91
V003  3  1.00000  1.00000  1.29198 10.16667  0.06256  21.74
V004  3  0.57119  0.64653  1.00000 10.50000  0.04513  19.48
V005  3  0.67301  0.83651  0.50000 10.25000  0.08936  19.30
O006  1  0.66667  0.33333  0.17225 10.16667  0.00010  11.93
O007  1  0.80843  0.61686  0.69171 10.50000  0.00010  11.70
O008  1  0.60621  0.39380  0.39779 10.50000  0.00751  11.34
O009  1  0.33334  0.66667  1.00000 10.08333  0.00010  11.25
O00A  1  0.91980  0.83960  1.00000 10.25000  0.03439   8.06
O00B  1  0.55213  0.44787  1.00000 10.25000  0.06279   7.27
O00C  1  0.33333  0.66667  1.14880 10.16667  0.14235   7.23
O00D  1  0.48590  0.51410  0.50000 10.25000  0.13479   6.09
O00E  1  0.65593  0.72337  0.68637 11.00000  0.00697   5.78
O00F  1  0.76287  0.74781  1.00000 10.50000  0.05687   5.64
O00G  1  0.49064  0.50936  0.70347 10.50000  0.17058   5.53
HKLF 4
END
