TITL 1230_expF_1_5_expS_1_2_1230_c.res in P-62c
REM Old TITL 1230 in P6(3)mc
REM SHELXT solution in P-62c: R1 0.334, Rweak 0.032, Alpha 0.247
REM <I/s>   0.000 for    0 systematic absences,  Orientation as input
REM Flack x = -0.625 ( 0.688 ) from    66 Parsons' quotients
REM Formula found by SHELXT:  O34 V9

CELL  0.71073  12.4770  12.4770   4.8820   90.000   90.000  120.000
ZERR    8.000   0.0018   0.0018   0.0010    0.000    0.000    0.000
LATT -1
SYMM -Y, X-Y, Z
SYMM -X+Y, -X, Z
SYMM X, Y, 1/2-Z
SYMM -Y, X-Y, 1/2-Z
SYMM -X+Y, -X, 1/2-Z
SYMM Y, X, -Z
SYMM X-Y, -Y, -Z
SYMM -X, -X+Y, -Z
SYMM Y, X, 1/2+Z
SYMM X-Y, -Y, 1/2+Z
SYMM -X, -X+Y, 1/2+Z
SFAC O H V CO
UNIT 8 8 8 8
L.S. 10
BOND
LIST 6
FMAP 2
PLAN 20
V001  3 -0.06806  0.58225  0.25000 10.50000  0.04808  22.79
V002  3  0.14723  0.85320  0.25000 10.50000  0.07056  21.86
V003  3  0.34777  0.91512  0.75000 10.50000  0.05120  21.75
O004  1  0.00000  1.00000  0.50000 10.16667  0.01156  12.52
O005  1  0.33334  0.66667  1.25000 10.16667  0.04280  11.88
O006  1  0.33334  0.66667  0.75000 10.16667  0.08409   9.97
O007  1  0.40072  0.79394  0.88443 11.00000  0.06435   8.13
O008  1  0.19498  0.81400  0.51694 11.00000  0.04976   6.96
O009  1  0.45712  0.93644  1.05898 11.00000  0.04461   6.52
O00A  1  0.06459  0.72654  0.40184 11.00000  0.05562   6.20
O00B  1  0.00000  1.00000  0.25000 10.16667  0.04719   5.88
O00C  1  0.07649  0.92778  0.34891 11.00000  0.05666   5.47
HKLF 4
END
