TITL 1230_expF_1_5_expS_1_0_1230_b.res in P-6m2
REM Old TITL 1230 in P6(3)mc
REM SHELXT solution in P-6m2: R1 0.336, Rweak 0.025, Alpha 0.182
REM <I/s>   0.000 for    0 systematic absences,  Orientation as input
REM Flack x = -0.835 ( 0.469 ) from   107 Parsons' quotients
REM Formula found by SHELXT:  O33 V20 Co3

CELL  0.71073  12.4770  12.4770   4.8820   90.000   90.000  120.000
ZERR    8.000   0.0018   0.0018   0.0010    0.000    0.000    0.000
LATT -1
SYMM -Y, X-Y, Z
SYMM -X+Y, -X, Z
SYMM X, Y, -Z
SYMM -Y, X-Y, -Z
SYMM -X+Y, -X, -Z
SYMM -Y, -X, Z
SYMM -X+Y, Y, Z
SYMM X, X-Y, Z
SYMM -Y, -X, -Z
SYMM -X+Y, Y, -Z
SYMM X, X-Y, -Z
SFAC O H V CO
UNIT 8 8 8 8
L.S. 10
BOND
LIST 6
FMAP 2
PLAN 20
CO01  4  0.48376  0.51624  1.50000 10.25000  0.06283  26.83
V002  3  0.25726  0.01489  0.50000 10.50000  0.04592  22.89
V003  3  0.18382  0.36764  1.00000 10.25000  0.05623  18.64
V004  3  0.33333  0.66667  1.50000 10.08333  0.07628  17.99
V005  3 -0.00001  0.00000  0.16702 10.16667  0.07733  17.70
V006  3  0.33333  0.66667  1.36439 10.16667  0.12316  17.16
V007  3  0.41650  0.31986  1.00000 10.50000  0.06435  16.25
O008  1  0.66666  0.33333  0.50000 10.08333  0.00010  15.20
O009  1  0.66667  0.33334  0.00000 10.08333  0.00126  11.80
O00A  1  0.13478  0.06740  0.63850 10.50000  0.05253  11.11
O00B  1  0.49720  0.24861  0.50000 10.25000  0.04111  10.08
O00C  1  0.26052  0.52106  1.15359 10.50000  0.02327   9.81
O00D  1  0.52604  0.47396  1.24873 10.50000  0.00666   9.05
O00E  1  0.25424  0.12712  0.80138 10.50000  0.01416   7.94
O00F  1  0.33098  0.16550  0.50000 10.25000  0.04000   7.44
O00G  1 -0.00001  0.00001  0.50000 10.08333  0.30440   5.79
HKLF 4
END
