TITL 1230_expF_1_3_expS_1_1_1230_d.res in P6(3)22
REM Old TITL 1230 in P6(3)mc
REM SHELXT solution in P6(3)22: R1 0.266, Rweak 0.068, Alpha 0.236
REM <I/s>   0.000 for    0 systematic absences,  Orientation as input
REM Flack x =  0.286 ( 0.403 ) from    71 Parsons' quotients
REM Formula found by SHELXT:  O3 V

CELL  0.71073  12.4770  12.4770   4.8820   90.000   90.000  120.000
ZERR    8.000   0.0018   0.0018   0.0010    0.000    0.000    0.000
LATT -1
SYMM -Y, X-Y, Z
SYMM -X+Y, -X, Z
SYMM -X, -Y, 1/2+Z
SYMM Y, -X+Y, 1/2+Z
SYMM X-Y, X, 1/2+Z
SYMM Y, X, -Z
SYMM X-Y, -Y, -Z
SYMM -X, -X+Y, -Z
SYMM -Y, -X, 1/2-Z
SYMM -X+Y, Y, 1/2-Z
SYMM X, X-Y, 1/2-Z
SFAC O H V CO
UNIT 8 8 8 8
L.S. 10
BOND
LIST 6
FMAP 2
PLAN 20
V001  3  0.57478  0.64910  0.71924 11.00000  0.04251  23.39
V002  3  0.70259  0.85129  0.25000 10.50000  0.04394  23.24
V003  3  1.00000  1.00000  0.50000 10.16667  0.04857  15.86
O004  1  0.33334  0.66666  1.03048 10.33333  0.00010  12.19
O005  1  0.66422  0.93238  0.40722 11.00000  0.02203  10.85
O006  1  0.33334  0.66666  0.75000 10.16667  0.17962   8.61
O007  1  0.48292  0.54138  1.07004 11.00000  0.01972   7.60
O008  1  0.42320  0.61557  0.85392 11.00000  0.02341   7.47
O009  1  0.82975  0.91487  0.25000 10.50000  0.00010   6.57
O00A  1  0.61343  0.80157  0.54000 11.00000  0.04195   6.55
HKLF 4
END
