TITL 1230_expF_1_4_expS_1_1_1230_a.res in P6(3)mc
REM Old TITL 1230 in P6(3)mc
REM SHELXT solution in P6(3)mc: R1 0.249, Rweak 0.030, Alpha 0.220
REM <I/s>   0.000 for    0 systematic absences,  Orientation as input
REM Flack x = -1.134 ( 0.466 ) from    90 Parsons' quotients
REM Formula found by SHELXT:  O22 V9

CELL  0.71073  12.4770  12.4770   4.8820   90.000   90.000  120.000
ZERR    8.000   0.0018   0.0018   0.0010    0.000    0.000    0.000
LATT -1
SYMM -Y, X-Y, Z
SYMM -X+Y, -X, Z
SYMM -X, -Y, 1/2+Z
SYMM Y, -X+Y, 1/2+Z
SYMM X-Y, X, 1/2+Z
SYMM -Y, -X, Z
SYMM -X+Y, Y, Z
SYMM X, X-Y, Z
SYMM Y, X, 1/2+Z
SYMM X-Y, -Y, 1/2+Z
SYMM -X, -X+Y, 1/2+Z
SFAC O H V CO
UNIT 8 8 8 8
L.S. 10
BOND
LIST 6
FMAP 2
PLAN 20
V001  3  1.15067  0.84934  0.51983 10.50000  0.05505  17.74
V002  3  0.92351  0.57296  0.50000 11.00000  0.05131  17.32
O003  1  1.00000  1.00000  0.40065 10.16667  0.00010  11.69
O004  1  0.80298  0.40149  0.65512 10.50000  0.03122  10.49
O005  1  0.66667  0.33334  0.77021 10.16667  0.00491   9.99
O006  1  0.66667  0.33334  0.55400 10.16667  0.02819   9.63
O007  1  1.18905  0.81095  0.81059 10.50000  0.01582   9.38
O008  1  0.94274  0.47138  0.19970 10.50000  0.00365   8.56
O009  1  1.07589  0.92411  0.60718 10.50000  0.03194   7.23
O00A  1  1.06624  0.72300  0.35345 11.00000  0.01833   6.33
O00B  1  0.66667  0.33334  0.18941 10.16667  0.09067   5.15
HKLF 4
END
