TITL 1230_expF_1_5_expS_0_8_1230_d.res in P6(3)22
REM Old TITL 1230 in P6(3)mc
REM SHELXT solution in P6(3)22: R1 0.386, Rweak 0.046, Alpha 0.250
REM <I/s>   0.000 for    0 systematic absences,  Orientation as input
REM Flack x =  0.299 ( 0.877 ) from    83 Parsons' quotients
REM Formula found by SHELXT:  O3 V

CELL  0.71073  12.4770  12.4770   4.8820   90.000   90.000  120.000
ZERR    8.000   0.0018   0.0018   0.0010    0.000    0.000    0.000
LATT -1
SYMM -Y, X-Y, Z
SYMM -X+Y, -X, Z
SYMM -X, -Y, 1/2+Z
SYMM Y, -X+Y, 1/2+Z
SYMM X-Y, X, 1/2+Z
SYMM Y, X, -Z
SYMM X-Y, -Y, -Z
SYMM -X, -X+Y, -Z
SYMM -Y, -X, 1/2-Z
SYMM -X+Y, Y, 1/2-Z
SYMM X, X-Y, 1/2-Z
SFAC O H V CO
UNIT 8 8 8 8
L.S. 10
BOND
LIST 6
FMAP 2
PLAN 20
V001  3  0.35189  0.42817  0.22854 11.00000  0.04488  24.39
V002  3  0.14998  0.29996  0.75000 10.50000  0.04961  22.97
V003  3  0.00000  0.00000  1.00000 10.16667  0.14298  15.61
O004  1  0.66666  0.33334  0.25000 10.16667  0.01166  11.22
O005  1  0.66666  0.33334 -0.25000 10.16667  0.08245  10.47
O006  1  0.61701  0.42548 -0.11354 11.00000  0.00877  10.06
O007  1  0.20855  0.39286  0.44361 11.00000  0.01558   8.56
O008  1  0.52059  0.45136  0.08705 11.00000  0.02017   7.78
O009  1  0.00000  0.00000  0.75000 10.16667  0.01818   6.69
O00A  1  0.27102  0.32452  0.63025 11.00000  0.02464   6.59
O00B  1  0.51728  0.48271  0.25000 10.50000  0.07047   6.18
HKLF 4
END
