TITL 1230_expF_1_4_expS_0_6_1230_d.res in P6(3)22
REM Old TITL 1230 in P6(3)mc
REM SHELXT solution in P6(3)22: R1 0.330, Rweak 0.045, Alpha 0.284
REM <I/s>   0.000 for    0 systematic absences,  Orientation as input
REM Flack x =  0.472 ( 0.496 ) from    86 Parsons' quotients
REM Formula found by SHELXT:  O32 V9

CELL  0.71073  12.4770  12.4770   4.8820   90.000   90.000  120.000
ZERR    8.000   0.0018   0.0018   0.0010    0.000    0.000    0.000
LATT -1
SYMM -Y, X-Y, Z
SYMM -X+Y, -X, Z
SYMM -X, -Y, 1/2+Z
SYMM Y, -X+Y, 1/2+Z
SYMM X-Y, X, 1/2+Z
SYMM Y, X, -Z
SYMM X-Y, -Y, -Z
SYMM -X, -X+Y, -Z
SYMM -Y, -X, 1/2-Z
SYMM -X+Y, Y, 1/2-Z
SYMM X, X-Y, 1/2-Z
SFAC O H V CO
UNIT 8 8 8 8
L.S. 10
BOND
LIST 6
FMAP 2
PLAN 20
V001  3  0.42848  0.35333  0.22769 11.00000  0.05092  20.88
V002  3  0.30383  0.15192  0.75000 10.50000  0.06733  19.44
O003  1  0.00000  0.00000  0.75000 10.16667  0.05117  12.56
O004  1  0.66666  0.33334  0.25000 10.16667  0.07340   9.48
O005  1  0.66666  0.33334 -0.13178 10.33333  0.05705   9.39
O006  1  0.00000  0.00000  0.50000 10.16667  0.01335   9.14
O007  1  0.58544  0.37861  0.36906 11.00000  0.02436   8.51
O008  1  0.33232  0.26538  0.57825 11.00000  0.05287   7.14
O009  1  0.45899  0.51606  0.09232 11.00000  0.02900   6.94
O00A  1  0.38253  0.19825  0.48894 11.00000  0.03709   6.33
O00B  1  0.12590  0.06295  0.75000 10.50000  0.10220   5.86
HKLF 4
END
