TITL 1230_expF_0_6_expS_1_5_1230_a.res in P-62m
REM Old TITL 1230 in P6(3)mc
REM SHELXT solution in P-62m: R1 0.226, Rweak 0.379, Alpha 0.274
REM <I/s>   0.000 for    0 systematic absences,  Orientation as input
REM Formula found by SHELXT:  O64 Co3

CELL  0.71073  12.4770  12.4770   4.8820   90.000   90.000  120.000
ZERR    8.000   0.0018   0.0018   0.0010    0.000    0.000    0.000
LATT -1
SYMM -Y, X-Y, Z
SYMM -X+Y, -X, Z
SYMM X, Y, -Z
SYMM -Y, X-Y, -Z
SYMM -X+Y, -X, -Z
SYMM Y, X, -Z
SYMM X-Y, -Y, -Z
SYMM -X, -X+Y, -Z
SYMM Y, X, Z
SYMM X-Y, -Y, Z
SYMM -X, -X+Y, Z
SFAC O H V CO
UNIT 8 8 8 8
L.S. 10
BOND
LIST 6
FMAP 2
PLAN 20
CO01  4  0.75011  1.00000  0.50000 10.25000  0.00619  48.31
O002  1  0.70941  0.60205  0.00000 10.50000  0.00010  11.90
O003  1  0.69152  0.69152  0.50000 10.25000  0.00010  10.64
O004  1  0.83552  0.83553  0.50000 10.25000  0.25704   8.25
O005  1  0.99999  1.00000  0.50000 10.08333  0.00010   8.23
O006  1  0.41368  0.41368  0.00000 10.50000  0.07552   7.61
O007  1  0.74298  0.54345  0.50000 10.50000  0.21074   7.08
O008  1  0.57914  0.49617  0.00000 10.50000  0.00010   6.67
O009  1  0.83057  0.49141  0.50000 10.50000  0.03602   6.56
O00A  1  0.78048  0.70656  0.00000 10.50000  0.02059   5.86
O00B  1  0.77398  0.38362  0.50000 10.50000  0.08927   5.26
O00C  1  0.76907  0.76908  0.07663 10.50000  0.15832   5.17
O00D  1  0.57911  0.57911  0.50000 10.25000  0.00010   4.69
O00E  1  0.54485  0.31146  0.00000 10.50000  0.07195   4.47
HKLF 4
END
