TITL 1230_expF_1_4_expS_0_9_1230_b.res in P-6m2
REM Old TITL 1230 in P6(3)mc
REM SHELXT solution in P-6m2: R1 0.262, Rweak 0.041, Alpha 0.191
REM <I/s>   0.000 for    0 systematic absences,  Orientation as input
REM Flack x =  0.483 ( 0.287 ) from   132 Parsons' quotients
REM Formula found by SHELXT:  O47 V17 Co3

CELL  0.71073  12.4770  12.4770   4.8820   90.000   90.000  120.000
ZERR    8.000   0.0018   0.0018   0.0010    0.000    0.000    0.000
LATT -1
SYMM -Y, X-Y, Z
SYMM -X+Y, -X, Z
SYMM X, Y, -Z
SYMM -Y, X-Y, -Z
SYMM -X+Y, -X, -Z
SYMM -Y, -X, Z
SYMM -X+Y, Y, Z
SYMM X, X-Y, Z
SYMM -Y, -X, -Z
SYMM -X+Y, Y, -Z
SYMM X, X-Y, -Z
SFAC O H V CO
UNIT 8 8 8 8
L.S. 10
BOND
LIST 6
FMAP 2
PLAN 20
CO01  4  0.48177  0.51823  1.00000 10.25000  0.04769  26.38
V002  3  0.25793  0.24106  0.00000 10.50000  0.03376  22.59
V003  3  0.33333  0.66666  0.50000 10.08333  0.06039  21.96
V004  3  0.41450  0.32391  0.50000 10.50000  0.05438  18.53
V005  3  0.66666  0.33333  0.50000 10.08333  0.06387  16.53
V006  3  0.17493  0.34984  0.50000 10.25000  0.09453  15.81
O007  1  0.00000  0.00000  0.22873 10.16667  0.00010  14.04
O008  1  0.66666  0.33333  0.00000 10.08333  0.00010  12.03
O009  1  0.33334  0.66666  0.66676 10.16667  0.00169   9.77
O00A  1  0.40891  0.59108  1.00000 10.25000  0.02978   9.35
O00B  1  0.14437  0.07218  0.15337 10.50000  0.02825   9.33
O00C  1  0.26585  0.13292  0.31265 10.50000  0.02278   8.87
O00D  1  0.53140  0.46859  0.71781 10.50000  0.00835   8.84
O00E  1  0.24953  0.49905  0.62834 10.50000  0.00814   7.72
O00F  1  0.27089  0.33041  0.33851 11.00000  0.04405   6.17
O00G  1  0.32949  0.16475  0.50000 10.25000  0.01426   5.78
HKLF 4
END
