TITL 1230_expF_1_5_expS_1_2_1230_a.res in P6(3)mc
REM Old TITL 1230 in P6(3)mc
REM SHELXT solution in P6(3)mc: R1 0.316, Rweak 0.025, Alpha 0.153
REM <I/s>   0.000 for    0 systematic absences,  Orientation as input
REM Flack x =  0.155 ( 0.409 ) from    71 Parsons' quotients
REM Formula found by SHELXT:  O8 V5

CELL  0.71073  12.4770  12.4770   4.8820   90.000   90.000  120.000
ZERR    8.000   0.0018   0.0018   0.0010    0.000    0.000    0.000
LATT -1
SYMM -Y, X-Y, Z
SYMM -X+Y, -X, Z
SYMM -X, -Y, 1/2+Z
SYMM Y, -X+Y, 1/2+Z
SYMM X-Y, X, 1/2+Z
SYMM -Y, -X, Z
SYMM -X+Y, Y, Z
SYMM X, X-Y, Z
SYMM Y, X, 1/2+Z
SYMM X-Y, -Y, 1/2+Z
SYMM -X, -X+Y, 1/2+Z
SFAC O H V CO
UNIT 8 8 8 8
L.S. 10
BOND
LIST 6
FMAP 2
PLAN 20
V001  3  0.65095  0.57521  0.57371 11.00000  0.05675  19.02
V002  3  0.85157  0.70316  0.08279 10.50000  0.07320  17.10
V003  3  0.66666  0.33334  0.85241 10.16667  0.12660  15.50
O004  1  0.60191  0.39810  0.72121 10.50000  0.01390  11.93
O005  1  0.80842  0.61683  0.37585 10.50000  0.02094  11.31
O006  1  0.66666  0.33333  1.13288 10.16667  0.08146  10.76
O007  1  1.00000  1.00000 -0.13288 10.16667  0.01648  10.68
O008  1  1.00000  1.00000  0.06447 10.16667  0.07277   8.67
O009  1  0.52812  0.47188  0.27210 10.50000  0.03192   7.79
O00A  1  0.66666  0.33334  0.65915 10.16667  0.04558   6.86
O00B  1  0.92454  0.84908  0.17065 10.50000  0.01953   6.24
HKLF 4
END
