TITL 1230_expF_1_5_expS_0_5_1230_d.res in P6(3)22
REM Old TITL 1230 in P6(3)mc
REM SHELXT solution in P6(3)22: R1 0.393, Rweak 0.046, Alpha 0.250
REM <I/s>   0.000 for    0 systematic absences,  Orientation as input
REM Flack x = -0.652 ( 0.877 ) from    90 Parsons' quotients
REM Formula found by SHELXT:  O3 V

CELL  0.71073  12.4770  12.4770   4.8820   90.000   90.000  120.000
ZERR    8.000   0.0018   0.0018   0.0010    0.000    0.000    0.000
LATT -1
SYMM -Y, X-Y, Z
SYMM -X+Y, -X, Z
SYMM -X, -Y, 1/2+Z
SYMM Y, -X+Y, 1/2+Z
SYMM X-Y, X, 1/2+Z
SYMM Y, X, -Z
SYMM X-Y, -Y, -Z
SYMM -X, -X+Y, -Z
SYMM -Y, -X, 1/2-Z
SYMM -X+Y, Y, 1/2-Z
SYMM X, X-Y, 1/2-Z
SFAC O H V CO
UNIT 8 8 8 8
L.S. 10
BOND
LIST 6
FMAP 2
PLAN 20
V001  3  0.64945  0.57199  0.77106 11.00000  0.05050  24.39
V002  3  0.85057  0.70115  0.25000 10.50000  0.04723  22.97
V003  3  1.00000  1.00000  0.00000 10.16667  0.10390  15.61
O004  1  0.33334  0.66666  0.75000 10.16667  0.00861  11.22
O005  1  0.33333  0.66666  1.25000 10.16667  0.10956  10.47
O006  1  0.38532  0.57375  1.10320 11.00000  0.00313  10.06
O007  1  0.79152  0.61134  0.54456 11.00000  0.03975   8.56
O008  1  0.47894  0.55511  0.90862 11.00000  0.03031   7.78
O009  1  1.00000  1.00000  0.25000 10.16667  0.02535   6.69
O00A  1  0.72917  0.68096  0.38140 11.00000  0.02076   6.59
O00B  1  0.48602  0.51399  0.75000 10.50000  0.05475   6.18
HKLF 4
END
