TITL 1230_expF_1_5_expS_0_8_1230_c.res in P-62c
REM Old TITL 1230 in P6(3)mc
REM SHELXT solution in P-62c: R1 0.345, Rweak 0.043, Alpha 0.247
REM <I/s>   0.000 for    0 systematic absences,  Orientation as input
REM Flack x = -0.782 ( 0.868 ) from   122 Parsons' quotients
REM Formula found by SHELXT:  O34 V9

CELL  0.71073  12.4770  12.4770   4.8820   90.000   90.000  120.000
ZERR    8.000   0.0018   0.0018   0.0010    0.000    0.000    0.000
LATT -1
SYMM -Y, X-Y, Z
SYMM -X+Y, -X, Z
SYMM X, Y, 1/2-Z
SYMM -Y, X-Y, 1/2-Z
SYMM -X+Y, -X, 1/2-Z
SYMM Y, X, -Z
SYMM X-Y, -Y, -Z
SYMM -X, -X+Y, -Z
SYMM Y, X, 1/2+Z
SYMM X-Y, -Y, 1/2+Z
SYMM -X, -X+Y, 1/2+Z
SFAC O H V CO
UNIT 8 8 8 8
L.S. 10
BOND
LIST 6
FMAP 2
PLAN 20
V001  3 -0.06865  0.58297  0.25000 10.50000  0.03768  22.79
V002  3  0.14077  0.84392  0.25000 10.50000  0.04851  21.86
V003  3  0.35085  0.91412  0.75000 10.50000  0.04754  21.75
O004  1  0.00000  1.00000  0.50000 10.16667  0.01475  12.52
O005  1  0.33334  0.66666  0.25000 10.16667  0.02014  11.88
O006  1  0.33333  0.66667  0.75000 10.16667  0.06222   9.97
O007  1  0.39528  0.79864  0.64035 11.00000  0.08096   8.13
O008  1  0.19388  0.82191  0.51130 11.00000  0.04878   6.96
O009  1  0.46663  0.93705  0.40441 11.00000  0.03405   6.52
O00A  1  0.05755  0.72889  0.35689 11.00000  0.04972   6.20
O00B  1  0.00000  1.00000  0.25000 10.16667  0.03307   5.88
O00C  1  0.08236  0.93628  0.25000 11.00000  0.07645   5.47
HKLF 4
END
