TITL 1230_expF_1_4_expS_0_7_1230_a.res in P6(3)mc
REM Old TITL 1230 in P6(3)mc
REM SHELXT solution in P6(3)mc: R1 0.258, Rweak 0.032, Alpha 0.220
REM <I/s>   0.000 for    0 systematic absences,  Orientation as input
REM Flack x = -0.665 ( 0.431 ) from   120 Parsons' quotients
REM Formula found by SHELXT:  O22 V9

CELL  0.71073  12.4770  12.4770   4.8820   90.000   90.000  120.000
ZERR    8.000   0.0018   0.0018   0.0010    0.000    0.000    0.000
LATT -1
SYMM -Y, X-Y, Z
SYMM -X+Y, -X, Z
SYMM -X, -Y, 1/2+Z
SYMM Y, -X+Y, 1/2+Z
SYMM X-Y, X, 1/2+Z
SYMM -Y, -X, Z
SYMM -X+Y, Y, Z
SYMM X, X-Y, Z
SYMM Y, X, 1/2+Z
SYMM X-Y, -Y, 1/2+Z
SYMM -X, -X+Y, 1/2+Z
SFAC O H V CO
UNIT 8 8 8 8
L.S. 10
BOND
LIST 6
FMAP 2
PLAN 20
V001  3  0.15113  0.84887  0.21042 10.50000  0.06021  17.74
V002  3  0.35160  0.92282  0.69258 11.00000  0.05571  17.32
O003  1  0.00000  1.00000  0.51887 10.16667  0.00011  11.69
O004  1  0.39977  0.79955  0.83778 10.50000  0.03453  10.49
O005  1  0.33333  0.66666  0.95399 10.16667  0.04050   9.99
O006  1  0.33333  0.66666  0.74574 10.16667  0.02938   9.63
O007  1  0.19359  0.80641  0.51678 10.50000  0.01367   9.38
O008  1  0.47841  0.95683  0.39464 10.50000  0.01995   8.56
O009  1  0.07663  0.92337  0.30340 10.50000  0.00923   7.23
O00A  1  0.06499  0.73248  0.04601 11.00000  0.02782   6.33
O00B  1  0.33333  0.66666  0.44307 10.16667  0.06168   5.15
HKLF 4
END
