TITL 1230_expF_1_5_expS_1_5_1230_d.res in P6(3)22
REM Old TITL 1230 in P6(3)mc
REM SHELXT solution in P6(3)22: R1 0.386, Rweak 0.153, Alpha 0.250
REM <I/s>   0.000 for    0 systematic absences,  Orientation as input
REM Flack x = -0.044 ( 0.879 ) from    18 Parsons' quotients
REM Formula found by SHELXT:  O3 V

CELL  0.71073  12.4770  12.4770   4.8820   90.000   90.000  120.000
ZERR    8.000   0.0018   0.0018   0.0010    0.000    0.000    0.000
LATT -1
SYMM -Y, X-Y, Z
SYMM -X+Y, -X, Z
SYMM -X, -Y, 1/2+Z
SYMM Y, -X+Y, 1/2+Z
SYMM X-Y, X, 1/2+Z
SYMM Y, X, -Z
SYMM X-Y, -Y, -Z
SYMM -X, -X+Y, -Z
SYMM -Y, -X, 1/2-Z
SYMM -X+Y, Y, 1/2-Z
SYMM X, X-Y, 1/2-Z
SFAC O H V CO
UNIT 8 8 8 8
L.S. 10
BOND
LIST 6
FMAP 2
PLAN 20
V001  3  0.35624  0.42465  0.25087 11.00000  0.06009  24.39
V002  3  0.14716  0.29432  0.75000 10.50000  0.06652  22.97
V003  3  0.00000  0.00000  1.00000 10.16667  0.09692  15.61
O004  1  0.33333  0.66667 -0.25000 10.16667  0.08654  11.22
O005  1  0.33333  0.66667  0.25000 10.16667  0.00588  10.47
O006  1  0.38086  0.60618  0.14908 11.00000  0.04700  10.06
O007  1  0.20575  0.36904  0.51842 11.00000  0.11171   8.56
O008  1  0.36556  0.47782  0.17674 11.00000  0.04666   7.78
O009  1  0.00000  0.00000  0.75000 10.16667  0.05355   6.69
O00A  1  0.27479  0.35712  0.58755 11.00000  0.01454   6.59
O00B  1  0.48411  0.51589  0.25000 10.50000  0.06976   6.18
HKLF 4
END
