TITL 1230_expF_1_4_expS_1_0_1230_d.res in P6(3)22
REM Old TITL 1230 in P6(3)mc
REM SHELXT solution in P6(3)22: R1 0.308, Rweak 0.045, Alpha 0.284
REM <I/s>   0.000 for    0 systematic absences,  Orientation as input
REM Flack x =  0.267 ( 0.490 ) from    73 Parsons' quotients
REM Formula found by SHELXT:  O32 V9

CELL  0.71073  12.4770  12.4770   4.8820   90.000   90.000  120.000
ZERR    8.000   0.0018   0.0018   0.0010    0.000    0.000    0.000
LATT -1
SYMM -Y, X-Y, Z
SYMM -X+Y, -X, Z
SYMM -X, -Y, 1/2+Z
SYMM Y, -X+Y, 1/2+Z
SYMM X-Y, X, 1/2+Z
SYMM Y, X, -Z
SYMM X-Y, -Y, -Z
SYMM -X, -X+Y, -Z
SYMM -Y, -X, 1/2-Z
SYMM -X+Y, Y, 1/2-Z
SYMM X, X-Y, 1/2-Z
SFAC O H V CO
UNIT 8 8 8 8
L.S. 10
BOND
LIST 6
FMAP 2
PLAN 20
V001  3  0.42942  0.35428  0.23014 11.00000  0.06120  20.88
V002  3  0.30044  0.15022  0.75000 10.50000  0.06735  19.44
O003  1  0.00000  0.00000  0.75000 10.16667  0.04581  12.56
O004  1  0.66667  0.33333  0.25000 10.16667  0.11500   9.48
O005  1  0.66667  0.33332 -0.14406 10.33333  0.04819   9.39
O006  1  0.00000  0.00000  0.50000 10.16667  0.00521   9.14
O007  1  0.58416  0.37025  0.35723 11.00000  0.02387   8.51
O008  1  0.33482  0.26025  0.57241 11.00000  0.06840   7.14
O009  1  0.52181  0.46174  0.57902 11.00000  0.03754   6.94
O00A  1  0.38072  0.18951  0.49591 11.00000  0.04673   6.33
O00B  1  0.12966  0.06482  0.75000 10.50000  0.11939   5.86
HKLF 4
END
