TITL 1230_expF_1_5_expS_1_0_1230_d.res in P6(3)22
REM Old TITL 1230 in P6(3)mc
REM SHELXT solution in P6(3)22: R1 0.366, Rweak 0.034, Alpha 0.250
REM <I/s>   0.000 for    0 systematic absences,  Orientation as input
REM Flack x = -0.457 ( 0.826 ) from    64 Parsons' quotients
REM Formula found by SHELXT:  O3 V

CELL  0.71073  12.4770  12.4770   4.8820   90.000   90.000  120.000
ZERR    8.000   0.0018   0.0018   0.0010    0.000    0.000    0.000
LATT -1
SYMM -Y, X-Y, Z
SYMM -X+Y, -X, Z
SYMM -X, -Y, 1/2+Z
SYMM Y, -X+Y, 1/2+Z
SYMM X-Y, X, 1/2+Z
SYMM Y, X, -Z
SYMM X-Y, -Y, -Z
SYMM -X, -X+Y, -Z
SYMM -Y, -X, 1/2-Z
SYMM -X+Y, Y, 1/2-Z
SYMM X, X-Y, 1/2-Z
SFAC O H V CO
UNIT 8 8 8 8
L.S. 10
BOND
LIST 6
FMAP 2
PLAN 20
V001  3  0.35142  0.42687  0.22967 11.00000  0.04846  24.39
V002  3  0.29835  0.14918  0.25000 10.50000  0.06913  22.97
V003  3  0.00000  0.00000  0.00000 10.16667  0.13490  15.61
O004  1  0.33333  0.66667  0.75000 10.16667  0.00972  11.22
O005  1  0.33333  0.66667  0.25000 10.16667  0.03395  10.47
O006  1  0.37959  0.57456  0.38447 11.00000  0.02827  10.06
O007  1  0.39249  0.20662  0.51268 11.00000  0.02319   8.56
O008  1  0.48107  0.54694  0.56840 11.00000  0.02310   7.78
O009  1  0.00000  0.00000  0.25000 10.16667  0.02225   6.69
O00A  1  0.33559  0.27834  0.36562 11.00000  0.03639   6.59
O00B  1  0.47278  0.52723  0.75000 10.50000  0.15526   6.18
HKLF 4
END
