TITL 1230_expF_1_3_expS_1_3_1230_a.res in P6(3)mc
REM Old TITL 1230 in P6(3)mc
REM SHELXT solution in P6(3)mc: R1 0.195, Rweak 0.044, Alpha 0.098
REM <I/s>   0.000 for    0 systematic absences,  Orientation as input
REM Flack x = -1.198 ( 0.518 ) from    59 Parsons' quotients
REM Formula found by SHELXT:  O19 V11

CELL  0.71073  12.4770  12.4770   4.8820   90.000   90.000  120.000
ZERR    8.000   0.0018   0.0018   0.0010    0.000    0.000    0.000
LATT -1
SYMM -Y, X-Y, Z
SYMM -X+Y, -X, Z
SYMM -X, -Y, 1/2+Z
SYMM Y, -X+Y, 1/2+Z
SYMM X-Y, X, 1/2+Z
SYMM -Y, -X, Z
SYMM -X+Y, Y, Z
SYMM X, X-Y, Z
SYMM Y, X, 1/2+Z
SYMM X-Y, -Y, 1/2+Z
SYMM -X, -X+Y, 1/2+Z
SFAC O H V CO
UNIT 8 8 8 8
L.S. 10
BOND
LIST 6
FMAP 2
PLAN 20
V001  3  0.42628  0.35010  0.24447 11.00000  0.03654  20.39
V002  3  0.29837  0.14919  0.77482 10.50000  0.04123  20.38
V003  3  0.00000  0.00000  0.60227 10.16667  0.08591  16.25
V004  3  0.66667  0.33334  0.53989 10.16667  0.09219  16.11
O005  1  0.52635  0.47365 -0.05545 10.50000  0.00100  10.85
O006  1  0.33851  0.27351  0.59138 11.00000  0.00677  10.71
O007  1  0.38603  0.19302  1.05545 10.50000  0.00010  10.51
O008  1  0.60083  0.39917  0.38997 10.50000  0.00287  10.14
O009  1  0.66667  0.33334  0.29003 10.16667  0.02187   8.90
O00A  1  0.16053  0.08026  0.83347 10.50000  0.01073   8.02
HKLF 4
END
