TITL 1230_expF_1_3_expS_1_4_1230_d.res in P6(3)22
REM Old TITL 1230 in P6(3)mc
REM SHELXT solution in P6(3)22: R1 0.283, Rweak 0.079, Alpha 0.236
REM <I/s>   0.000 for    0 systematic absences,  Orientation as input
REM Flack x = -0.174 ( 0.524 ) from    34 Parsons' quotients
REM Formula found by SHELXT:  O3 V

CELL  0.71073  12.4770  12.4770   4.8820   90.000   90.000  120.000
ZERR    8.000   0.0018   0.0018   0.0010    0.000    0.000    0.000
LATT -1
SYMM -Y, X-Y, Z
SYMM -X+Y, -X, Z
SYMM -X, -Y, 1/2+Z
SYMM Y, -X+Y, 1/2+Z
SYMM X-Y, X, 1/2+Z
SYMM Y, X, -Z
SYMM X-Y, -Y, -Z
SYMM -X, -X+Y, -Z
SYMM -Y, -X, 1/2-Z
SYMM -X+Y, Y, 1/2-Z
SYMM X, X-Y, 1/2-Z
SFAC O H V CO
UNIT 8 8 8 8
L.S. 10
BOND
LIST 6
FMAP 2
PLAN 20
V001  3  0.42918  0.35203  0.28062 11.00000  0.04444  23.39
V002  3  0.29395  0.14697  0.75000 10.50000  0.03745  23.24
V003  3  0.00000  0.00000  0.50000 10.16667  0.05168  15.86
O004  1  0.66666  0.33333 -0.01742 10.33333  0.00113  12.19
O005  1  0.33704  0.07618  0.55357 11.00000  0.02712  10.85
O006  1  0.66666  0.33333  0.25000 10.16667  0.14473   8.61
O007  1  0.52144  0.45107 -0.09365 11.00000  0.00486   7.60
O008  1  0.58597  0.36655  0.15100 11.00000  0.03210   7.47
O009  1  0.16897  0.08449  0.75000 10.50000  0.01749   6.57
O00A  1  0.39852  0.21551  0.53116 11.00000  0.03169   6.55
HKLF 4
END
