TITL 1230_expF_1_5_expS_0_9_1230_a.res in P-6m2
REM Old TITL 1230 in P6(3)mc
REM SHELXT solution in P-6m2: R1 0.333, Rweak 0.023, Alpha 0.182
REM <I/s>   0.000 for    0 systematic absences,  Orientation as input
REM Flack x = -0.935 ( 0.452 ) from   127 Parsons' quotients
REM Formula found by SHELXT:  O33 V20 Co3

CELL  0.71073  12.4770  12.4770   4.8820   90.000   90.000  120.000
ZERR    8.000   0.0018   0.0018   0.0010    0.000    0.000    0.000
LATT -1
SYMM -Y, X-Y, Z
SYMM -X+Y, -X, Z
SYMM X, Y, -Z
SYMM -Y, X-Y, -Z
SYMM -X+Y, -X, -Z
SYMM -Y, -X, Z
SYMM -X+Y, Y, Z
SYMM X, X-Y, Z
SYMM -Y, -X, -Z
SYMM -X+Y, Y, -Z
SYMM X, X-Y, -Z
SFAC O H V CO
UNIT 8 8 8 8
L.S. 10
BOND
LIST 6
FMAP 2
PLAN 20
CO01  4  0.48373  0.51627  1.00000 10.25000  0.06038  26.83
V002  3  0.25684  0.01461  0.00000 10.50000  0.04319  22.89
V003  3  0.18387  0.36774  0.50000 10.25000  0.05188  18.64
V004  3  0.33333  0.66667  1.00000 10.08333  0.10746  17.99
V005  3  0.00000  0.00000 -0.33346 10.16667  0.07450  17.70
V006  3  0.33333  0.66667  0.89446 10.16667  0.09720  17.16
V007  3  0.41640  0.31947  0.50000 10.50000  0.06321  16.25
O008  1  0.66666  0.33333  0.00000 10.08333  0.00010  15.20
O009  1  0.66667  0.33333 -0.50000 10.08333  0.00165  11.80
O00A  1  0.13562  0.06781  0.14071 10.50000  0.05213  11.11
O00B  1  0.49846  0.24923  0.00000 10.25000  0.04657  10.08
O00C  1  0.26083  0.52166  0.65844 10.50000  0.01879   9.81
O00D  1  0.52552  0.47448  0.74965 10.50000  0.00349   9.05
O00E  1  0.25456  0.12728  0.29824 10.50000  0.01486   7.94
O00F  1  0.33011  0.16506  0.00000 10.25000  0.03665   7.44
O00G  1  0.00000  0.00000  0.00000 10.08333  0.26318   5.79
HKLF 4
END
