TITL 1230_expF_1_5_expS_1_4_1230_b.res in P-6m2
REM Old TITL 1230 in P6(3)mc
REM SHELXT solution in P-6m2: R1 0.326, Rweak 0.031, Alpha 0.182
REM <I/s>   0.000 for    0 systematic absences,  Orientation as input
REM Flack x = -0.568 ( 0.530 ) from    42 Parsons' quotients
REM Formula found by SHELXT:  O33 V20 Co3

CELL  0.71073  12.4770  12.4770   4.8820   90.000   90.000  120.000
ZERR    8.000   0.0018   0.0018   0.0010    0.000    0.000    0.000
LATT -1
SYMM -Y, X-Y, Z
SYMM -X+Y, -X, Z
SYMM X, Y, -Z
SYMM -Y, X-Y, -Z
SYMM -X+Y, -X, -Z
SYMM -Y, -X, Z
SYMM -X+Y, Y, Z
SYMM X, X-Y, Z
SYMM -Y, -X, -Z
SYMM -X+Y, Y, -Z
SYMM X, X-Y, -Z
SFAC O H V CO
UNIT 8 8 8 8
L.S. 10
BOND
LIST 6
FMAP 2
PLAN 20
CO01  4  0.48237  0.51763  1.50000 10.25000  0.07788  26.83
V002  3  0.26140  0.24385  0.50000 10.50000  0.04751  22.89
V003  3  0.18004  0.36008  1.00000 10.25000  0.07938  18.64
V004  3  0.33333  0.66667  1.50000 10.08333  0.12359  17.99
V005  3  0.00000  0.00000  0.18841 10.16667  0.12740  17.70
V006  3  0.33333  0.66667  1.34689 10.16667  0.16471  17.16
V007  3  0.41221  0.32157  1.00000 10.50000  0.06216  16.25
O008  1  0.66667  0.33333  0.50000 10.08333  0.00010  15.20
O009  1  0.66666  0.33333  0.00000 10.08333  0.00010  11.80
O00A  1  0.15248  0.07623  0.63109 10.50000  0.02581  11.11
O00B  1  0.51355  0.25678  0.50000 10.25000  0.05888  10.08
O00C  1  0.25242  0.50484  1.11266 10.50000  0.02798   9.81
O00D  1  0.52807  0.47193  1.20429 10.50000  0.00542   9.05
O00E  1  0.25086  0.12543  0.79398 10.50000  0.05324   7.94
O00F  1  0.34788  0.17394  0.50000 10.25000  0.02214   7.44
O00G  1  0.00000  0.00000  0.50000 10.08333  0.34246   5.79
HKLF 4
END
