TITL 1230_expF_0_6_expS_1_2_1230_a.res in P-62m
REM Old TITL 1230 in P6(3)mc
REM SHELXT solution in P-62m: R1 0.208, Rweak 0.377, Alpha 0.274
REM <I/s>   0.000 for    0 systematic absences,  Orientation as input
REM Formula found by SHELXT:  O64 Co3

CELL  0.71073  12.4770  12.4770   4.8820   90.000   90.000  120.000
ZERR    8.000   0.0018   0.0018   0.0010    0.000    0.000    0.000
LATT -1
SYMM -Y, X-Y, Z
SYMM -X+Y, -X, Z
SYMM X, Y, -Z
SYMM -Y, X-Y, -Z
SYMM -X+Y, -X, -Z
SYMM Y, X, -Z
SYMM X-Y, -Y, -Z
SYMM -X, -X+Y, -Z
SYMM Y, X, Z
SYMM X-Y, -Y, Z
SYMM -X, -X+Y, Z
SFAC O H V CO
UNIT 8 8 8 8
L.S. 10
BOND
LIST 6
FMAP 2
PLAN 20
CO01  4  0.74898  1.00000  1.00000 10.25000  0.01077  48.31
O002  1  0.30015  0.88928  0.50000 10.50000  0.00010  11.90
O003  1  0.29865  1.00000  1.00000 10.25000  0.02168  10.64
O004  1  0.15596  1.00000  1.00000 10.25000  0.05726   8.25
O005  1  0.00000  1.00000  1.00000 10.08333  0.20038   8.23
O006  1  0.59538  0.96948  0.50000 10.50000  0.05265   7.61
O007  1  0.55632  0.76129  1.00000 10.50000  0.08158   7.08
O008  1  0.42950  0.91684  0.50000 10.50000  0.00010   6.67
O009  1  0.48084  0.82269  1.00000 10.50000  0.05327   6.56
O00A  1  0.23072  0.92070  0.50000 10.50000  0.05376   5.86
O00B  1  0.36626  0.80773  1.00000 10.50000  0.05292   5.26
O00C  1  0.24670  1.00000  0.50000 10.50000  0.11977   5.17
O00D  1  0.44070  1.00000  1.00000 10.25000  0.00010   4.69
O00E  1  0.38169  0.73735  0.50000 10.50000  0.02893   4.47
HKLF 4
END
