TITL 1230_expF_1_4_expS_0_5_1230_b.res in P-62c
REM Old TITL 1230 in P6(3)mc
REM SHELXT solution in P-62c: R1 0.294, Rweak 0.042, Alpha 0.279
REM <I/s>   0.000 for    0 systematic absences,  Orientation as input
REM Flack x = -0.556 ( 0.362 ) from   132 Parsons' quotients
REM Formula found by SHELXT:  O35 V9

CELL  0.71073  12.4770  12.4770   4.8820   90.000   90.000  120.000
ZERR    8.000   0.0018   0.0018   0.0010    0.000    0.000    0.000
LATT -1
SYMM -Y, X-Y, Z
SYMM -X+Y, -X, Z
SYMM X, Y, 1/2-Z
SYMM -Y, X-Y, 1/2-Z
SYMM -X+Y, -X, 1/2-Z
SYMM Y, X, -Z
SYMM X-Y, -Y, -Z
SYMM -X, -X+Y, -Z
SYMM Y, X, 1/2+Z
SYMM X-Y, -Y, 1/2+Z
SYMM -X, -X+Y, 1/2+Z
SFAC O H V CO
UNIT 8 8 8 8
L.S. 10
BOND
LIST 6
FMAP 2
PLAN 20
V001  3  0.07696  0.41893  0.25000 10.50000  0.04248  24.04
V002  3  0.14664  0.30343  0.75000 10.50000  0.03989  22.27
V003  3  0.43548  0.36011  0.75000 10.50000  0.05316  19.88
O004  1  0.00000  0.00000  0.75000 10.16667  0.03573  12.92
O005  1  0.66666  0.33333  0.75000 10.16667  0.05122   9.81
O006  1  0.00000  0.00000  1.00000 10.16667  0.07923   9.52
O007  1  0.66666  0.33333  1.16148 10.33333  0.07185   8.67
O008  1  0.59455  0.38185  0.86722 11.00000  0.04318   8.52
O009  1  0.54023  0.47942  1.08883 11.00000  0.05156   7.10
O00A  1  0.28341  0.33780  0.90275 11.00000  0.04787   6.74
O00B  1  0.06788  0.13775  0.75000 10.50000  0.12138   6.67
O00C  1  0.17192  0.39341  0.47919 11.00000  0.02065   6.12
O00D  1  0.01854  0.21492  0.75000 10.50000  0.04098   5.59
HKLF 4
END
