TITL 1230_expF_1_2_expS_1_5_1230_b.res in P-6m2
REM Old TITL 1230 in P6(3)mc
REM SHELXT solution in P-6m2: R1 0.237, Rweak 0.084, Alpha 0.213
REM <I/s>   0.000 for    0 systematic absences,  Orientation as input
REM Flack x =  0.273 ( 0.311 ) from    23 Parsons' quotients
REM Formula found by SHELXT:  O55 V15 Co3

CELL  0.71073  12.4770  12.4770   4.8820   90.000   90.000  120.000
ZERR    8.000   0.0018   0.0018   0.0010    0.000    0.000    0.000
LATT -1
SYMM -Y, X-Y, Z
SYMM -X+Y, -X, Z
SYMM X, Y, -Z
SYMM -Y, X-Y, -Z
SYMM -X+Y, -X, -Z
SYMM -Y, -X, Z
SYMM -X+Y, Y, Z
SYMM X, X-Y, Z
SYMM -Y, -X, -Z
SYMM -X+Y, Y, -Z
SYMM X, X-Y, -Z
SFAC O H V CO
UNIT 8 8 8 8
L.S. 10
BOND
LIST 6
FMAP 2
PLAN 20
CO01  4  0.29174  0.14587  0.00000 10.25000  0.03782  27.97
V002  3  0.34562  0.42197  0.00000 10.50000  0.01942  21.62
V003  3  0.42747  0.35469  0.50000 10.50000  0.04804  21.00
V004  3  0.15826  0.31652  0.50000 10.25000  0.06157  16.90
O005  1  0.00000  0.00000 -0.30358 10.16667  0.00010  14.34
O006  1  0.66667  0.33333  0.84187 10.16667  0.00010  11.45
O007  1  0.33333  0.66666  0.72744 10.16667  0.00010  11.44
O008  1  0.38536  0.19268  0.31649 10.50000  0.00010  11.04
O009  1  0.59468  0.40532  0.63678 10.50000  0.00010  10.87
O00A  1  0.16228  0.08114  0.00000 10.50000  0.04183   7.74
O00B  1  0.24408  0.48815  0.50000 10.25000  0.00452   7.25
O00C  1  0.27960  0.34182  0.30744 11.00000  0.02014   6.19
O00D  1  0.52399  0.47601  0.83322 10.50000  0.03508   6.09
O00E  1  0.55287  0.44714  1.00000 10.25000  0.10358   6.00
O00F  1  0.47040  0.52960  0.50000 10.25000  0.05478   5.62
O00G  1  0.66667  0.33333  0.50000 10.08333  0.00063   5.52
O00H  1  0.60403  0.30201  0.50000 10.25000  0.23015   5.50
HKLF 4
END
