TITL 1230_expF_1_3_expS_0_5_1230_a.res in P6(3)mc
REM Old TITL 1230 in P6(3)mc
REM SHELXT solution in P6(3)mc: R1 0.243, Rweak 0.055, Alpha 0.098
REM <I/s>   0.000 for    0 systematic absences,  Orientation as input
REM Flack x = -0.843 ( 0.668 ) from   126 Parsons' quotients
REM Formula found by SHELXT:  O19 V11

CELL  0.71073  12.4770  12.4770   4.8820   90.000   90.000  120.000
ZERR    8.000   0.0018   0.0018   0.0010    0.000    0.000    0.000
LATT -1
SYMM -Y, X-Y, Z
SYMM -X+Y, -X, Z
SYMM -X, -Y, 1/2+Z
SYMM Y, -X+Y, 1/2+Z
SYMM X-Y, X, 1/2+Z
SYMM -Y, -X, Z
SYMM -X+Y, Y, Z
SYMM X, X-Y, Z
SYMM Y, X, 1/2+Z
SYMM X-Y, -Y, 1/2+Z
SYMM -X, -X+Y, 1/2+Z
SFAC O H V CO
UNIT 8 8 8 8
L.S. 10
BOND
LIST 6
FMAP 2
PLAN 20
V001  3  0.42967  0.35115  0.22685 11.00000  0.04988  20.39
V002  3  0.30086  0.15043  0.74815 10.50000  0.03187  20.38
V003  3  0.00000  0.00000  0.55856 10.16667  0.12176  16.25
V004  3  0.66667  0.33334  0.48325 10.16667  0.04982  16.11
O005  1  0.54092  0.45908 -0.06136 10.50000  0.00010  10.85
O006  1  0.34111  0.27278  0.56080 11.00000  0.01428  10.71
O007  1  0.38668  0.19334  1.06136 10.50000  0.02118  10.51
O008  1  0.60476  0.39524  0.36858 10.50000  0.06951  10.14
O009  1  0.66667  0.33334  0.14689 10.16667  0.01179   8.90
O00A  1  0.14886  0.07442  0.78947 10.50000  0.08254   8.02
HKLF 4
END
