TITL 1230_expF_1_3_expS_1_2_1230_c.res in P-62c
REM Old TITL 1230 in P6(3)mc
REM SHELXT solution in P-62c: R1 0.256, Rweak 0.065, Alpha 0.235
REM <I/s>   0.000 for    0 systematic absences,  Orientation as input
REM Flack x =  0.498 ( 0.320 ) from    82 Parsons' quotients
REM Formula found by SHELXT:  O46 V6 Co3

CELL  0.71073  12.4770  12.4770   4.8820   90.000   90.000  120.000
ZERR    8.000   0.0018   0.0018   0.0010    0.000    0.000    0.000
LATT -1
SYMM -Y, X-Y, Z
SYMM -X+Y, -X, Z
SYMM X, Y, 1/2-Z
SYMM -Y, X-Y, 1/2-Z
SYMM -X+Y, -X, 1/2-Z
SYMM Y, X, -Z
SYMM X-Y, -Y, -Z
SYMM -X, -X+Y, -Z
SYMM Y, X, 1/2+Z
SYMM X-Y, -Y, 1/2+Z
SYMM -X, -X+Y, 1/2+Z
SFAC O H V CO
UNIT 8 8 8 8
L.S. 10
BOND
LIST 6
FMAP 2
PLAN 20
CO01  4  0.64801  0.08456  0.75000 10.50000  0.04697  28.71
V002  3  0.29581  0.14337  0.25000 10.50000  0.02652  23.22
V003  3  0.41640  0.07092  0.75000 10.50000  0.03520  18.76
O004  1  0.00001  0.00000  0.00000 10.16667  0.00010  14.85
O005  1  0.66666  0.33334  1.01604 10.33333  0.00010  12.49
O006  1  0.66666  0.33334  0.75000 10.16667  0.03033   9.02
O007  1  0.44151 -0.07532  0.59629 11.00000  0.04252   7.50
O008  1  0.34686  0.08312  0.45419 11.00000  0.05257   7.34
O009  1  0.17827  0.07655  0.25000 10.50000  0.02249   7.28
O00A  1  0.64809  0.21595  0.84885 11.00000  0.08469   6.80
O00B  1  0.50368 -0.09323  0.75000 10.50000  0.03363   6.60
O00C  1  0.33642  0.28477  0.43114 11.00000  0.06936   6.55
O00D  1  0.51863 -0.00175  0.75000 10.50000  0.02306   6.45
O00E  1  0.42926  0.17609  0.25000 10.50000  0.05623   6.38
O00F  1  0.37459  0.17591  0.52407 11.00000  0.06973   6.18
HKLF 4
END
