TITL 1230_expF_1_4_expS_0_9_1230_d.res in P6(3)22
REM Old TITL 1230 in P6(3)mc
REM SHELXT solution in P6(3)22: R1 0.315, Rweak 0.094, Alpha 0.284
REM <I/s>   0.000 for    0 systematic absences,  Orientation as input
REM Flack x =  0.343 ( 0.472 ) from    77 Parsons' quotients
REM Formula found by SHELXT:  O32 V9

CELL  0.71073  12.4770  12.4770   4.8820   90.000   90.000  120.000
ZERR    8.000   0.0018   0.0018   0.0010    0.000    0.000    0.000
LATT -1
SYMM -Y, X-Y, Z
SYMM -X+Y, -X, Z
SYMM -X, -Y, 1/2+Z
SYMM Y, -X+Y, 1/2+Z
SYMM X-Y, X, 1/2+Z
SYMM Y, X, -Z
SYMM X-Y, -Y, -Z
SYMM -X, -X+Y, -Z
SYMM -Y, -X, 1/2-Z
SYMM -X+Y, Y, 1/2-Z
SYMM X, X-Y, 1/2-Z
SFAC O H V CO
UNIT 8 8 8 8
L.S. 10
BOND
LIST 6
FMAP 2
PLAN 20
V001  3  0.42922  0.35465  0.23196 11.00000  0.05989  20.88
V002  3  0.30099  0.15049  0.75000 10.50000  0.06487  19.44
O003  1  0.00000  0.00000  0.75000 10.16667  0.05684  12.56
O004  1  0.66666  0.33333  0.25000 10.16667  0.10326   9.48
O005  1  0.66666  0.33333  0.64309 10.33333  0.04983   9.39
O006  1  0.00000  0.00000  0.50000 10.16667  0.00409   9.14
O007  1  0.58485  0.37128  0.36124 11.00000  0.02246   8.51
O008  1  0.33534  0.26074  0.57492 11.00000  0.07215   7.14
O009  1  0.52012  0.46098  0.58392 11.00000  0.03303   6.94
O00A  1  0.38057  0.18934  0.49410 11.00000  0.04140   6.33
O00B  1  0.13014  0.06506  0.75000 10.50000  0.11970   5.86
HKLF 4
END
