TITL 1230_expF_1_5_expS_0_6_1230_d.res in P6(3)22
REM Old TITL 1230 in P6(3)mc
REM SHELXT solution in P6(3)22: R1 0.373, Rweak 0.035, Alpha 0.250
REM <I/s>   0.000 for    0 systematic absences,  Orientation as input
REM Flack x = -0.568 ( 0.819 ) from    90 Parsons' quotients
REM Formula found by SHELXT:  O3 V

CELL  0.71073  12.4770  12.4770   4.8820   90.000   90.000  120.000
ZERR    8.000   0.0018   0.0018   0.0010    0.000    0.000    0.000
LATT -1
SYMM -Y, X-Y, Z
SYMM -X+Y, -X, Z
SYMM -X, -Y, 1/2+Z
SYMM Y, -X+Y, 1/2+Z
SYMM X-Y, X, 1/2+Z
SYMM Y, X, -Z
SYMM X-Y, -Y, -Z
SYMM -X, -X+Y, -Z
SYMM -Y, -X, 1/2-Z
SYMM -X+Y, Y, 1/2-Z
SYMM X, X-Y, 1/2-Z
SFAC O H V CO
UNIT 8 8 8 8
L.S. 10
BOND
LIST 6
FMAP 2
PLAN 20
V001  3  0.65034  0.57475  0.77431 11.00000  0.04589  24.39
V002  3  0.84995  0.69989  0.25000 10.50000  0.05026  22.97
V003  3  1.00000  1.00000  0.00000 10.16667  0.10908  15.61
O004  1  0.33334  0.66667  0.75000 10.16667  0.01702  11.22
O005  1  0.33334  0.66667  1.25000 10.16667  0.10101  10.47
O006  1  0.38327  0.57079  1.10683 11.00000  0.00010  10.06
O007  1  0.78455  0.60581  0.55699 11.00000  0.02990   8.56
O008  1  0.48038  0.55701  0.90737 11.00000  0.04133   7.78
O009  1  1.00000  1.00000  0.25000 10.16667  0.00334   6.69
O00A  1  0.73027  0.68041  0.37729 11.00000  0.02670   6.59
O00B  1  0.48463  0.51538  0.75000 10.50000  0.10347   6.18
HKLF 4
END
