TITL 1230_expF_1_4_expS_1_4_1230_d.res in P6(3)22
REM Old TITL 1230 in P6(3)mc
REM SHELXT solution in P6(3)22: R1 0.300, Rweak 0.036, Alpha 0.284
REM <I/s>   0.000 for    0 systematic absences,  Orientation as input
REM Flack x =  0.464 ( 0.536 ) from    40 Parsons' quotients
REM Formula found by SHELXT:  O32 V9

CELL  0.71073  12.4770  12.4770   4.8820   90.000   90.000  120.000
ZERR    8.000   0.0018   0.0018   0.0010    0.000    0.000    0.000
LATT -1
SYMM -Y, X-Y, Z
SYMM -X+Y, -X, Z
SYMM -X, -Y, 1/2+Z
SYMM Y, -X+Y, 1/2+Z
SYMM X-Y, X, 1/2+Z
SYMM Y, X, -Z
SYMM X-Y, -Y, -Z
SYMM -X, -X+Y, -Z
SYMM -Y, -X, 1/2-Z
SYMM -X+Y, Y, 1/2-Z
SYMM X, X-Y, 1/2-Z
SFAC O H V CO
UNIT 8 8 8 8
L.S. 10
BOND
LIST 6
FMAP 2
PLAN 20
V001  3  0.56881  0.64726  0.76769 11.00000  0.04599  20.88
V002  3  0.70374  0.85187  0.25000 10.50000  0.06381  19.44
O003  1  1.00000  1.00000  0.25000 10.16667  0.04173  12.56
O004  1  0.33334  0.66666  0.75000 10.16667  0.21537   9.48
O005  1  0.33333  0.66666  1.09931 10.33333  0.03639   9.39
O006  1  1.00000  1.00000  0.50000 10.16667  0.00010   9.14
O007  1  0.41046  0.62678  0.64457 11.00000  0.02776   8.51
O008  1  0.65081  0.72077  0.45984 11.00000  0.00415   7.14
O009  1  0.48122  0.54867  1.09028 11.00000  0.02686   6.94
O00A  1  0.64006  0.77252  0.50732 11.00000  0.20364   6.33
O00B  1  0.85916  0.92958  0.25000 10.50000  0.12572   5.86
HKLF 4
END
