TITL 1230_expF_1_4_expS_1_5_1230_a.res in P6(3)mc
REM Old TITL 1230 in P6(3)mc
REM SHELXT solution in P6(3)mc: R1 0.240, Rweak 0.030, Alpha 0.220
REM <I/s>   0.000 for    0 systematic absences,  Orientation as input
REM Flack x = -1.454 ( 0.820 ) from    34 Parsons' quotients
REM Formula found by SHELXT:  O22 V9

CELL  0.71073  12.4770  12.4770   4.8820   90.000   90.000  120.000
ZERR    8.000   0.0018   0.0018   0.0010    0.000    0.000    0.000
LATT -1
SYMM -Y, X-Y, Z
SYMM -X+Y, -X, Z
SYMM -X, -Y, 1/2+Z
SYMM Y, -X+Y, 1/2+Z
SYMM X-Y, X, 1/2+Z
SYMM -Y, -X, Z
SYMM -X+Y, Y, Z
SYMM X, X-Y, Z
SYMM Y, X, 1/2+Z
SYMM X-Y, -Y, 1/2+Z
SYMM -X, -X+Y, 1/2+Z
SFAC O H V CO
UNIT 8 8 8 8
L.S. 10
BOND
LIST 6
FMAP 2
PLAN 20
V001  3  0.15022  0.84978  0.77508 10.50000  0.05690  17.74
V002  3  0.07534  0.64922  0.24156 11.00000  0.05775  17.32
O003  1  0.00000  1.00000  1.08855 10.16667  0.00010  11.69
O004  1  0.18993  0.59496  0.38161 10.50000  0.04398  10.49
O005  1  0.33334  0.66666  0.51164 10.16667  0.00010   9.99
O006  1  0.33334  0.66666  0.26258 10.16667  0.04932   9.63
O007  1  0.19050  0.80950  1.04954 10.50000  0.01572   9.38
O008  1  0.05841  0.52920 -0.05415 10.50000  0.00806   8.56
O009  1  0.07994  0.92006  0.84280 10.50000  0.02775   7.23
O00A  1  0.06859  0.72657  0.58253 11.00000  0.02442   6.33
O00B  1  0.33334  0.66666 -0.08855 10.16667  0.06622   5.15
HKLF 4
END
