TITL 1230_expF_1_4_expS_1_1_1230_b.res in P-6m2
REM Old TITL 1230 in P6(3)mc
REM SHELXT solution in P-6m2: R1 0.262, Rweak 0.039, Alpha 0.191
REM <I/s>   0.000 for    0 systematic absences,  Orientation as input
REM Flack x =  0.489 ( 0.283 ) from   111 Parsons' quotients
REM Formula found by SHELXT:  O47 V17 Co3

CELL  0.71073  12.4770  12.4770   4.8820   90.000   90.000  120.000
ZERR    8.000   0.0018   0.0018   0.0010    0.000    0.000    0.000
LATT -1
SYMM -Y, X-Y, Z
SYMM -X+Y, -X, Z
SYMM X, Y, -Z
SYMM -Y, X-Y, -Z
SYMM -X+Y, -X, -Z
SYMM -Y, -X, Z
SYMM -X+Y, Y, Z
SYMM X, X-Y, Z
SYMM -Y, -X, -Z
SYMM -X+Y, Y, -Z
SYMM X, X-Y, -Z
SFAC O H V CO
UNIT 8 8 8 8
L.S. 10
BOND
LIST 6
FMAP 2
PLAN 20
CO01  4  0.51775  0.48225  0.00000 10.25000  0.04402  26.38
V002  3  0.74153  0.75932  1.00000 10.50000  0.03269  22.59
V003  3  0.66666  0.33333  0.50000 10.08333  0.05978  21.96
V004  3  0.58760  0.67686  0.50000 10.50000  0.05125  18.53
V005  3  0.33333  0.66667  0.50000 10.08333  0.06548  16.53
V006  3  0.82609  0.65220  0.50000 10.25000  0.09917  15.81
O007  1  1.00000  1.00000  0.75522 10.16667  0.00010  14.04
O008  1  0.33333  0.66667  0.00000 10.08333  0.00010  12.03
O009  1  0.66667  0.33334  0.33286 10.16667  0.00560   9.77
O00A  1  0.59188  0.40812  0.00000 10.25000  0.02635   9.35
O00B  1  0.85665  0.92833  0.84775 10.50000  0.02812   9.33
O00C  1  0.73161  0.86581  0.68545 10.50000  0.02115   8.87
O00D  1  0.46883  0.53117  0.28269 10.50000  0.01140   8.84
O00E  1  0.74965  0.49931  0.37396 10.50000  0.01474   7.72
O00F  1  0.73269  0.67196  0.66220 11.00000  0.04850   6.17
O00G  1  0.66845  0.83422  0.50000 10.25000  0.02222   5.78
HKLF 4
END
