TITL 1230_expF_1_5_expS_1_5_1230_a.res in P6(3)mc
REM Old TITL 1230 in P6(3)mc
REM SHELXT solution in P6(3)mc: R1 0.316, Rweak 0.031, Alpha 0.153
REM <I/s>   0.000 for    0 systematic absences,  Orientation as input
REM Flack x =  0.040 ( 0.625 ) from    21 Parsons' quotients
REM Formula found by SHELXT:  O8 V5

CELL  0.71073  12.4770  12.4770   4.8820   90.000   90.000  120.000
ZERR    8.000   0.0018   0.0018   0.0010    0.000    0.000    0.000
LATT -1
SYMM -Y, X-Y, Z
SYMM -X+Y, -X, Z
SYMM -X, -Y, 1/2+Z
SYMM Y, -X+Y, 1/2+Z
SYMM X-Y, X, 1/2+Z
SYMM -Y, -X, Z
SYMM -X+Y, Y, Z
SYMM X, X-Y, Z
SYMM Y, X, 1/2+Z
SYMM X-Y, -Y, 1/2+Z
SYMM -X, -X+Y, 1/2+Z
SFAC O H V CO
UNIT 8 8 8 8
L.S. 10
BOND
LIST 6
FMAP 2
PLAN 20
V001  3  0.35274  0.42342  0.59544 11.00000  0.08487  19.02
V002  3  0.14757  0.29515  1.09206 10.50000  0.09200  17.10
V003  3  0.33333  0.66667  0.24722 10.16667  0.22708  15.50
O004  1  0.40259  0.59741  0.43816 10.50000  0.02471  11.93
O005  1  0.19293  0.38587  0.78622 10.50000  0.02785  11.31
O006  1  0.33333  0.66667 -0.09206 10.16667  0.01471  10.76
O007  1  0.00000  0.00000  0.82948 10.16667  0.01811  10.68
O008  1  0.00000  0.00000  0.65855 10.16667  0.02646   8.67
O009  1  0.46982  0.53018  0.87579 10.50000  0.04946   7.79
O00A  1  0.33333  0.66667  0.49779 10.16667  0.06565   6.86
O00B  1  0.08348  0.16696  0.96072 10.50000  0.01517   6.24
HKLF 4
END
