TITL 1230_expF_1_2_expS_1_4_1230_a.res in P6(3)mc
REM Old TITL 1230 in P6(3)mc
REM SHELXT solution in P6(3)mc: R1 0.250, Rweak 0.097, Alpha 0.242
REM <I/s>   0.000 for    0 systematic absences,  Orientation as input
REM Flack x = -1.132 ( 0.563 ) from    40 Parsons' quotients
REM Formula found by SHELXT:  O8 V3

CELL  0.71073  12.4770  12.4770   4.8820   90.000   90.000  120.000
ZERR    8.000   0.0018   0.0018   0.0010    0.000    0.000    0.000
LATT -1
SYMM -Y, X-Y, Z
SYMM -X+Y, -X, Z
SYMM -X, -Y, 1/2+Z
SYMM Y, -X+Y, 1/2+Z
SYMM X-Y, X, 1/2+Z
SYMM -Y, -X, Z
SYMM -X+Y, Y, Z
SYMM X, X-Y, Z
SYMM Y, X, 1/2+Z
SYMM X-Y, -Y, 1/2+Z
SYMM -X, -X+Y, 1/2+Z
SFAC O H V CO
UNIT 8 8 8 8
L.S. 10
BOND
LIST 6
FMAP 2
PLAN 20
V001  3  0.64896  0.57333  0.24173 11.00000  0.04120  23.01
V002  3  0.84946  0.69891  0.70636 10.50000  0.05358  21.27
O003  1  0.66666  0.33334 -0.06794 10.16667  0.00010  19.82
O004  1  1.00000  1.00000  1.06794 10.16667  0.00010  15.46
O005  1  0.72359  0.65499  0.57399 11.00000  0.00942  13.28
O006  1  0.80752  0.61505  1.02742 10.50000  0.00834   9.20
O007  1  0.46288  0.53712  0.37358 10.50000  0.08634   8.54
O008  1  0.66666  0.33334  0.26179 10.16667  0.01617   8.53
O009  1  0.91881  0.83762  0.85660 10.50000  0.00364   8.04
O00A  1  0.83951  0.67903  0.40217 10.50000  0.03969   8.04
O00B  1  0.60959  0.39041  0.35160 10.50000  0.02717   7.71
HKLF 4
END
