TITL 1230_expF_1_5_expS_1_5_1230_b.res in P-6m2
REM Old TITL 1230 in P6(3)mc
REM SHELXT solution in P-6m2: R1 0.339, Rweak 0.036, Alpha 0.182
REM <I/s>   0.000 for    0 systematic absences,  Orientation as input
REM Flack x = -0.507 ( 0.543 ) from    27 Parsons' quotients
REM Formula found by SHELXT:  O33 V20 Co3

CELL  0.71073  12.4770  12.4770   4.8820   90.000   90.000  120.000
ZERR    8.000   0.0018   0.0018   0.0010    0.000    0.000    0.000
LATT -1
SYMM -Y, X-Y, Z
SYMM -X+Y, -X, Z
SYMM X, Y, -Z
SYMM -Y, X-Y, -Z
SYMM -X+Y, -X, -Z
SYMM -Y, -X, Z
SYMM -X+Y, Y, Z
SYMM X, X-Y, Z
SYMM -Y, -X, -Z
SYMM -X+Y, Y, -Z
SYMM X, X-Y, -Z
SFAC O H V CO
UNIT 8 8 8 8
L.S. 10
BOND
LIST 6
FMAP 2
PLAN 20
CO01  4  0.47959  0.52041  1.00000 10.25000  0.08396  26.83
V002  3  0.26198  0.01682  0.00000 10.50000  0.04435  22.89
V003  3  0.63113  0.81556  1.50000 10.25000  0.08122  18.64
V004  3  0.33333  0.66666  1.00000 10.08333  0.11391  17.99
V005  3  0.00000  0.00000 -0.33060 10.16667  0.09469  17.70
V006  3  0.33333  0.66666  1.18592 10.16667  0.12286  17.16
V007  3  0.41565  0.32325  0.50000 10.50000  0.06866  16.25
O008  1  0.66666  0.33333  0.00000 10.08333  0.00073  15.20
O009  1  0.66667  0.33334 -0.50000 10.08333  0.01970  11.80
O00A  1  0.14376  0.07188  0.13294 10.50000  0.04427  11.11
O00B  1  0.51139  0.25569  0.00000 10.25000  0.03267  10.08
O00C  1  0.50526  0.75263  1.38956 10.50000  0.03788   9.81
O00D  1  0.52641  0.47358  0.70430 10.50000  0.02853   9.05
O00E  1  0.24316  0.12157  0.26478 10.50000  0.05620   7.94
O00F  1  0.31771  0.15885  0.00000 10.25000  0.06883   7.44
O00G  1  0.00000  0.00000  0.00000 10.08333  0.46037   5.79
HKLF 4
END
