TITL 1230_expF_1_5_expS_1_3_1230_d.res in P6(3)22
REM Old TITL 1230 in P6(3)mc
REM SHELXT solution in P6(3)22: R1 0.377, Rweak 0.033, Alpha 0.250
REM <I/s>   0.000 for    0 systematic absences,  Orientation as input
REM Flack x = -0.091 ( 0.759 ) from    47 Parsons' quotients
REM Formula found by SHELXT:  O3 V

CELL  0.71073  12.4770  12.4770   4.8820   90.000   90.000  120.000
ZERR    8.000   0.0018   0.0018   0.0010    0.000    0.000    0.000
LATT -1
SYMM -Y, X-Y, Z
SYMM -X+Y, -X, Z
SYMM -X, -Y, 1/2+Z
SYMM Y, -X+Y, 1/2+Z
SYMM X-Y, X, 1/2+Z
SYMM Y, X, -Z
SYMM X-Y, -Y, -Z
SYMM -X, -X+Y, -Z
SYMM -Y, -X, 1/2-Z
SYMM -X+Y, Y, 1/2-Z
SYMM X, X-Y, 1/2-Z
SFAC O H V CO
UNIT 8 8 8 8
L.S. 10
BOND
LIST 6
FMAP 2
PLAN 20
V001  3  0.35163  0.42702  0.22838 11.00000  0.05320  24.39
V002  3  0.14884  0.29766  0.75000 10.50000  0.06874  22.97
V003  3  0.00000  0.00000  1.00000 10.16667  0.14474  15.61
O004  1  0.33333  0.66666  0.75000 10.16667  0.06527  11.22
O005  1  0.33334  0.66666  0.25000 10.16667  0.00882  10.47
O006  1  0.37737  0.57512  0.37097 11.00000  0.02676  10.06
O007  1  0.19590  0.38972  0.48947 11.00000  0.04028   8.56
O008  1  0.48499  0.54652  0.57723 11.00000  0.03593   7.78
O009  1  0.00000  0.00000  0.75000 10.16667  0.06867   6.69
O00A  1  0.27591  0.34148  0.57564 11.00000  0.05107   6.59
O00B  1  0.47073  0.52927  0.75000 10.50000  0.18044   6.18
HKLF 4
END
