TITL 1230_expF_1_4_expS_0_8_1230_c.res in P-62c
REM Old TITL 1230 in P6(3)mc
REM SHELXT solution in P-62c: R1 0.272, Rweak 0.088, Alpha 0.279
REM <I/s>   0.000 for    0 systematic absences,  Orientation as input
REM Flack x = -1.027 ( 0.335 ) from   124 Parsons' quotients
REM Formula found by SHELXT:  O35 V9

CELL  0.71073  12.4770  12.4770   4.8820   90.000   90.000  120.000
ZERR    8.000   0.0018   0.0018   0.0010    0.000    0.000    0.000
LATT -1
SYMM -Y, X-Y, Z
SYMM -X+Y, -X, Z
SYMM X, Y, 1/2-Z
SYMM -Y, X-Y, 1/2-Z
SYMM -X+Y, -X, 1/2-Z
SYMM Y, X, -Z
SYMM X-Y, -Y, -Z
SYMM -X, -X+Y, -Z
SYMM Y, X, 1/2+Z
SYMM X-Y, -Y, 1/2+Z
SYMM -X, -X+Y, 1/2+Z
SFAC O H V CO
UNIT 8 8 8 8
L.S. 10
BOND
LIST 6
FMAP 2
PLAN 20
V001  3  0.08398  0.43268  0.25000 10.50000  0.06189  24.04
V002  3  0.14834  0.29996  0.75000 10.50000  0.04639  22.27
V003  3  0.42508  0.35458  0.75000 10.50000  0.03929  19.88
O004  1  0.00000  0.00000  0.75000 10.16667  0.11580  12.92
O005  1  0.33334  0.66666  0.25000 10.16667  0.07655   9.81
O006  1  0.00000  0.00000  1.00000 10.16667  0.00728   9.52
O007  1  0.33334  0.66666  0.66321 10.33333  0.06419   8.67
O008  1  0.21419  0.60859  0.34996 11.00000  0.05294   8.52
O009  1  0.06376  0.51858  0.56767 11.00000  0.03560   7.10
O00A  1  0.28620  0.34552  0.58884 11.00000  0.02818   6.74
O00B  1  0.06516  0.12149  0.75000 10.50000  0.11517   6.67
O00C  1  0.18811  0.38455  0.48929 11.00000  0.03549   6.12
O00D  1  0.02516  0.22689  0.75000 10.50000  0.02014   5.59
HKLF 4
END
