TITL 1230_expF_1_4_expS_1_5_1230_b.res in P-6m2
REM Old TITL 1230 in P6(3)mc
REM SHELXT solution in P-6m2: R1 0.263, Rweak 0.036, Alpha 0.191
REM <I/s>   0.000 for    0 systematic absences,  Orientation as input
REM Flack x =  0.119 ( 0.516 ) from    36 Parsons' quotients
REM Formula found by SHELXT:  O47 V17 Co3

CELL  0.71073  12.4770  12.4770   4.8820   90.000   90.000  120.000
ZERR    8.000   0.0018   0.0018   0.0010    0.000    0.000    0.000
LATT -1
SYMM -Y, X-Y, Z
SYMM -X+Y, -X, Z
SYMM X, Y, -Z
SYMM -Y, X-Y, -Z
SYMM -X+Y, -X, -Z
SYMM -Y, -X, Z
SYMM -X+Y, Y, Z
SYMM X, X-Y, Z
SYMM -Y, -X, -Z
SYMM -X+Y, Y, -Z
SYMM X, X-Y, -Z
SFAC O H V CO
UNIT 8 8 8 8
L.S. 10
BOND
LIST 6
FMAP 2
PLAN 20
CO01  4  0.48273  0.51727  1.00000 10.25000  0.04434  26.38
V002  3  0.25921  0.24133  0.00000 10.50000  0.03040  22.59
V003  3  0.33333  0.66667  0.50000 10.08333  0.04629  21.96
V004  3  0.41134  0.32285  0.50000 10.50000  0.04796  18.53
V005  3  0.66666  0.33334  0.50000 10.08333  0.09788  16.53
V006  3  0.17578  0.35156  0.50000 10.25000  0.09956  15.81
O007  1  0.00000  0.00000  0.23367 10.16667  0.00010  14.04
O008  1  0.66667  0.33334  0.00000 10.08333  0.00010  12.03
O009  1  0.33333  0.66667  0.67162 10.16667  0.00010   9.77
O00A  1  0.40980  0.59020  1.00000 10.25000  0.01087   9.35
O00B  1  0.14111  0.07056  0.14317 10.50000  0.02475   9.33
O00C  1  0.26632  0.13317  0.30866 10.50000  0.01780   8.87
O00D  1  0.53059  0.46941  0.72003 10.50000  0.01106   8.84
O00E  1  0.25002  0.50005  0.62793 10.50000  0.01622   7.72
O00F  1  0.26417  0.32639  0.34328 11.00000  0.06373   6.17
O00G  1  0.33376  0.16689  0.50000 10.25000  0.01064   5.78
HKLF 4
END
