TITL 1230_expF_1_3_expS_0_8_1230_a.res in P6(3)mc
REM Old TITL 1230 in P6(3)mc
REM SHELXT solution in P6(3)mc: R1 0.225, Rweak 0.047, Alpha 0.098
REM <I/s>   0.000 for    0 systematic absences,  Orientation as input
REM Flack x = -1.212 ( 0.429 ) from   119 Parsons' quotients
REM Formula found by SHELXT:  O19 V11

CELL  0.71073  12.4770  12.4770   4.8820   90.000   90.000  120.000
ZERR    8.000   0.0018   0.0018   0.0010    0.000    0.000    0.000
LATT -1
SYMM -Y, X-Y, Z
SYMM -X+Y, -X, Z
SYMM -X, -Y, 1/2+Z
SYMM Y, -X+Y, 1/2+Z
SYMM X-Y, X, 1/2+Z
SYMM -Y, -X, Z
SYMM -X+Y, Y, Z
SYMM X, X-Y, Z
SYMM Y, X, 1/2+Z
SYMM X-Y, -Y, 1/2+Z
SYMM -X, -X+Y, 1/2+Z
SFAC O H V CO
UNIT 8 8 8 8
L.S. 10
BOND
LIST 6
FMAP 2
PLAN 20
V001  3  0.42831  0.34992  0.45654 11.00000  0.04649  20.39
V002  3  0.14970  0.29939  0.48183 10.50000  0.03420  20.38
V003  3  0.00000  0.00000  0.81749 10.16667  0.11424  16.25
V004  3  0.66666  0.33333  0.76486 10.16667  0.06658  16.11
O005  1  0.53509  0.46491  0.18251 10.50000  0.00010  10.85
O006  1  0.27654  0.34079  0.30815 11.00000  0.00888  10.71
O007  1  0.18865  0.37731  0.75443 10.50000  0.01043  10.51
O008  1  0.60563  0.39437  0.60421 10.50000  0.02241  10.14
O009  1  0.66666  0.33334  0.51948 10.16667  0.02921   8.90
O00A  1  0.07418  0.14836  0.58836 10.50000  0.02083   8.02
HKLF 4
END
