TITL 1230_expF_1_4_expS_1_4_1230_a.res in P6(3)mc
REM Old TITL 1230 in P6(3)mc
REM SHELXT solution in P6(3)mc: R1 0.247, Rweak 0.024, Alpha 0.220
REM <I/s>   0.000 for    0 systematic absences,  Orientation as input
REM Flack x = -1.120 ( 0.634 ) from    46 Parsons' quotients
REM Formula found by SHELXT:  O22 V9

CELL  0.71073  12.4770  12.4770   4.8820   90.000   90.000  120.000
ZERR    8.000   0.0018   0.0018   0.0010    0.000    0.000    0.000
LATT -1
SYMM -Y, X-Y, Z
SYMM -X+Y, -X, Z
SYMM -X, -Y, 1/2+Z
SYMM Y, -X+Y, 1/2+Z
SYMM X-Y, X, 1/2+Z
SYMM -Y, -X, Z
SYMM -X+Y, Y, Z
SYMM X, X-Y, Z
SYMM Y, X, 1/2+Z
SYMM X-Y, -Y, 1/2+Z
SYMM -X, -X+Y, 1/2+Z
SFAC O H V CO
UNIT 8 8 8 8
L.S. 10
BOND
LIST 6
FMAP 2
PLAN 20
V001  3  0.15023  0.84977  0.77021 10.50000  0.05602  17.74
V002  3  0.07542  0.64921  0.23864 11.00000  0.05630  17.32
O003  1  0.00000  1.00000  1.08963 10.16667  0.00010  11.69
O004  1  0.18974  0.59487  0.38108 10.50000  0.04375  10.49
O005  1  0.33333  0.66666  0.50655 10.16667  0.00010   9.99
O006  1  0.33334  0.66666  0.26326 10.16667  0.04276   9.63
O007  1  0.19090  0.80910  1.04477 10.50000  0.01530   9.38
O008  1  0.05787  0.52894 -0.05810 10.50000  0.00780   8.56
O009  1  0.07992  0.92008  0.83995 10.50000  0.02901   7.23
O00A  1  0.06799  0.72578  0.58146 11.00000  0.02201   6.33
O00B  1  0.33333  0.66666 -0.08963 10.16667  0.06688   5.15
HKLF 4
END
