TITL 1230_expF_1_5_expS_1_3_1230_b.res in P-6m2
REM Old TITL 1230 in P6(3)mc
REM SHELXT solution in P-6m2: R1 0.331, Rweak 0.029, Alpha 0.182
REM <I/s>   0.000 for    0 systematic absences,  Orientation as input
REM Flack x = -0.815 ( 0.484 ) from    61 Parsons' quotients
REM Formula found by SHELXT:  O33 V20 Co3

CELL  0.71073  12.4770  12.4770   4.8820   90.000   90.000  120.000
ZERR    8.000   0.0018   0.0018   0.0010    0.000    0.000    0.000
LATT -1
SYMM -Y, X-Y, Z
SYMM -X+Y, -X, Z
SYMM X, Y, -Z
SYMM -Y, X-Y, -Z
SYMM -X+Y, -X, -Z
SYMM -Y, -X, Z
SYMM -X+Y, Y, Z
SYMM X, X-Y, Z
SYMM -Y, -X, -Z
SYMM -X+Y, Y, -Z
SYMM X, X-Y, -Z
SFAC O H V CO
UNIT 8 8 8 8
L.S. 10
BOND
LIST 6
FMAP 2
PLAN 20
CO01  4  0.48329  0.51671  1.00000 10.25000  0.07726  26.83
V002  3  0.26140  0.01697  0.00000 10.50000  0.04751  22.89
V003  3  0.18012  0.36024  0.50000 10.25000  0.07645  18.64
V004  3  0.33333  0.66667  1.00000 10.08333  0.12408  17.99
V005  3  0.00000 -0.00001 -0.30102 10.16667  0.13303  17.70
V006  3  0.33333  0.66667  0.86596 10.16667  0.17091  17.16
V007  3  0.41216  0.32123  0.50000 10.50000  0.06106  16.25
O008  1  0.66667  0.33333  0.00000 10.08333  0.00010  15.20
O009  1  0.66667  0.33333 -0.50000 10.08333  0.00010  11.80
O00A  1  0.15323  0.07662  0.13245 10.50000  0.02885  11.11
O00B  1  0.50761  0.25380  0.00000 10.25000  0.06456  10.08
O00C  1  0.25357  0.50713  0.61470 10.50000  0.02989   9.81
O00D  1  0.52875  0.47125  0.70669 10.50000  0.00549   9.05
O00E  1  0.25355  0.12677  0.30343 10.50000  0.04966   7.94
O00F  1  0.34727  0.17364  0.00000 10.25000  0.01835   7.44
O00G  1  0.00001  0.00000  0.00000 10.08333  0.30735   5.79
HKLF 4
END
