TITL 1230_expF_1_4_expS_0_7_1230_c.res in P-62c
REM Old TITL 1230 in P6(3)mc
REM SHELXT solution in P-62c: R1 0.303, Rweak 0.094, Alpha 0.279
REM <I/s>   0.000 for    0 systematic absences,  Orientation as input
REM Flack x = -0.271 ( 0.380 ) from   130 Parsons' quotients
REM Formula found by SHELXT:  O35 V9

CELL  0.71073  12.4770  12.4770   4.8820   90.000   90.000  120.000
ZERR    8.000   0.0018   0.0018   0.0010    0.000    0.000    0.000
LATT -1
SYMM -Y, X-Y, Z
SYMM -X+Y, -X, Z
SYMM X, Y, 1/2-Z
SYMM -Y, X-Y, 1/2-Z
SYMM -X+Y, -X, 1/2-Z
SYMM Y, X, -Z
SYMM X-Y, -Y, -Z
SYMM -X, -X+Y, -Z
SYMM Y, X, 1/2+Z
SYMM X-Y, -Y, 1/2+Z
SYMM -X, -X+Y, 1/2+Z
SFAC O H V CO
UNIT 8 8 8 8
L.S. 10
BOND
LIST 6
FMAP 2
PLAN 20
V001  3  0.07341  0.41711  0.25000 10.50000  0.07180  24.04
V002  3  0.14800  0.30393  0.75000 10.50000  0.03825  22.27
V003  3  0.43101  0.35828  0.75000 10.50000  0.03904  19.88
O004  1  0.00000  0.00000  0.75000 10.16667  0.03523  12.92
O005  1  0.66666  0.33333  0.75000 10.16667  0.07673   9.81
O006  1  0.00000  0.00000  1.00000 10.16667  0.04878   9.52
O007  1  0.66666  0.33333  1.16206 10.33333  0.06888   8.67
O008  1  0.59953  0.38424  0.87004 11.00000  0.04082   8.52
O009  1  0.54355  0.47106  1.08434 11.00000  0.05911   7.10
O00A  1  0.29077  0.33869  0.90521 11.00000  0.02257   6.74
O00B  1  0.07309  0.11612  0.75000 10.50000  0.10768   6.67
O00C  1  0.18155  0.39911  0.49018 11.00000  0.04337   6.12
O00D  1  0.04328  0.21165  0.75000 10.50000  0.02400   5.59
HKLF 4
END
