TITL 1230_expF_1_5_expS_0_9_1230_b.res in P6(3)mc
REM Old TITL 1230 in P6(3)mc
REM SHELXT solution in P6(3)mc: R1 0.337, Rweak 0.028, Alpha 0.153
REM <I/s>   0.000 for    0 systematic absences,  Orientation as input
REM Flack x = -0.367 ( 0.370 ) from    96 Parsons' quotients
REM Formula found by SHELXT:  O8 V5

CELL  0.71073  12.4770  12.4770   4.8820   90.000   90.000  120.000
ZERR    8.000   0.0018   0.0018   0.0010    0.000    0.000    0.000
LATT -1
SYMM -Y, X-Y, Z
SYMM -X+Y, -X, Z
SYMM -X, -Y, 1/2+Z
SYMM Y, -X+Y, 1/2+Z
SYMM X-Y, X, 1/2+Z
SYMM -Y, -X, Z
SYMM -X+Y, Y, Z
SYMM X, X-Y, Z
SYMM Y, X, 1/2+Z
SYMM X-Y, -Y, 1/2+Z
SYMM -X, -X+Y, 1/2+Z
SFAC O H V CO
UNIT 8 8 8 8
L.S. 10
BOND
LIST 6
FMAP 2
PLAN 20
V001  3  0.65213  0.57455  0.73056 11.00000  0.04803  19.02
V002  3  0.85046  0.70092  0.25373 10.50000  0.07094  17.10
V003  3  0.66666  0.33333  0.98098 10.16667  0.07982  15.50
O004  1  0.59858  0.40142  0.90104 10.50000  0.01145  11.93
O005  1  0.80364  0.60729  0.57971 10.50000  0.03111  11.31
O006  1  0.66666  0.33333  0.37779 10.16667  0.02429  10.76
O007  1  1.00000  1.00000  0.01902 10.16667  0.03263  10.68
O008  1  1.00000  1.00000  0.23591 10.16667  0.06466   8.67
O009  1  0.47448  0.52552  0.88334 10.50000  0.02171   7.79
O00A  1  0.66666  0.33333  0.77040 10.16667  0.08641   6.86
O00B  1  0.92412  0.84823  0.33020 10.50000  0.02106   6.24
HKLF 4
END
