TITL 1230_expF_1_4_expS_1_1_1230_c.res in P-62c
REM Old TITL 1230 in P6(3)mc
REM SHELXT solution in P-62c: R1 0.268, Rweak 0.085, Alpha 0.279
REM <I/s>   0.000 for    0 systematic absences,  Orientation as input
REM Flack x = -1.879 ( 0.345 ) from    93 Parsons' quotients
REM Formula found by SHELXT:  O35 V9

CELL  0.71073  12.4770  12.4770   4.8820   90.000   90.000  120.000
ZERR    8.000   0.0018   0.0018   0.0010    0.000    0.000    0.000
LATT -1
SYMM -Y, X-Y, Z
SYMM -X+Y, -X, Z
SYMM X, Y, 1/2-Z
SYMM -Y, X-Y, 1/2-Z
SYMM -X+Y, -X, 1/2-Z
SYMM Y, X, -Z
SYMM X-Y, -Y, -Z
SYMM -X, -X+Y, -Z
SYMM Y, X, 1/2+Z
SYMM X-Y, -Y, 1/2+Z
SYMM -X, -X+Y, 1/2+Z
SFAC O H V CO
UNIT 8 8 8 8
L.S. 10
BOND
LIST 6
FMAP 2
PLAN 20
V001  3  0.08389  0.43209  0.25000 10.50000  0.06150  24.04
V002  3  0.14823  0.29932  0.75000 10.50000  0.05327  22.27
V003  3  0.42476  0.35467  0.75000 10.50000  0.04266  19.88
O004  1  0.00000  0.00000  0.75000 10.16667  0.09026  12.92
O005  1  0.33334  0.66667  0.25000 10.16667  0.10863   9.81
O006  1  0.00000  0.00000  1.00000 10.16667  0.00614   9.52
O007  1  0.33334  0.66668  0.65887 10.33333  0.05838   8.67
O008  1  0.21176  0.60433  0.35048 11.00000  0.06144   8.52
O009  1  0.06118  0.52018  0.56600 11.00000  0.03682   7.10
O00A  1  0.28238  0.34291  0.58554 11.00000  0.03874   6.74
O00B  1  0.06230  0.12382  0.75000 10.50000  0.09467   6.67
O00C  1  0.18942  0.38611  0.48602 11.00000  0.03777   6.12
O00D  1  0.02339  0.22662  0.75000 10.50000  0.02362   5.59
HKLF 4
END
