TITL 1230_expF_1_2_expS_1_5_1230_d.res in P6(3)22
REM Old TITL 1230 in P6(3)mc
REM SHELXT solution in P6(3)22: R1 0.298, Rweak 0.096, Alpha 0.253
REM <I/s>   0.000 for    0 systematic absences,  Orientation as input
REM Flack x = -0.381 ( 0.850 ) from    18 Parsons' quotients
REM Formula found by SHELXT:  O3 V

CELL  0.71073  12.4770  12.4770   4.8820   90.000   90.000  120.000
ZERR    8.000   0.0018   0.0018   0.0010    0.000    0.000    0.000
LATT -1
SYMM -Y, X-Y, Z
SYMM -X+Y, -X, Z
SYMM -X, -Y, 1/2+Z
SYMM Y, -X+Y, 1/2+Z
SYMM X-Y, X, 1/2+Z
SYMM Y, X, -Z
SYMM X-Y, -Y, -Z
SYMM -X, -X+Y, -Z
SYMM -Y, -X, 1/2-Z
SYMM -X+Y, Y, 1/2-Z
SYMM X, X-Y, 1/2-Z
SFAC O H V CO
UNIT 8 8 8 8
L.S. 10
BOND
LIST 6
FMAP 2
PLAN 20
V001  3  0.35230  0.42523  0.23876 11.00000  0.04228  20.89
V002  3  0.15234  0.30468  0.75000 10.50000  0.04141  19.32
O003  1  0.00000  0.00000  0.50000 10.16667  0.00010  11.55
O004  1  0.33334  0.66667  0.54352 10.33333  0.00010  11.47
O005  1  0.27489  0.34055  0.52302 11.00000  0.01503   9.14
O006  1  0.38477  0.57567  0.37203 11.00000  0.00904   8.41
O007  1  0.20342  0.38000  0.45407 11.00000  0.01018   7.25
O008  1  0.07954  0.15910  0.75000 10.50000  0.02133   6.16
O009  1  0.53611  0.46389  0.25000 10.50000  0.10665   5.45
HKLF 4
END
