TITL 1230_expF_1_2_expS_1_1_1230_c.res in P-62c
REM Old TITL 1230 in P6(3)mc
REM SHELXT solution in P-62c: R1 0.271, Rweak 0.103, Alpha 0.262
REM <I/s>   0.000 for    0 systematic absences,  Orientation as input
REM Flack x =  0.359 ( 0.165 ) from    98 Parsons' quotients
REM Formula found by SHELXT:  O34 V3 Co3

CELL  0.71073  12.4770  12.4770   4.8820   90.000   90.000  120.000
ZERR    8.000   0.0018   0.0018   0.0010    0.000    0.000    0.000
LATT -1
SYMM -Y, X-Y, Z
SYMM -X+Y, -X, Z
SYMM X, Y, 1/2-Z
SYMM -Y, X-Y, 1/2-Z
SYMM -X+Y, -X, 1/2-Z
SYMM Y, X, -Z
SYMM X-Y, -Y, -Z
SYMM -X, -X+Y, -Z
SYMM Y, X, 1/2+Z
SYMM X-Y, -Y, 1/2+Z
SYMM -X, -X+Y, 1/2+Z
SFAC O H V CO
UNIT 8 8 8 8
L.S. 10
BOND
LIST 6
FMAP 2
PLAN 20
CO01  4  0.42824  0.34900  0.75000 10.50000  0.03776  27.00
V002  3  0.29908  0.15051  0.25000 10.50000  0.04974  19.11
O003  1  0.66666  0.33333  0.75000 10.16667  0.00010  12.87
O004  1  0.00000  0.00000  0.00000 10.16667  0.01549  12.20
O005  1  0.41682  0.06305  0.75000 10.50000  0.00010  10.22
O006  1  0.66666  0.33333  0.46689 10.33333  0.00010   9.88
O007  1  0.41442  0.08694  0.55231 11.00000  0.10594   7.44
O008  1  0.35142  0.28059  0.43053 11.00000  0.00017   5.81
O009  1  0.36570  0.16929  0.48767 11.00000  0.06875   5.62
O00A  1  0.16483  0.07011  0.15917 11.00000  0.02012   5.24
O00B  1  0.50074  0.08785  0.25000 10.50000  0.07866   5.01
HKLF 4
END
