TITL 1230_expF_1_4_expS_0_8_1230_d.res in P6(3)22
REM Old TITL 1230 in P6(3)mc
REM SHELXT solution in P6(3)22: R1 0.325, Rweak 0.093, Alpha 0.284
REM <I/s>   0.000 for    0 systematic absences,  Orientation as input
REM Flack x =  0.496 ( 0.449 ) from    85 Parsons' quotients
REM Formula found by SHELXT:  O32 V9

CELL  0.71073  12.4770  12.4770   4.8820   90.000   90.000  120.000
ZERR    8.000   0.0018   0.0018   0.0010    0.000    0.000    0.000
LATT -1
SYMM -Y, X-Y, Z
SYMM -X+Y, -X, Z
SYMM -X, -Y, 1/2+Z
SYMM Y, -X+Y, 1/2+Z
SYMM X-Y, X, 1/2+Z
SYMM Y, X, -Z
SYMM X-Y, -Y, -Z
SYMM -X, -X+Y, -Z
SYMM -Y, -X, 1/2-Z
SYMM -X+Y, Y, 1/2-Z
SYMM X, X-Y, 1/2-Z
SFAC O H V CO
UNIT 8 8 8 8
L.S. 10
BOND
LIST 6
FMAP 2
PLAN 20
V001  3  0.43014  0.35569  0.23480 11.00000  0.06032  20.88
V002  3  0.30060  0.15030  0.75000 10.50000  0.06239  19.44
O003  1  0.00000  0.00000  0.75000 10.16667  0.08307  12.56
O004  1  0.66666  0.33334  0.25000 10.16667  0.07216   9.48
O005  1  0.66666  0.33334  0.63590 10.33333  0.05763   9.39
O006  1  0.00000  0.00000  0.50000 10.16667  0.01300   9.14
O007  1  0.58408  0.37305  0.36912 11.00000  0.02283   8.51
O008  1  0.34019  0.26839  0.57471 11.00000  0.06600   7.14
O009  1  0.51869  0.45990  0.58575 11.00000  0.03284   6.94
O00A  1  0.37960  0.18719  0.49087 11.00000  0.03548   6.33
O00B  1  0.12368  0.06184  0.75000 10.50000  0.14459   5.86
HKLF 4
END
