TITL 1230_expF_1_5_expS_1_4_1230_c.res in P-62c
REM Old TITL 1230 in P6(3)mc
REM SHELXT solution in P-62c: R1 0.343, Rweak 0.034, Alpha 0.247
REM <I/s>   0.000 for    0 systematic absences,  Orientation as input
REM Flack x =  0.493 ( 0.581 ) from    37 Parsons' quotients
REM Formula found by SHELXT:  O34 V9

CELL  0.71073  12.4770  12.4770   4.8820   90.000   90.000  120.000
ZERR    8.000   0.0018   0.0018   0.0010    0.000    0.000    0.000
LATT -1
SYMM -Y, X-Y, Z
SYMM -X+Y, -X, Z
SYMM X, Y, 1/2-Z
SYMM -Y, X-Y, 1/2-Z
SYMM -X+Y, -X, 1/2-Z
SYMM Y, X, -Z
SYMM X-Y, -Y, -Z
SYMM -X, -X+Y, -Z
SYMM Y, X, 1/2+Z
SYMM X-Y, -Y, 1/2+Z
SYMM -X, -X+Y, 1/2+Z
SFAC O H V CO
UNIT 8 8 8 8
L.S. 10
BOND
LIST 6
FMAP 2
PLAN 20
V001  3  1.06844  0.41899  0.75000 10.50000  0.05289  22.79
V002  3  0.84612  0.14516  0.75000 10.50000  0.06577  21.86
V003  3  0.64984  0.08294  0.25000 10.50000  0.06496  21.75
O004  1  1.00000  0.00001  0.50000 10.16667  0.02483  12.52
O005  1  0.66667  0.33333  0.75000 10.16667  0.02217  11.88
O006  1  0.66666  0.33334  0.25000 10.16667  0.01974   9.97
O007  1  0.61342  0.20184  0.37833 11.00000  0.06525   8.13
O008  1  0.80205  0.19404  0.50486 11.00000  0.04812   6.96
O009  1  0.54841  0.06604  0.56351 11.00000  0.01973   6.52
O00A  1  0.92341  0.26293  0.61559 11.00000  0.07226   6.20
O00B  1  1.00000  0.00000  0.75000 10.16667  0.03013   5.88
O00C  1  0.91606  0.07245  0.64799 11.00000  0.06358   5.47
HKLF 4
END
