TITL 1230_expF_1_2_expS_1_1_1230_d.res in P6(3)22
REM Old TITL 1230 in P6(3)mc
REM SHELXT solution in P6(3)22: R1 0.271, Rweak 0.121, Alpha 0.273
REM <I/s>   0.000 for    0 systematic absences,  Orientation as input
REM Flack x =  0.445 ( 0.167 ) from    78 Parsons' quotients
REM Formula found by SHELXT:  O39 V4 Co6

CELL  0.71073  12.4770  12.4770   4.8820   90.000   90.000  120.000
ZERR    8.000   0.0018   0.0018   0.0010    0.000    0.000    0.000
LATT -1
SYMM -Y, X-Y, Z
SYMM -X+Y, -X, Z
SYMM -X, -Y, 1/2+Z
SYMM Y, -X+Y, 1/2+Z
SYMM X-Y, X, 1/2+Z
SYMM Y, X, -Z
SYMM X-Y, -Y, -Z
SYMM -X, -X+Y, -Z
SYMM -Y, -X, 1/2-Z
SYMM -X+Y, Y, 1/2-Z
SYMM X, X-Y, 1/2-Z
SFAC O H V CO
UNIT 8 8 8 8
L.S. 10
BOND
LIST 6
FMAP 2
PLAN 20
CO01  4  0.57330  0.64882  0.73465 11.00000  0.04693  25.16
V002  3  0.69780  0.84890  0.25000 10.50000  0.05486  24.03
V003  3  1.00000  1.00000  0.50000 10.16667  0.05753  18.63
O004  1  0.33334  0.66667  0.75000 10.16667  0.01600  10.56
O005  1  0.33334  0.66667  0.44601 10.33333  0.00332   9.33
O006  1  0.68376  0.95332  0.42785 11.00000  0.01147   8.67
O007  1  0.62712  0.71601  0.47083 11.00000  0.01201   8.02
O008  1  0.42246  0.63509  0.64669 11.00000  0.10852   7.91
O009  1  0.64541  0.83084  0.53584 11.00000  0.09077   7.87
O00A  1  0.56498  0.43502  0.75000 10.50000  0.17946   7.70
O00B  1  0.48459  0.51541  0.75000 10.50000  0.00010   7.59
O00C  1  0.83527  0.90775  0.33805 11.00000  0.02772   7.32
HKLF 4
END
