TITL 1230_expF_1_2_expS_0_6_1230_e.res in P6mm
REM Old TITL 1230 in P6(3)mc
REM SHELXT solution in P6mm: R1 0.326, Rweak 0.166, Alpha 0.243
REM <I/s>   0.000 for    0 systematic absences,  Orientation as input
REM Flack x =  0.290 ( 0.509 ) from   123 Parsons' quotients
REM Formula found by SHELXT:  O10 V35 Co12

CELL  0.71073  12.4770  12.4770   4.8820   90.000   90.000  120.000
ZERR    8.000   0.0018   0.0018   0.0010    0.000    0.000    0.000
LATT -1
SYMM -Y, X-Y, Z
SYMM -X+Y, -X, Z
SYMM -X, -Y, Z
SYMM Y, -X+Y, Z
SYMM X-Y, X, Z
SYMM -Y, -X, Z
SYMM -X+Y, Y, Z
SYMM X, X-Y, Z
SYMM Y, X, Z
SYMM X-Y, -Y, Z
SYMM -X, -X+Y, Z
SFAC O H V CO
UNIT 8 8 8 8
L.S. 10
BOND
LIST 6
FMAP 2
PLAN 20
CO01  4  0.75109  1.00000  0.67083 10.50000  0.04112  30.31
CO02  4  0.59874  1.00000  0.52419 10.50000  0.04609  26.93
V003  3  0.33333  0.66666  0.48835 10.16667  0.00288  24.56
V004  3  0.61988  0.80994  0.18780 10.50000  0.03509  21.88
O005  1  1.00000  1.00000  0.90434 10.08333  0.00010  21.85
V006  3  0.50000  1.00000  0.69184 10.25000  0.03729  21.61
O007  1  1.00000  1.00000  0.80045 10.08333  0.11410  21.03
V008  3  0.73682  0.86842  0.43158 10.50000  0.04754  20.95
V009  3  0.49130  0.74565  0.25312 10.50000  0.05556  18.75
V00A  3  0.58790  0.69267  0.15995 11.00000  0.05609  17.15
O00B  1  0.33333  0.66666  0.09566 10.16667  0.00010  13.50
O00C  1  0.44439  0.55560  0.15402 10.50000  0.14468  10.31
HKLF 4
END
