TITL 1230_expF_1_2_expS_0_8_1230_a.res in P6(3)mc
REM Old TITL 1230 in P6(3)mc
REM SHELXT solution in P6(3)mc: R1 0.224, Rweak 0.071, Alpha 0.142
REM <I/s>   0.000 for    0 systematic absences,  Orientation as input
REM Flack x = -0.500 ( 0.280 ) from   120 Parsons' quotients
REM Formula found by SHELXT:  O19 V11

CELL  0.71073  12.4770  12.4770   4.8820   90.000   90.000  120.000
ZERR    8.000   0.0018   0.0018   0.0010    0.000    0.000    0.000
LATT -1
SYMM -Y, X-Y, Z
SYMM -X+Y, -X, Z
SYMM -X, -Y, 1/2+Z
SYMM Y, -X+Y, 1/2+Z
SYMM X-Y, X, 1/2+Z
SYMM -Y, -X, Z
SYMM -X+Y, Y, Z
SYMM X, X-Y, Z
SYMM Y, X, 1/2+Z
SYMM X-Y, -Y, 1/2+Z
SYMM -X, -X+Y, 1/2+Z
SFAC O H V CO
UNIT 8 8 8 8
L.S. 10
BOND
LIST 6
FMAP 2
PLAN 20
V001  3  0.57037  0.64746  0.46382 11.00000  0.04283  20.19
V002  3  0.85002  0.70003  0.49257 10.50000  0.03323  19.67
V003  3  1.00000  1.00000  0.81610 10.16667  0.08566  17.93
V004  3  0.33333  0.66666  0.78005 10.16667  0.06864  15.73
O005  1  0.81318  0.62636  0.77165 10.50000  0.00010  12.20
O006  1  0.39526  0.60473  0.60336 10.50000  0.00813  11.52
O007  1  0.46524  0.53475  0.18390 10.50000  0.00010  10.25
O008  1  0.72345  0.66045  0.32183 11.00000  0.00010   9.70
O009  1  0.92198  0.84397  0.57718 10.50000  0.02806   7.77
O00A  1  0.33333  0.66666  0.53168 10.16667  0.07810   7.47
HKLF 4
END
