TITL 1230_expF_1_3_expS_1_3_1230_c.res in P-62c
REM Old TITL 1230 in P6(3)mc
REM SHELXT solution in P-62c: R1 0.256, Rweak 0.073, Alpha 0.235
REM <I/s>   0.000 for    0 systematic absences,  Orientation as input
REM Flack x =  0.209 ( 0.357 ) from    64 Parsons' quotients
REM Formula found by SHELXT:  O46 V6 Co3

CELL  0.71073  12.4770  12.4770   4.8820   90.000   90.000  120.000
ZERR    8.000   0.0018   0.0018   0.0010    0.000    0.000    0.000
LATT -1
SYMM -Y, X-Y, Z
SYMM -X+Y, -X, Z
SYMM X, Y, 1/2-Z
SYMM -Y, X-Y, 1/2-Z
SYMM -X+Y, -X, 1/2-Z
SYMM Y, X, -Z
SYMM X-Y, -Y, -Z
SYMM -X, -X+Y, -Z
SYMM Y, X, 1/2+Z
SYMM X-Y, -Y, 1/2+Z
SYMM -X, -X+Y, 1/2+Z
SFAC O H V CO
UNIT 8 8 8 8
L.S. 10
BOND
LIST 6
FMAP 2
PLAN 20
CO01  4  0.64574  0.08255  0.25000 10.50000  0.06053  28.71
V002  3  0.85562  0.15208  0.75000 10.50000  0.02819  23.22
V003  3  0.92428  0.34473  0.25000 10.50000  0.03066  18.76
O004  1  1.00000  0.00001  0.50000 10.16667  0.00010  14.85
O005  1  0.66666  0.33334  0.50071 10.33333  0.00010  12.49
O006  1  0.66666  0.33334  0.25001 10.16667  0.05932   9.02
O007  1  0.44512 -0.07103  0.09478 11.00000  0.03234   7.50
O008  1  0.91796  0.26577  0.58756 11.00000  0.05366   7.34
O009  1  0.92106  0.10072  0.75000 10.50000  0.00946   7.28
O00A  1  0.64393  0.21561  0.33938 11.00000  0.12476   6.80
O00B  1  0.46711 -0.13604  0.25000 10.50000  0.04579   6.60
O00C  1  0.71301  0.05375  0.52584 11.00000  0.08609   6.55
O00D  1  0.52875  0.00929  0.25000 10.50000  0.01289   6.45
O00E  1  0.79524  0.26035  0.75000 10.50000  0.02644   6.38
O00F  1  0.82356  0.20156  0.45964 11.00000  0.08352   6.18
HKLF 4
END
