TITL 1230_expF_1_5_expS_0_6_1230_b.res in P-6m2
REM Old TITL 1230 in P6(3)mc
REM SHELXT solution in P-6m2: R1 0.328, Rweak 0.035, Alpha 0.182
REM <I/s>   0.000 for    0 systematic absences,  Orientation as input
REM Flack x = -0.319 ( 0.399 ) from   157 Parsons' quotients
REM Formula found by SHELXT:  O33 V20 Co3

CELL  0.71073  12.4770  12.4770   4.8820   90.000   90.000  120.000
ZERR    8.000   0.0018   0.0018   0.0010    0.000    0.000    0.000
LATT -1
SYMM -Y, X-Y, Z
SYMM -X+Y, -X, Z
SYMM X, Y, -Z
SYMM -Y, X-Y, -Z
SYMM -X+Y, -X, -Z
SYMM -Y, -X, Z
SYMM -X+Y, Y, Z
SYMM X, X-Y, Z
SYMM -Y, -X, -Z
SYMM -X+Y, Y, -Z
SYMM X, X-Y, -Z
SFAC O H V CO
UNIT 8 8 8 8
L.S. 10
BOND
LIST 6
FMAP 2
PLAN 20
CO01  4  0.48230  0.51770  1.00000 10.25000  0.07237  26.83
V002  3  0.25979  0.01478  0.00000 10.50000  0.04223  22.89
V003  3  0.17972  0.82028  1.50000 10.25000  0.07915  18.64
V004  3  0.33333  0.66667  1.00000 10.08333  0.12195  17.99
V005  3  0.00000  0.00000 -0.32240 10.16667  0.09399  17.70
V006  3  0.33333  0.66667  1.17230 10.16667  0.11672  17.16
V007  3  0.41635  0.31663  0.50000 10.50000  0.05680  16.25
O008  1  0.66666  0.33333  0.00000 10.08333  0.01357  15.20
O009  1  0.66667  0.33333 -0.50000 10.08333  0.00010  11.80
O00A  1  0.14930  0.07466  0.14173 10.50000  0.04588  11.11
O00B  1  0.52180  0.26090  0.00000 10.25000  0.04888  10.08
O00C  1  0.25560  0.74440  1.34136 10.50000  0.01659   9.81
O00D  1  0.52899  0.47101  0.71218 10.50000  0.01429   9.05
O00E  1  0.25521  0.12761  0.25959 10.50000  0.04305   7.94
O00F  1  0.32679  0.16339  0.00000 10.25000  0.01492   7.44
O00G  1  0.00000  0.00000  0.00000 10.08333  0.27876   5.79
HKLF 4
END
