TITL 1230_expF_1_3_expS_1_3_1230_d.res in P6(3)22
REM Old TITL 1230 in P6(3)mc
REM SHELXT solution in P6(3)22: R1 0.283, Rweak 0.082, Alpha 0.236
REM <I/s>   0.000 for    0 systematic absences,  Orientation as input
REM Flack x =  0.107 ( 0.429 ) from    54 Parsons' quotients
REM Formula found by SHELXT:  O3 V

CELL  0.71073  12.4770  12.4770   4.8820   90.000   90.000  120.000
ZERR    8.000   0.0018   0.0018   0.0010    0.000    0.000    0.000
LATT -1
SYMM -Y, X-Y, Z
SYMM -X+Y, -X, Z
SYMM -X, -Y, 1/2+Z
SYMM Y, -X+Y, 1/2+Z
SYMM X-Y, X, 1/2+Z
SYMM Y, X, -Z
SYMM X-Y, -Y, -Z
SYMM -X, -X+Y, -Z
SYMM -Y, -X, 1/2-Z
SYMM -X+Y, Y, 1/2-Z
SYMM X, X-Y, 1/2-Z
SFAC O H V CO
UNIT 8 8 8 8
L.S. 10
BOND
LIST 6
FMAP 2
PLAN 20
V001  3  0.42578  0.34976  0.28180 11.00000  0.04073  23.39
V002  3  0.29456  0.14728  0.75000 10.50000  0.04538  23.24
V003  3  0.00000  0.00000  0.50000 10.16667  0.05631  15.86
O004  1  0.66667  0.33334 -0.01788 10.33333  0.00156  12.19
O005  1  0.33210  0.07524  0.59239 11.00000  0.02566  10.85
O006  1  0.66667  0.33334  0.25000 10.16667  0.16026   8.61
O007  1  0.52506  0.45579 -0.07161 11.00000  0.01354   7.60
O008  1  0.57671  0.36743  0.15239 11.00000  0.03635   7.47
O009  1  0.16884  0.08442  0.75000 10.50000  0.00164   6.57
O00A  1  0.39864  0.21398  0.50807 11.00000  0.02874   6.55
HKLF 4
END
