TITL 1230_expF_1_4_expS_1_3_1230_a.res in P6(3)mc
REM Old TITL 1230 in P6(3)mc
REM SHELXT solution in P6(3)mc: R1 0.246, Rweak 0.027, Alpha 0.220
REM <I/s>   0.000 for    0 systematic absences,  Orientation as input
REM Flack x = -1.180 ( 0.581 ) from    63 Parsons' quotients
REM Formula found by SHELXT:  O22 V9

CELL  0.71073  12.4770  12.4770   4.8820   90.000   90.000  120.000
ZERR    8.000   0.0018   0.0018   0.0010    0.000    0.000    0.000
LATT -1
SYMM -Y, X-Y, Z
SYMM -X+Y, -X, Z
SYMM -X, -Y, 1/2+Z
SYMM Y, -X+Y, 1/2+Z
SYMM X-Y, X, 1/2+Z
SYMM -Y, -X, Z
SYMM -X+Y, Y, Z
SYMM X, X-Y, Z
SYMM Y, X, 1/2+Z
SYMM X-Y, -Y, 1/2+Z
SYMM -X, -X+Y, 1/2+Z
SFAC O H V CO
UNIT 8 8 8 8
L.S. 10
BOND
LIST 6
FMAP 2
PLAN 20
V001  3  0.15035  0.84965  0.78873 10.50000  0.05581  17.74
V002  3  0.07551  0.64936  0.25963 11.00000  0.05428  17.32
O003  1  0.00000  1.00000  0.62331 10.16667  0.00010  11.69
O004  1  0.18836  0.59418  0.40657 10.50000  0.04387  10.49
O005  1  0.33334  0.66666  0.52510 10.16667  0.00010   9.99
O006  1  0.33334  0.66666  0.28827 10.16667  0.03414   9.63
O007  1  0.19101  0.80899  1.06569 10.50000  0.01593   9.38
O008  1  0.05741  0.52870 -0.03910 10.50000  0.00759   8.56
O009  1  0.07964  0.92036  0.86055 10.50000  0.02992   7.23
O00A  1  0.06751  0.72455  0.60383 11.00000  0.01913   6.33
O00B  1  0.33334  0.66666 -0.06569 10.16667  0.06514   5.15
HKLF 4
END
