TITL 1230_expF_1_3_expS_1_0_1230_a.res in P6(3)mc
REM Old TITL 1230 in P6(3)mc
REM SHELXT solution in P6(3)mc: R1 0.183, Rweak 0.046, Alpha 0.098
REM <I/s>   0.000 for    0 systematic absences,  Orientation as input
REM Flack x = -1.111 ( 0.428 ) from   105 Parsons' quotients
REM Formula found by SHELXT:  O19 V11

CELL  0.71073  12.4770  12.4770   4.8820   90.000   90.000  120.000
ZERR    8.000   0.0018   0.0018   0.0010    0.000    0.000    0.000
LATT -1
SYMM -Y, X-Y, Z
SYMM -X+Y, -X, Z
SYMM -X, -Y, 1/2+Z
SYMM Y, -X+Y, 1/2+Z
SYMM X-Y, X, 1/2+Z
SYMM -Y, -X, Z
SYMM -X+Y, Y, Z
SYMM X, X-Y, Z
SYMM Y, X, 1/2+Z
SYMM X-Y, -Y, 1/2+Z
SYMM -X, -X+Y, 1/2+Z
SFAC O H V CO
UNIT 8 8 8 8
L.S. 10
BOND
LIST 6
FMAP 2
PLAN 20
V001  3  0.42719  0.34996  0.67073 11.00000  0.03908  20.39
V002  3  0.29849  0.14925  0.19833 10.50000  0.04532  20.38
V003  3  0.00000  0.00000  0.04290 10.16667  0.08685  16.25
V004  3  0.66667  0.33334  0.97992 10.16667  0.10734  16.11
O005  1  0.52665  0.47335  0.37676 10.50000  0.00274  10.85
O006  1  0.33828  0.27228  0.02008 11.00000  0.00606  10.71
O007  1  0.38270  0.19136  0.48183 10.50000  0.00010  10.51
O008  1  0.59956  0.40045  0.81643 10.50000  0.00857  10.14
O009  1  0.66667  0.33334  0.72388 10.16667  0.02413   8.90
O00A  1  0.16061  0.08030  0.26130 10.50000  0.00888   8.02
HKLF 4
END
