TITL 1230_expF_1_2_expS_1_1_1230_b.res in P-6m2
REM Old TITL 1230 in P6(3)mc
REM SHELXT solution in P-6m2: R1 0.238, Rweak 0.093, Alpha 0.226
REM <I/s>   0.000 for    0 systematic absences,  Orientation as input
REM Flack x =  0.107 ( 0.221 ) from   114 Parsons' quotients
REM Formula found by SHELXT:  O48 V16 Co3

CELL  0.71073  12.4770  12.4770   4.8820   90.000   90.000  120.000
ZERR    8.000   0.0018   0.0018   0.0010    0.000    0.000    0.000
LATT -1
SYMM -Y, X-Y, Z
SYMM -X+Y, -X, Z
SYMM X, Y, -Z
SYMM -Y, X-Y, -Z
SYMM -X+Y, -X, -Z
SYMM -Y, -X, Z
SYMM -X+Y, Y, Z
SYMM X, X-Y, Z
SYMM -Y, -X, -Z
SYMM -X+Y, Y, -Z
SYMM X, X-Y, -Z
SFAC O H V CO
UNIT 8 8 8 8
L.S. 10
BOND
LIST 6
FMAP 2
PLAN 20
CO01  4  0.85625  0.71251  1.00000 10.25000  0.06414  25.76
V002  3  0.66667  0.33333  0.50000 10.08333  0.05178  23.75
V003  3  0.64417  0.57036  0.50000 10.50000  0.02309  21.23
V004  3  0.57641  0.65073  1.00000 10.50000  0.06458  19.44
V005  3  0.68346  0.84173  0.50000 10.25000  0.06774  16.53
O006  1  1.00000  1.00000  0.69780 10.16667  0.00010  13.55
O007  1  0.66667  0.33333  0.24338 10.16667  0.03564  12.01
O008  1  0.51096  0.48904  0.50000 10.25000  0.00536  11.65
O009  1  0.40152  0.59848  0.14844 10.50000  0.03619  11.57
O00A  1  0.80662  0.61325  0.68365 10.50000  0.02005   7.86
O00B  1  0.66291  0.72728  0.67159 11.00000  0.02596   7.43
O00C  1  0.85870  0.92935  0.50000 10.25000  0.06369   6.54
O00D  1  0.60424  0.20849  0.00000 10.25000  0.01155   6.45
O00E  1  0.33333  0.66667  0.36842 10.16667  0.01662   6.23
O00F  1  0.56908  0.43092  0.50000 10.25000  0.10617   6.03
O00G  1  0.45948  0.54051  0.38029 10.50000  0.07384   5.87
HKLF 4
END
