TITL 1230_expF_1_4_expS_0_6_1230_c.res in P-62c
REM Old TITL 1230 in P6(3)mc
REM SHELXT solution in P-62c: R1 0.296, Rweak 0.042, Alpha 0.279
REM <I/s>   0.000 for    0 systematic absences,  Orientation as input
REM Flack x = -0.675 ( 0.335 ) from   132 Parsons' quotients
REM Formula found by SHELXT:  O35 V9

CELL  0.71073  12.4770  12.4770   4.8820   90.000   90.000  120.000
ZERR    8.000   0.0018   0.0018   0.0010    0.000    0.000    0.000
LATT -1
SYMM -Y, X-Y, Z
SYMM -X+Y, -X, Z
SYMM X, Y, 1/2-Z
SYMM -Y, X-Y, 1/2-Z
SYMM -X+Y, -X, 1/2-Z
SYMM Y, X, -Z
SYMM X-Y, -Y, -Z
SYMM -X, -X+Y, -Z
SYMM Y, X, 1/2+Z
SYMM X-Y, -Y, 1/2+Z
SYMM -X, -X+Y, 1/2+Z
SFAC O H V CO
UNIT 8 8 8 8
L.S. 10
BOND
LIST 6
FMAP 2
PLAN 20
V001  3  0.07637  0.41905  0.25000 10.50000  0.04328  24.04
V002  3  0.14716  0.30345  0.75000 10.50000  0.04079  22.27
V003  3  0.43488  0.35854  0.75000 10.50000  0.05269  19.88
O004  1  0.00000  0.00000  0.75000 10.16667  0.03782  12.92
O005  1  0.66667  0.33334  0.75000 10.16667  0.05015   9.81
O006  1  0.00000  0.00000  1.00000 10.16667  0.07746   9.52
O007  1  0.66667  0.33334  1.16337 10.33333  0.07636   8.67
O008  1  0.59394  0.37983  0.86676 11.00000  0.04406   8.52
O009  1  0.54344  0.48323  1.08649 11.00000  0.04745   7.10
O00A  1  0.28296  0.33794  0.90607 11.00000  0.04791   6.74
O00B  1  0.06923  0.13714  0.75000 10.50000  0.11895   6.67
O00C  1  0.17353  0.39412  0.48128 11.00000  0.02116   6.12
O00D  1  0.02059  0.21519  0.75000 10.50000  0.04294   5.59
HKLF 4
END
