TITL 1230_expF_1_4_expS_1_3_1230_b.res in P-6m2
REM Old TITL 1230 in P6(3)mc
REM SHELXT solution in P-6m2: R1 0.254, Rweak 0.039, Alpha 0.191
REM <I/s>   0.000 for    0 systematic absences,  Orientation as input
REM Flack x =  0.361 ( 0.328 ) from    71 Parsons' quotients
REM Formula found by SHELXT:  O47 V17 Co3

CELL  0.71073  12.4770  12.4770   4.8820   90.000   90.000  120.000
ZERR    8.000   0.0018   0.0018   0.0010    0.000    0.000    0.000
LATT -1
SYMM -Y, X-Y, Z
SYMM -X+Y, -X, Z
SYMM X, Y, -Z
SYMM -Y, X-Y, -Z
SYMM -X+Y, -X, -Z
SYMM -Y, -X, Z
SYMM -X+Y, Y, Z
SYMM X, X-Y, Z
SYMM -Y, -X, -Z
SYMM -X+Y, Y, -Z
SYMM X, X-Y, -Z
SFAC O H V CO
UNIT 8 8 8 8
L.S. 10
BOND
LIST 6
FMAP 2
PLAN 20
CO01  4  0.81583  1.18417  1.00000 10.25000  0.04330  26.38
V002  3  0.59237  0.68487  0.00000 10.50000  0.03201  22.59
V003  3  0.66667  0.33334 -0.50000 10.08333  0.05281  21.96
V004  3  0.74462  0.98946  0.50000 10.50000  0.04861  18.53
V005  3  1.00000  1.00000  0.50000 10.08333  0.07843  16.53
V006  3  0.50750  0.49250 -0.50000 10.25000  0.10247  15.81
O007  1  0.33333  0.66666  0.24363 10.16667  0.00010  14.04
O008  1  1.00000  1.00000  0.00000 10.08333  0.00010  12.03
O009  1  0.66667  0.33333 -0.33074 10.16667  0.00086   9.77
O00A  1  0.74234  1.25766  1.00000 10.25000  0.01855   9.35
O00B  1  0.47606  0.73803  0.14616 10.50000  0.02548   9.33
O00C  1  0.60112  0.80055  0.31307 10.50000  0.01998   8.87
O00D  1  0.86423  1.13577  0.71877 10.50000  0.01149   8.84
O00E  1  0.58390  0.41609 -0.37363 10.50000  0.01822   7.72
O00F  1  0.59855  0.60526 -0.33951 11.00000  0.05346   6.17
O00G  1  0.66651  0.83325  0.50000 10.25000  0.01678   5.78
HKLF 4
END
