TITL 1230_expF_1_2_expS_0_6_1230_a.res in P6(3)mc
REM Old TITL 1230 in P6(3)mc
REM SHELXT solution in P6(3)mc: R1 0.244, Rweak 0.076, Alpha 0.127
REM <I/s>   0.000 for    0 systematic absences,  Orientation as input
REM Flack x = -0.307 ( 0.311 ) from   123 Parsons' quotients
REM Formula found by SHELXT:  O19 V11

CELL  0.71073  12.4770  12.4770   4.8820   90.000   90.000  120.000
ZERR    8.000   0.0018   0.0018   0.0010    0.000    0.000    0.000
LATT -1
SYMM -Y, X-Y, Z
SYMM -X+Y, -X, Z
SYMM -X, -Y, 1/2+Z
SYMM Y, -X+Y, 1/2+Z
SYMM X-Y, X, 1/2+Z
SYMM -Y, -X, Z
SYMM -X+Y, Y, Z
SYMM X, X-Y, Z
SYMM Y, X, 1/2+Z
SYMM X-Y, -Y, 1/2+Z
SYMM -X, -X+Y, 1/2+Z
SFAC O H V CO
UNIT 8 8 8 8
L.S. 10
BOND
LIST 6
FMAP 2
PLAN 20
V001  3  0.15025  0.84975  0.20692 10.50000  0.03288  20.38
V002  3  0.35111  0.92109  0.68397 11.00000  0.04436  20.02
V003  3  0.00000  1.00000  0.50404 10.16667  0.08165  17.39
V004  3  0.33333  0.66667  0.97430 10.16667  0.04332  16.60
O005  1  0.06608  0.72911  0.02570 11.00000  0.00291  11.19
O006  1  0.19466  0.80534  0.50414 10.50000  0.00467  11.19
O007  1  0.45985  0.91970  0.41484 10.50000  0.00010  10.15
O008  1  0.39506  0.79012  0.81393 10.50000  0.05270   9.81
O009  1  0.08145  0.91855  0.27920 10.50000  0.04019   8.07
O00A  1  0.33333  0.66667  0.67366 10.16667  0.06540   7.97
HKLF 4
END
