TITL 1230_expF_1_5_expS_0_7_1230_b.res in P-6m2
REM Old TITL 1230 in P6(3)mc
REM SHELXT solution in P-6m2: R1 0.338, Rweak 0.036, Alpha 0.182
REM <I/s>   0.000 for    0 systematic absences,  Orientation as input
REM Flack x = -1.025 ( 0.405 ) from   156 Parsons' quotients
REM Formula found by SHELXT:  O33 V20 Co3

CELL  0.71073  12.4770  12.4770   4.8820   90.000   90.000  120.000
ZERR    8.000   0.0018   0.0018   0.0010    0.000    0.000    0.000
LATT -1
SYMM -Y, X-Y, Z
SYMM -X+Y, -X, Z
SYMM X, Y, -Z
SYMM -Y, X-Y, -Z
SYMM -X+Y, -X, -Z
SYMM -Y, -X, Z
SYMM -X+Y, Y, Z
SYMM X, X-Y, Z
SYMM -Y, -X, -Z
SYMM -X+Y, Y, -Z
SYMM X, X-Y, -Z
SFAC O H V CO
UNIT 8 8 8 8
L.S. 10
BOND
LIST 6
FMAP 2
PLAN 20
CO01  4  0.48423  0.51577  0.00000 10.25000  0.05534  26.83
V002  3  0.98576  0.74541  1.00000 10.50000  0.03963  22.89
V003  3  0.63050  0.81525  0.50000 10.25000  0.05569  18.64
V004  3  0.33333  0.66667  0.00000 10.08333  0.18176  17.99
V005  3  1.00000  1.00000  0.68793 10.16667  0.07922  17.70
V006  3  0.33333  0.66667  0.08883 10.16667  0.07892  17.16
V007  3  0.67909  0.58319  0.50000 10.50000  0.06912  16.25
O008  1  0.66667  0.33333  1.00000 10.08333  0.00010  15.20
O009  1  0.66667  0.33334  0.50000 10.08333  0.02395  11.80
O00A  1  0.93021  0.86042  0.83209 10.50000  0.04575  11.11
O00B  1  0.74735  0.49471  1.00000 10.25000  0.02803  10.08
O00C  1  0.47980  0.73990  0.34766 10.50000  0.01368   9.81
O00D  1  0.52592  0.47408  0.24367 10.50000  0.00010   9.05
O00E  1  0.87377  0.74754  0.68341 10.50000  0.01716   7.94
O00F  1  0.83310  0.66619  1.00000 10.25000  0.01520   7.44
O00G  1  1.00000  1.00000  1.00000 10.08333  0.28921   5.79
HKLF 4
END
