TITL 1230_expF_0_9_expS_1_5_1230_a.res in P-6m2
REM Old TITL 1230 in P6(3)mc
REM SHELXT solution in P-6m2: R1 0.224, Rweak 0.275, Alpha 0.235
REM <I/s>   0.000 for    0 systematic absences,  Orientation as input
REM Formula found by SHELXT:  O66 V Co6

CELL  0.71073  12.4770  12.4770   4.8820   90.000   90.000  120.000
ZERR    8.000   0.0018   0.0018   0.0010    0.000    0.000    0.000
LATT -1
SYMM -Y, X-Y, Z
SYMM -X+Y, -X, Z
SYMM X, Y, -Z
SYMM -Y, X-Y, -Z
SYMM -X+Y, -X, -Z
SYMM -Y, -X, Z
SYMM -X+Y, Y, Z
SYMM X, X-Y, Z
SYMM -Y, -X, -Z
SYMM -X+Y, Y, -Z
SYMM X, X-Y, -Z
SFAC O H V CO
UNIT 8 8 8 8
L.S. 10
BOND
LIST 6
FMAP 2
PLAN 20
CO01  4  0.42428  0.34568  0.00000 10.50000  0.00846  34.43
V002  3  0.00000  0.00000 -0.50000 10.08333  0.02955  23.57
O003  1  0.66666  0.33334 -0.34780 10.16667  0.03094  14.84
O004  1  0.71244  0.85623  1.00000 10.25000  0.00010  13.31
O005  1  0.33333  0.66667  1.00000 10.08333  0.00108  11.49
O006  1  0.84547  0.92274  1.00000 10.25000  0.00010   9.47
O007  1  0.34770  0.17385  0.00000 10.25000  0.01025   7.85
O008  1  0.28584  0.14292 -0.31665 10.50000  0.00010   7.36
O009  1  0.48032  0.51968  0.00000 10.25000  0.01565   7.27
O00A  1  0.52801  0.47199  0.31665 10.50000  0.00724   6.47
O00B  1  0.45053  0.54947  0.50000 10.25000  0.06375   6.32
O00C  1  0.56734  0.65565  0.50000 10.50000  0.03180   6.19
O00D  1  0.45121  0.22561 -0.23129 10.50000  0.14553   6.07
O00E  1  0.71718  0.85859  0.68602 10.50000  0.07731   5.76
O00F  1  0.49453  0.24727  0.00000 10.25000  0.00010   5.58
O00G  1  0.61100  0.80551  0.87388 10.50000  0.07272   5.42
O00H  1  0.44665  0.72333  1.00000 10.25000  0.42706   5.22
O00I  1  0.17625  0.08812 -0.35737 10.50000  0.02235   5.01
HKLF 4
END
