TITL 1230_expF_1_3_expS_1_2_1230_b.res in P-6m2
REM Old TITL 1230 in P6(3)mc
REM SHELXT solution in P-6m2: R1 0.251, Rweak 0.064, Alpha 0.197
REM <I/s>   0.000 for    0 systematic absences,  Orientation as input
REM Flack x =  0.358 ( 0.455 ) from    94 Parsons' quotients
REM Formula found by SHELXT:  O45 V19

CELL  0.71073  12.4770  12.4770   4.8820   90.000   90.000  120.000
ZERR    8.000   0.0018   0.0018   0.0010    0.000    0.000    0.000
LATT -1
SYMM -Y, X-Y, Z
SYMM -X+Y, -X, Z
SYMM X, Y, -Z
SYMM -Y, X-Y, -Z
SYMM -X+Y, -X, -Z
SYMM -Y, -X, Z
SYMM -X+Y, Y, Z
SYMM X, X-Y, Z
SYMM -Y, -X, -Z
SYMM -X+Y, Y, -Z
SYMM X, X-Y, -Z
SFAC O H V CO
UNIT 8 8 8 8
L.S. 10
BOND
LIST 6
FMAP 2
PLAN 20
V001  3  0.37178  0.18589  0.50000 10.25000  0.02757  23.79
V002  3  0.24043  0.26107  0.00000 10.50000  0.03960  20.65
V003  3  0.32021  0.41222  0.50000 10.50000  0.05041  19.28
V004  3  0.00000  0.00000  0.00000 10.08333  0.05301  17.47
V005  3  0.50925  0.49075  0.00000 10.25000  0.06146  17.44
O006  1  0.00001  0.00000  0.37010 10.16667  0.06141  11.78
O007  1  0.66667  0.33333  0.85083 10.16667  0.00010  10.91
O008  1  0.49849  0.24924  0.50000 10.25000  0.00010  10.89
O009  1  0.33334  0.66666  0.76305 10.16667  0.00010   9.53
O00A  1  0.13855  0.27710  0.35193 10.50000  0.05254   8.79
O00B  1  0.26576  0.13288  0.21303 10.50000  0.01165   8.48
O00C  1  0.45267  0.54734  0.00000 10.25000  0.04175   8.39
O00D  1  0.17351  0.34700  0.50000 10.25000  0.00010   7.95
O00E  1  0.25811  0.51620  0.65692 10.50000  0.01032   7.38
O00F  1  0.39632  0.39588  0.17815 11.00000  0.04295   5.56
HKLF 4
END
