TITL 1230_expF_1_5_expS_0_5_1230_c.res in P-62c
REM Old TITL 1230 in P6(3)mc
REM SHELXT solution in P-62c: R1 0.363, Rweak 0.040, Alpha 0.247
REM <I/s>   0.000 for    0 systematic absences,  Orientation as input
REM Flack x = -1.436 ( 0.985 ) from   136 Parsons' quotients
REM Formula found by SHELXT:  O34 V9

CELL  0.71073  12.4770  12.4770   4.8820   90.000   90.000  120.000
ZERR    8.000   0.0018   0.0018   0.0010    0.000    0.000    0.000
LATT -1
SYMM -Y, X-Y, Z
SYMM -X+Y, -X, Z
SYMM X, Y, 1/2-Z
SYMM -Y, X-Y, 1/2-Z
SYMM -X+Y, -X, 1/2-Z
SYMM Y, X, -Z
SYMM X-Y, -Y, -Z
SYMM -X, -X+Y, -Z
SYMM Y, X, 1/2+Z
SYMM X-Y, -Y, 1/2+Z
SYMM -X, -X+Y, 1/2+Z
SFAC O H V CO
UNIT 8 8 8 8
L.S. 10
BOND
LIST 6
FMAP 2
PLAN 20
V001  3 -0.06613  0.58203  0.25000 10.50000  0.05332  22.79
V002  3  0.13836  0.84202  0.25000 10.50000  0.04573  21.86
V003  3  0.35004  0.91905  0.75000 10.50000  0.04921  21.75
O004  1  0.00000  1.00001  0.50000 10.16667  0.00010  12.52
O005  1  0.33334  0.66666  0.25000 10.16667  0.01915  11.88
O006  1  0.33334  0.66666  0.75000 10.16667  0.02587   9.97
O007  1  0.39333  0.80435  0.61881 11.00000  0.04525   8.13
O008  1  0.19297  0.80422  0.51871 11.00000  0.03561   6.96
O009  1  0.46656  0.93419  0.39040 11.00000  0.04263   6.52
O00A  1  0.06612  0.73575  0.37449 11.00000  0.04997   6.20
O00B  1  0.00000  1.00000  0.25000 10.16667  0.02198   5.88
O00C  1  0.06444  0.95512  0.31673 11.00000  0.11317   5.47
HKLF 4
END
