TITL 1230_expF_1_3_expS_1_3_1230_b.res in P-6m2
REM Old TITL 1230 in P6(3)mc
REM SHELXT solution in P-6m2: R1 0.243, Rweak 0.062, Alpha 0.197
REM <I/s>   0.000 for    0 systematic absences,  Orientation as input
REM Flack x =  0.242 ( 0.440 ) from    70 Parsons' quotients
REM Formula found by SHELXT:  O45 V19

CELL  0.71073  12.4770  12.4770   4.8820   90.000   90.000  120.000
ZERR    8.000   0.0018   0.0018   0.0010    0.000    0.000    0.000
LATT -1
SYMM -Y, X-Y, Z
SYMM -X+Y, -X, Z
SYMM X, Y, -Z
SYMM -Y, X-Y, -Z
SYMM -X+Y, -X, -Z
SYMM -Y, -X, Z
SYMM -X+Y, Y, Z
SYMM X, X-Y, Z
SYMM -Y, -X, -Z
SYMM -X+Y, Y, -Z
SYMM X, X-Y, -Z
SFAC O H V CO
UNIT 8 8 8 8
L.S. 10
BOND
LIST 6
FMAP 2
PLAN 20
V001  3  0.62567  0.81284  0.50000 10.25000  0.02468  23.79
V002  3  0.75958  0.73888  1.00000 10.50000  0.03632  20.65
V003  3  0.68151  0.58840  0.50000 10.50000  0.03445  19.28
V004  3  1.00000  1.00000  1.00000 10.08333  0.06401  17.47
V005  3  0.49600  0.50399  1.00000 10.25000  0.07375  17.44
O006  1  1.00000  1.00000  0.69954 10.16667  0.04164  11.78
O007  1  0.33334  0.66667  0.18541 10.16667  0.00010  10.91
O008  1  0.49539  0.74769  0.50000 10.25000  0.00576  10.89
O009  1  0.66667  0.33333  0.20236 10.16667  0.00010   9.53
O00A  1  0.86522  0.73043  0.60615 10.50000  0.06363   8.79
O00B  1  0.72372  0.86186  0.79250 10.50000  0.00468   8.48
O00C  1  0.55503  0.44497  1.00000 10.25000  0.06331   8.39
O00D  1  0.82245  0.64490  0.50000 10.25000  0.00010   7.95
O00E  1  0.73930  0.47860  0.37213 10.50000  0.01535   7.38
O00F  1  0.61369  0.60447  0.80788 11.00000  0.02219   5.56
HKLF 4
END
