TITL 1230_expF_1_5_expS_0_9_1230_d.res in P6(3)22
REM Old TITL 1230 in P6(3)mc
REM SHELXT solution in P6(3)22: R1 0.378, Rweak 0.045, Alpha 0.250
REM <I/s>   0.000 for    0 systematic absences,  Orientation as input
REM Flack x = -0.407 ( 0.972 ) from    69 Parsons' quotients
REM Formula found by SHELXT:  O3 V

CELL  0.71073  12.4770  12.4770   4.8820   90.000   90.000  120.000
ZERR    8.000   0.0018   0.0018   0.0010    0.000    0.000    0.000
LATT -1
SYMM -Y, X-Y, Z
SYMM -X+Y, -X, Z
SYMM -X, -Y, 1/2+Z
SYMM Y, -X+Y, 1/2+Z
SYMM X-Y, X, 1/2+Z
SYMM Y, X, -Z
SYMM X-Y, -Y, -Z
SYMM -X, -X+Y, -Z
SYMM -Y, -X, 1/2-Z
SYMM -X+Y, Y, 1/2-Z
SYMM X, X-Y, 1/2-Z
SFAC O H V CO
UNIT 8 8 8 8
L.S. 10
BOND
LIST 6
FMAP 2
PLAN 20
V001  3  0.35199  0.42777  0.23335 11.00000  0.04793  24.39
V002  3  0.29772  0.14886  0.25000 10.50000  0.06466  22.97
V003  3  0.00000  0.00000  0.00000 10.16667  0.13530  15.61
O004  1  0.33333  0.66666  0.75000 10.16667  0.00010  11.22
O005  1  0.33333  0.66666  0.25000 10.16667  0.05533  10.47
O006  1  0.38073  0.57201  0.38725 11.00000  0.01816  10.06
O007  1  0.39238  0.20584  0.53470 11.00000  0.01571   8.56
O008  1  0.48079  0.54878  0.55765 11.00000  0.02992   7.78
O009  1  0.00000  0.00000  0.25000 10.16667  0.03247   6.69
O00A  1  0.33521  0.27764  0.37063 11.00000  0.03362   6.59
O00B  1  0.47603  0.52397  0.75000 10.50000  0.08420   6.18
HKLF 4
END
