TITL 1230_expF_1_5_expS_1_0_1230_c.res in P-62c
REM Old TITL 1230 in P6(3)mc
REM SHELXT solution in P-62c: R1 0.344, Rweak 0.089, Alpha 0.247
REM <I/s>   0.000 for    0 systematic absences,  Orientation as input
REM Flack x = -0.974 ( 0.697 ) from    82 Parsons' quotients
REM Formula found by SHELXT:  O34 V9

CELL  0.71073  12.4770  12.4770   4.8820   90.000   90.000  120.000
ZERR    8.000   0.0018   0.0018   0.0010    0.000    0.000    0.000
LATT -1
SYMM -Y, X-Y, Z
SYMM -X+Y, -X, Z
SYMM X, Y, 1/2-Z
SYMM -Y, X-Y, 1/2-Z
SYMM -X+Y, -X, 1/2-Z
SYMM Y, X, -Z
SYMM X-Y, -Y, -Z
SYMM -X, -X+Y, -Z
SYMM Y, X, 1/2+Z
SYMM X-Y, -Y, 1/2+Z
SYMM -X, -X+Y, 1/2+Z
SFAC O H V CO
UNIT 8 8 8 8
L.S. 10
BOND
LIST 6
FMAP 2
PLAN 20
V001  3 -0.07033  0.57879  0.25000 10.50000  0.04658  22.79
V002  3  0.14769  0.85053  0.25000 10.50000  0.05450  21.86
V003  3  0.35134  0.91430  0.75000 10.50000  0.05901  21.75
O004  1  0.00000  1.00000  0.50000 10.16667  0.02110  12.52
O005  1  0.33334  0.66667  0.25000 10.16667  0.03230  11.88
O006  1  0.33334  0.66667  0.75000 10.16667  0.04188   9.97
O007  1  0.38198  0.79803  0.65639 11.00000  0.06528   8.13
O008  1  0.19975  0.81676  0.49610 11.00000  0.03233   6.96
O009  1  0.45273  0.93341  0.43099 11.00000  0.02006   6.52
O00A  1  0.05432  0.71056  0.39574 11.00000  0.02033   6.20
O00B  1  0.00000  1.00000  0.25000 10.16667  0.05193   5.88
O00C  1  0.08503  0.94104  0.32422 11.00000  0.07604   5.47
HKLF 4
END
