TITL 1230_expF_1_2_expS_1_3_1230_d.res in P6(3)22
REM Old TITL 1230 in P6(3)mc
REM SHELXT solution in P6(3)22: R1 0.318, Rweak 0.230, Alpha 0.296
REM <I/s>   0.000 for    0 systematic absences,  Orientation as input
REM Flack x =  0.319 ( 0.192 ) from    48 Parsons' quotients
REM Formula found by SHELXT:  O14 V2 Co3

CELL  0.71073  12.4770  12.4770   4.8820   90.000   90.000  120.000
ZERR    8.000   0.0018   0.0018   0.0010    0.000    0.000    0.000
LATT -1
SYMM -Y, X-Y, Z
SYMM -X+Y, -X, Z
SYMM -X, -Y, 1/2+Z
SYMM Y, -X+Y, 1/2+Z
SYMM X-Y, X, 1/2+Z
SYMM Y, X, -Z
SYMM X-Y, -Y, -Z
SYMM -X, -X+Y, -Z
SYMM -Y, -X, 1/2-Z
SYMM -X+Y, Y, 1/2-Z
SYMM X, X-Y, 1/2-Z
SFAC O H V CO
UNIT 8 8 8 8
L.S. 10
BOND
LIST 6
FMAP 2
PLAN 20
CO01  4  0.42337  0.35125  0.76555 11.00000  0.03532  26.32
V002  3  0.30562  0.15281  0.25000 10.50000  0.06811  21.66
V003  3  0.00000  0.00000  0.00000 10.16667  0.07750  17.40
O004  1  0.66666  0.33333  0.75000 10.16667  0.02408  10.81
O005  1  0.57601  0.36287  0.87030 11.00000  0.01332   9.96
O006  1  0.38365  0.20433  0.55600 11.00000  0.03685   9.38
O007  1  0.66666  0.33333  1.25000 10.16667  0.01905   8.17
O008  1  0.66666  0.33333  0.92353 10.33333  0.01388   7.75
O009  1  0.17387  0.11145  0.12869 11.00000  0.00071   7.26
O00A  1  0.53537  0.44587  1.13202 11.00000  0.14083   7.13
HKLF 4
END
