TITL 1230_expF_1_2_expS_1_3_1230_a.res in P6(3)mc
REM Old TITL 1230 in P6(3)mc
REM SHELXT solution in P6(3)mc: R1 0.214, Rweak 0.064, Alpha 0.216
REM <I/s>   0.000 for    0 systematic absences,  Orientation as input
REM Flack x = -0.284 ( 0.350 ) from    58 Parsons' quotients
REM Formula found by SHELXT:  O8 V4 Co3

CELL  0.71073  12.4770  12.4770   4.8820   90.000   90.000  120.000
ZERR    8.000   0.0018   0.0018   0.0010    0.000    0.000    0.000
LATT -1
SYMM -Y, X-Y, Z
SYMM -X+Y, -X, Z
SYMM -X, -Y, 1/2+Z
SYMM Y, -X+Y, 1/2+Z
SYMM X-Y, X, 1/2+Z
SYMM -Y, -X, Z
SYMM -X+Y, Y, Z
SYMM X, X-Y, Z
SYMM Y, X, 1/2+Z
SYMM X-Y, -Y, 1/2+Z
SYMM -X, -X+Y, 1/2+Z
SFAC O H V CO
UNIT 8 8 8 8
L.S. 10
BOND
LIST 6
FMAP 2
PLAN 20
CO01  4  0.57554  0.64601  0.52290 11.00000  0.04321  25.57
V002  3  0.84989  0.69979  0.47287 10.50000  0.01922  21.91
V003  3  1.00000  1.00000  0.66099 10.16667  0.03783  18.70
V004  3  0.80220  0.60443  0.78735 10.50000  0.08421  17.61
V005  3  0.33333  0.66667  0.21265 10.16667  0.05566  15.80
O006  1  0.39220  0.60780  0.64462 10.50000  0.00368  13.90
O007  1  0.33333  0.66667  0.50884 10.16667  0.00010  13.35
O008  1  0.52581  0.47419  0.67669 10.50000  0.00774   9.55
O009  1  0.92367  0.84735  0.59602 10.50000  0.01563   7.45
O00A  1  0.73213  0.66806  0.67844 11.00000  0.00340   7.13
HKLF 4
END
