TITL 1230_expF_1_3_expS_0_8_1230_b.res in P-6m2
REM Old TITL 1230 in P6(3)mc
REM SHELXT solution in P-6m2: R1 0.253, Rweak 0.081, Alpha 0.197
REM <I/s>   0.000 for    0 systematic absences,  Orientation as input
REM Flack x =  0.496 ( 0.474 ) from   147 Parsons' quotients
REM Formula found by SHELXT:  O45 V19

CELL  0.71073  12.4770  12.4770   4.8820   90.000   90.000  120.000
ZERR    8.000   0.0018   0.0018   0.0010    0.000    0.000    0.000
LATT -1
SYMM -Y, X-Y, Z
SYMM -X+Y, -X, Z
SYMM X, Y, -Z
SYMM -Y, X-Y, -Z
SYMM -X+Y, -X, -Z
SYMM -Y, -X, Z
SYMM -X+Y, Y, Z
SYMM X, X-Y, Z
SYMM -Y, -X, -Z
SYMM -X+Y, Y, -Z
SYMM X, X-Y, -Z
SFAC O H V CO
UNIT 8 8 8 8
L.S. 10
BOND
LIST 6
FMAP 2
PLAN 20
V001  3  0.70516  0.85258  0.50000 10.25000  0.03663  23.79
V002  3  0.57349  0.64499  0.00000 10.50000  0.03849  20.65
V003  3  0.65829  0.57510  0.50000 10.50000  0.06696  19.28
V004  3  0.33333  0.66667  1.00000 10.08333  0.04187  17.47
V005  3  0.84553  0.69106  0.00000 10.25000  0.04585  17.44
O006  1  0.33334  0.66667  0.60929 10.16667  0.04909  11.78
O007  1  1.00000  1.00000  0.82577 10.16667  0.00443  10.91
O008  1  0.83456  0.91728  0.50000 10.25000  0.00010  10.89
O009  1  0.66666  0.33333  0.23534 10.16667  0.00010   9.53
O00A  1  0.47055  0.52944  0.66160 10.50000  0.02038   8.79
O00B  1  0.60085  0.80043  0.22040 10.50000  0.01079   8.48
O00C  1  0.80433  0.60867  0.00000 10.25000  0.04398   8.39
O00D  1  0.50345  0.49655  0.50000 10.25000  0.00222   7.95
O00E  1  0.58364  0.41636  0.36743 10.50000  0.00905   7.38
O00F  1  0.73430  0.67286  0.19376 11.00000  0.04220   5.56
HKLF 4
END
