TITL 1230_expF_1_5_expS_0_5_1230_b.res in P-6m2
REM Old TITL 1230 in P6(3)mc
REM SHELXT solution in P-6m2: R1 0.346, Rweak 0.032, Alpha 0.182
REM <I/s>   0.000 for    0 systematic absences,  Orientation as input
REM Flack x = -1.312 ( 0.447 ) from   156 Parsons' quotients
REM Formula found by SHELXT:  O33 V20 Co3

CELL  0.71073  12.4770  12.4770   4.8820   90.000   90.000  120.000
ZERR    8.000   0.0018   0.0018   0.0010    0.000    0.000    0.000
LATT -1
SYMM -Y, X-Y, Z
SYMM -X+Y, -X, Z
SYMM X, Y, -Z
SYMM -Y, X-Y, -Z
SYMM -X+Y, -X, -Z
SYMM -Y, -X, Z
SYMM -X+Y, Y, Z
SYMM X, X-Y, Z
SYMM -Y, -X, -Z
SYMM -X+Y, Y, -Z
SYMM X, X-Y, -Z
SFAC O H V CO
UNIT 8 8 8 8
L.S. 10
BOND
LIST 6
FMAP 2
PLAN 20
CO01  4  0.48364  0.51636  1.50000 10.25000  0.06423  26.83
V002  3  0.26088  0.24405  0.50000 10.50000  0.05312  22.89
V003  3  0.18163  0.36327  1.00000 10.25000  0.05735  18.64
V004  3  0.33333  0.66667  1.50000 10.08333  0.07617  17.99
V005  3  0.00000  0.00000  0.14874 10.16667  0.07719  17.70
V006  3  0.33333  0.66667  1.32259 10.16667  0.08670  17.16
V007  3  0.41686  0.31385  1.00000 10.50000  0.05669  16.25
O008  1  0.66666  0.33333  0.50000 10.08333  0.02617  15.20
O009  1  0.66667  0.33333  0.00000 10.08333  0.00010  11.80
O00A  1  0.14822  0.07412  0.65798 10.50000  0.03517  11.11
O00B  1  0.51040  0.25520  0.50000 10.25000  0.02959  10.08
O00C  1  0.26159  0.52318  1.17040 10.50000  0.01809   9.81
O00D  1  0.52579  0.47421  1.24545 10.50000  0.00140   9.05
O00E  1  0.26017  0.13008  0.79874 10.50000  0.06118   7.94
O00F  1  0.30973  0.15487  0.50000 10.25000  0.03376   7.44
O00G  1  0.00000  0.00000  0.50000 10.08333  0.25983   5.79
HKLF 4
END
