TITL 1230_expF_1_3_expS_0_5_1230_d.res in P6(3)22
REM Old TITL 1230 in P6(3)mc
REM SHELXT solution in P6(3)22: R1 0.297, Rweak 0.082, Alpha 0.236
REM <I/s>   0.000 for    0 systematic absences,  Orientation as input
REM Flack x =  0.178 ( 0.500 ) from    94 Parsons' quotients
REM Formula found by SHELXT:  O3 V

CELL  0.71073  12.4770  12.4770   4.8820   90.000   90.000  120.000
ZERR    8.000   0.0018   0.0018   0.0010    0.000    0.000    0.000
LATT -1
SYMM -Y, X-Y, Z
SYMM -X+Y, -X, Z
SYMM -X, -Y, 1/2+Z
SYMM Y, -X+Y, 1/2+Z
SYMM X-Y, X, 1/2+Z
SYMM Y, X, -Z
SYMM X-Y, -Y, -Z
SYMM -X, -X+Y, -Z
SYMM -Y, -X, 1/2-Z
SYMM -X+Y, Y, 1/2-Z
SYMM X, X-Y, 1/2-Z
SFAC O H V CO
UNIT 8 8 8 8
L.S. 10
BOND
LIST 6
FMAP 2
PLAN 20
V001  3  0.57770  0.64959  0.71617 11.00000  0.04613  23.39
V002  3  0.70009  0.85004  0.25000 10.50000  0.04216  23.24
V003  3  1.00000  1.00000  0.50000 10.16667  0.03348  15.86
O004  1  0.33334  0.66667  1.01486 10.33333  0.00010  12.19
O005  1  0.66518  0.93501  0.45263 11.00000  0.02026  10.85
O006  1  0.33334  0.66666  0.75000 10.16667  0.23121   8.61
O007  1  0.48022  0.54115  1.08399 11.00000  0.01630   7.60
O008  1  0.42220  0.62230  0.85098 11.00000  0.01693   7.47
O009  1  0.83002  0.91501  0.25000 10.50000  0.01282   6.57
O00A  1  0.61046  0.79869  0.54165 11.00000  0.04752   6.55
HKLF 4
END
