TITL 1230_expF_1_4_expS_0_9_1230_c.res in P-62c
REM Old TITL 1230 in P6(3)mc
REM SHELXT solution in P-62c: R1 0.266, Rweak 0.087, Alpha 0.279
REM <I/s>   0.000 for    0 systematic absences,  Orientation as input
REM Flack x = -1.705 ( 0.351 ) from   111 Parsons' quotients
REM Formula found by SHELXT:  O35 V9

CELL  0.71073  12.4770  12.4770   4.8820   90.000   90.000  120.000
ZERR    8.000   0.0018   0.0018   0.0010    0.000    0.000    0.000
LATT -1
SYMM -Y, X-Y, Z
SYMM -X+Y, -X, Z
SYMM X, Y, 1/2-Z
SYMM -Y, X-Y, 1/2-Z
SYMM -X+Y, -X, 1/2-Z
SYMM Y, X, -Z
SYMM X-Y, -Y, -Z
SYMM -X, -X+Y, -Z
SYMM Y, X, 1/2+Z
SYMM X-Y, -Y, 1/2+Z
SYMM -X, -X+Y, 1/2+Z
SFAC O H V CO
UNIT 8 8 8 8
L.S. 10
BOND
LIST 6
FMAP 2
PLAN 20
V001  3  0.08406  0.43297  0.25000 10.50000  0.06134  24.04
V002  3  0.14852  0.29947  0.75000 10.50000  0.04793  22.27
V003  3  0.42480  0.35423  0.75000 10.50000  0.03980  19.88
O004  1  0.00000  0.00000  0.75000 10.16667  0.11426  12.92
O005  1  0.33333  0.66666  0.25000 10.16667  0.08878   9.81
O006  1  0.00000 -0.00001  1.00000 10.16667  0.00673   9.52
O007  1  0.33334  0.66666  0.66819 10.33333  0.06456   8.67
O008  1  0.21514  0.60844  0.34874 11.00000  0.05565   8.52
O009  1  0.06368  0.51885  0.56912 11.00000  0.03165   7.10
O00A  1  0.28574  0.34481  0.58808 11.00000  0.02978   6.74
O00B  1  0.06562  0.12138  0.75000 10.50000  0.10319   6.67
O00C  1  0.18879  0.38493  0.48953 11.00000  0.03368   6.12
O00D  1  0.02317  0.22498  0.75000 10.50000  0.02350   5.59
HKLF 4
END
