TITL 1230_expF_1_2_expS_1_5_1230_a.res in P6(3)mc
REM Old TITL 1230 in P6(3)mc
REM SHELXT solution in P6(3)mc: R1 0.199, Rweak 0.073, Alpha 0.119
REM <I/s>   0.000 for    0 systematic absences,  Orientation as input
REM Flack x = -0.735 ( 0.755 ) from    19 Parsons' quotients
REM Formula found by SHELXT:  O13 V8 Co9

CELL  0.71073  12.4770  12.4770   4.8820   90.000   90.000  120.000
ZERR    8.000   0.0018   0.0018   0.0010    0.000    0.000    0.000
LATT -1
SYMM -Y, X-Y, Z
SYMM -X+Y, -X, Z
SYMM -X, -Y, 1/2+Z
SYMM Y, -X+Y, 1/2+Z
SYMM X-Y, X, 1/2+Z
SYMM -Y, -X, Z
SYMM -X+Y, Y, Z
SYMM X, X-Y, Z
SYMM Y, X, 1/2+Z
SYMM X-Y, -Y, 1/2+Z
SYMM -X, -X+Y, 1/2+Z
SFAC O H V CO
UNIT 8 8 8 8
L.S. 10
BOND
LIST 6
FMAP 2
PLAN 20
CO01  4  0.35272  0.42686  0.68868 11.00000  0.03890  27.91
CO02  4  0.15027  0.30055  0.22311 10.50000  0.03626  25.93
V003  3  0.33333  0.66666  0.97636 10.16667  0.02050  22.07
V004  3  0.00000  0.00000  0.02619 10.16667  0.05740  21.08
V005  3  0.19360  0.38721  0.52933 10.50000  0.07940  17.76
V006  3  0.39886  0.60114  0.84189 10.50000  0.10259  17.42
O007  1  0.26955  0.33226  0.02364 11.00000  0.00010  13.13
O008  1  0.47392  0.52608  0.36500 10.50000  0.00010   9.64
O009  1  0.33333  0.66666  0.68303 10.16667  0.00010   8.98
O00A  1  0.08232  0.16464  0.27237 10.50000  0.00010   8.40
HKLF 4
END
