TITL 1230_expF_1_3_expS_0_5_1230_b.res in P-6m2
REM Old TITL 1230 in P6(3)mc
REM SHELXT solution in P-6m2: R1 0.264, Rweak 0.076, Alpha 0.197
REM <I/s>   0.000 for    0 systematic absences,  Orientation as input
REM Flack x = -0.073 ( 0.612 ) from   157 Parsons' quotients
REM Formula found by SHELXT:  O45 V19

CELL  0.71073  12.4770  12.4770   4.8820   90.000   90.000  120.000
ZERR    8.000   0.0018   0.0018   0.0010    0.000    0.000    0.000
LATT -1
SYMM -Y, X-Y, Z
SYMM -X+Y, -X, Z
SYMM X, Y, -Z
SYMM -Y, X-Y, -Z
SYMM -X+Y, -X, -Z
SYMM -Y, -X, Z
SYMM -X+Y, Y, Z
SYMM X, X-Y, Z
SYMM -Y, -X, -Z
SYMM -X+Y, Y, -Z
SYMM X, X-Y, -Z
SFAC O H V CO
UNIT 8 8 8 8
L.S. 10
BOND
LIST 6
FMAP 2
PLAN 20
V001  3  0.63355  0.81678  0.50000 10.25000  0.03450  23.79
V002  3  0.75858  0.73909  1.00000 10.50000  0.03548  20.65
V003  3  0.68045  0.58397  0.50000 10.50000  0.05734  19.28
V004  3  0.99999  1.00000  1.00000 10.08333  0.03821  17.47
V005  3  0.49108  0.50892  1.00000 10.25000  0.07725  17.44
O006  1  0.99999  1.00000  0.64350 10.16667  0.04329  11.78
O007  1  0.33334  0.66667  0.16796 10.16667  0.05479  10.91
O008  1  0.48496  0.74248  0.50000 10.25000  0.00939  10.89
O009  1  0.66667  0.33333  0.24218 10.16667  0.00010   9.53
O00A  1  0.85881  0.71763  0.66017 10.50000  0.04793   8.79
O00B  1  0.72636  0.86318  0.78258 10.50000  0.02292   8.48
O00C  1  0.53106  0.46894  1.00000 10.25000  0.02941   8.39
O00D  1  0.82672  0.65345  0.50000 10.25000  0.00010   7.95
O00E  1  0.73954  0.47908  0.35064 10.50000  0.02588   7.38
O00F  1  0.59551  0.60223  0.81046 11.00000  0.04502   5.56
HKLF 4
END
