TITL 1230_expF_1_2_expS_1_1_1230_a.res in P6(3)mc
REM Old TITL 1230 in P6(3)mc
REM SHELXT solution in P6(3)mc: R1 0.190, Rweak 0.075, Alpha 0.144
REM <I/s>   0.000 for    0 systematic absences,  Orientation as input
REM Flack x = -0.838 ( 0.347 ) from    93 Parsons' quotients
REM Formula found by SHELXT:  O12 V5

CELL  0.71073  12.4770  12.4770   4.8820   90.000   90.000  120.000
ZERR    8.000   0.0018   0.0018   0.0010    0.000    0.000    0.000
LATT -1
SYMM -Y, X-Y, Z
SYMM -X+Y, -X, Z
SYMM -X, -Y, 1/2+Z
SYMM Y, -X+Y, 1/2+Z
SYMM X-Y, X, 1/2+Z
SYMM -Y, -X, Z
SYMM -X+Y, Y, Z
SYMM X, X-Y, Z
SYMM Y, X, 1/2+Z
SYMM X-Y, -Y, 1/2+Z
SYMM -X, -X+Y, 1/2+Z
SFAC O H V CO
UNIT 8 8 8 8
L.S. 10
BOND
LIST 6
FMAP 2
PLAN 20
V001  3  0.15031  0.84969  1.27977 10.50000  0.04055  19.90
V002  3  0.07588  0.64970  0.74479 11.00000  0.03549  19.73
V003  3  0.00000  1.00000  1.09967 10.16667  0.07636  16.52
O004  1  0.06520  0.72756  1.08547 11.00000  0.00010  11.54
O005  1  0.19181  0.80819  1.55922 10.50000  0.00010  11.26
O006  1  0.33333  0.66666  0.05005 10.16667  0.00010  10.25
O007  1  0.33333  0.66666 -0.21796 10.16667  0.03398  10.08
O008  1  0.19820  0.59911 -0.11666 10.50000  0.01176   9.71
O009  1  0.04876  0.52438  0.45257 10.50000  0.00368   8.26
O00A  1  0.08092  0.91907  1.33123 10.50000  0.00284   7.61
O00B  1  0.11317  0.55659  0.21744 10.50000  0.22585   5.57
O00C  1  0.33333  0.66666 -0.55922 10.16667  0.05821   5.31
HKLF 4
END
