TITL 1230_expF_1_5_expS_1_1_1230_b.res in P-6m2
REM Old TITL 1230 in P6(3)mc
REM SHELXT solution in P-6m2: R1 0.332, Rweak 0.024, Alpha 0.182
REM <I/s>   0.000 for    0 systematic absences,  Orientation as input
REM Flack x = -0.630 ( 0.501 ) from    97 Parsons' quotients
REM Formula found by SHELXT:  O33 V20 Co3

CELL  0.71073  12.4770  12.4770   4.8820   90.000   90.000  120.000
ZERR    8.000   0.0018   0.0018   0.0010    0.000    0.000    0.000
LATT -1
SYMM -Y, X-Y, Z
SYMM -X+Y, -X, Z
SYMM X, Y, -Z
SYMM -Y, X-Y, -Z
SYMM -X+Y, -X, -Z
SYMM -Y, -X, Z
SYMM -X+Y, Y, Z
SYMM X, X-Y, Z
SYMM -Y, -X, -Z
SYMM -X+Y, Y, -Z
SYMM X, X-Y, -Z
SFAC O H V CO
UNIT 8 8 8 8
L.S. 10
BOND
LIST 6
FMAP 2
PLAN 20
CO01  4  0.48381  0.51619  0.00000 10.25000  0.06564  26.83
V002  3  0.75645  0.74163  1.00000 10.50000  0.04683  22.89
V003  3  0.63338  0.81669  0.50000 10.25000  0.06141  18.64
V004  3  0.33333  0.66667  0.00000 10.08333  0.07362  17.99
V005  3  1.00000  1.00000  0.66532 10.16667  0.08457  17.70
V006  3  0.33333  0.66667  0.16630 10.16667  0.13890  17.16
V007  3  0.68011  0.58325  0.50000 10.50000  0.06508  16.25
O008  1  0.66667  0.33334  1.00000 10.08333  0.00010  15.20
O009  1  0.66667  0.33333  0.50000 10.08333  0.00058  11.80
O00A  1  0.93193  0.86386  0.86061 10.50000  0.05372  11.11
O00B  1  0.75233  0.50467  1.00000 10.25000  0.04015  10.08
O00C  1  0.48211  0.74106  0.35446 10.50000  0.02842   9.81
O00D  1  0.52651  0.47349  0.25332 10.50000  0.01220   9.05
O00E  1  0.87310  0.74621  0.69705 10.50000  0.01622   7.94
O00F  1  0.83479  0.66959  1.00000 10.25000  0.03831   7.44
O00G  1  1.00000  1.00000  1.00000 10.08333  0.33150   5.79
HKLF 4
END
