TITL 1230_expF_1_5_expS_1_1_1230_a.res in P6(3)mc
REM Old TITL 1230 in P6(3)mc
REM SHELXT solution in P6(3)mc: R1 0.325, Rweak 0.025, Alpha 0.153
REM <I/s>   0.000 for    0 systematic absences,  Orientation as input
REM Flack x = -0.149 ( 0.475 ) from    79 Parsons' quotients
REM Formula found by SHELXT:  O8 V5

CELL  0.71073  12.4770  12.4770   4.8820   90.000   90.000  120.000
ZERR    8.000   0.0018   0.0018   0.0010    0.000    0.000    0.000
LATT -1
SYMM -Y, X-Y, Z
SYMM -X+Y, -X, Z
SYMM -X, -Y, 1/2+Z
SYMM Y, -X+Y, 1/2+Z
SYMM X-Y, X, 1/2+Z
SYMM -Y, -X, Z
SYMM -X+Y, Y, Z
SYMM X, X-Y, Z
SYMM Y, X, 1/2+Z
SYMM X-Y, -Y, 1/2+Z
SYMM -X, -X+Y, 1/2+Z
SFAC O H V CO
UNIT 8 8 8 8
L.S. 10
BOND
LIST 6
FMAP 2
PLAN 20
V001  3  0.65183  0.57503  0.53886 11.00000  0.05144  19.02
V002  3  0.85083  0.70167  0.05605 10.50000  0.07182  17.10
V003  3  0.66667  0.33333  0.79929 10.16667  0.09760  15.50
O004  1  0.60006  0.39994  0.69712 10.50000  0.01376  11.93
O005  1  0.80590  0.61181  0.37063 10.50000  0.03300  11.31
O006  1  0.66666  0.33333  1.17251 10.16667  0.05495  10.76
O007  1  1.00000  1.00000 -0.17251 10.16667  0.02666  10.68
O008  1  1.00000  1.00000  0.03674 10.16667  0.07830   8.67
O009  1  0.47405  0.52595  0.70289 10.50000  0.02960   7.79
O00A  1  0.66666  0.33333  0.59890 10.16667  0.07654   6.86
O00B  1  0.92471  0.84942  0.13819 10.50000  0.01998   6.24
HKLF 4
END
