TITL 1230_expF_1_5_expS_0_5_1230_a.res in P6(3)mc
REM Old TITL 1230 in P6(3)mc
REM SHELXT solution in P6(3)mc: R1 0.340, Rweak 0.031, Alpha 0.153
REM <I/s>   0.000 for    0 systematic absences,  Orientation as input
REM Flack x = -0.864 ( 0.412 ) from   121 Parsons' quotients
REM Formula found by SHELXT:  O8 V5

CELL  0.71073  12.4770  12.4770   4.8820   90.000   90.000  120.000
ZERR    8.000   0.0018   0.0018   0.0010    0.000    0.000    0.000
LATT -1
SYMM -Y, X-Y, Z
SYMM -X+Y, -X, Z
SYMM -X, -Y, 1/2+Z
SYMM Y, -X+Y, 1/2+Z
SYMM X-Y, X, 1/2+Z
SYMM -Y, -X, Z
SYMM -X+Y, Y, Z
SYMM X, X-Y, Z
SYMM Y, X, 1/2+Z
SYMM X-Y, -Y, 1/2+Z
SYMM -X, -X+Y, 1/2+Z
SFAC O H V CO
UNIT 8 8 8 8
L.S. 10
BOND
LIST 6
FMAP 2
PLAN 20
V001  3  0.65292  0.57622  0.43782 11.00000  0.05075  19.02
V002  3  0.85156  0.70312 -0.02122 10.50000  0.06763  17.10
V003  3  0.66666  0.33333  0.70323 10.16667  0.06652  15.50
O004  1  0.60156  0.39844  0.61700 10.50000  0.00849  11.93
O005  1  0.79684  0.59370  0.26876 10.50000  0.04309  11.31
O006  1  0.66666  0.33333  1.02122 10.16667  0.04855  10.76
O007  1  1.00000  1.00000  0.24216 10.16667  0.00553  10.68
O008  1  1.00000  1.00000  0.39130 10.16667  0.10155   8.67
O009  1  0.52818  0.47182  0.12008 10.50000  0.02042   7.79
O00A  1  0.66666  0.33333  0.40584 10.16667  0.07239   6.86
O00B  1  0.92807  0.85614  0.10124 10.50000  0.01452   6.24
HKLF 4
END
