TITL 1230_expF_0_8_expS_1_4_1230_b.res in P-6m2
REM Old TITL 1230 in P6(3)mc
REM SHELXT solution in P-6m2: R1 0.298, Rweak 0.508, Alpha 0.113
REM <I/s>   0.000 for    0 systematic absences,  Orientation as input
REM Formula found by SHELXT:  O13 Co

CELL  0.71073  12.4770  12.4770   4.8820   90.000   90.000  120.000
ZERR    8.000   0.0018   0.0018   0.0010    0.000    0.000    0.000
LATT -1
SYMM -Y, X-Y, Z
SYMM -X+Y, -X, Z
SYMM X, Y, -Z
SYMM -Y, X-Y, -Z
SYMM -X+Y, -X, -Z
SYMM -Y, -X, Z
SYMM -X+Y, Y, Z
SYMM X, X-Y, Z
SYMM -Y, -X, -Z
SYMM -X+Y, Y, -Z
SYMM X, X-Y, -Z
SFAC O H V CO
UNIT 8 8 8 8
L.S. 10
BOND
LIST 6
FMAP 2
PLAN 20
CO01  4  0.33333  0.66666  1.00000 10.08333  0.00010  45.68
O002  1  0.00000  0.00000  0.50000 10.08333  0.14449   9.27
O003  1 -0.08259 -0.04129  0.00000 10.25000  0.62321   5.91
O004  1  0.26909  0.24934  0.50000 10.50000  0.19011   5.39
O005  1  0.59771  0.40229  0.00000 10.25000  0.64954   5.29
HKLF 4
END
