TITL 1230_expF_1_3_expS_0_9_1230_b.res in P-6m2
REM Old TITL 1230 in P6(3)mc
REM SHELXT solution in P-6m2: R1 0.249, Rweak 0.076, Alpha 0.197
REM <I/s>   0.000 for    0 systematic absences,  Orientation as input
REM Flack x =  0.473 ( 0.450 ) from   138 Parsons' quotients
REM Formula found by SHELXT:  O45 V19

CELL  0.71073  12.4770  12.4770   4.8820   90.000   90.000  120.000
ZERR    8.000   0.0018   0.0018   0.0010    0.000    0.000    0.000
LATT -1
SYMM -Y, X-Y, Z
SYMM -X+Y, -X, Z
SYMM X, Y, -Z
SYMM -Y, X-Y, -Z
SYMM -X+Y, -X, -Z
SYMM -Y, -X, Z
SYMM -X+Y, Y, Z
SYMM X, X-Y, Z
SYMM -Y, -X, -Z
SYMM -X+Y, Y, -Z
SYMM X, X-Y, -Z
SFAC O H V CO
UNIT 8 8 8 8
L.S. 10
BOND
LIST 6
FMAP 2
PLAN 20
V001  3  0.70562  0.85281  0.50000 10.25000  0.03661  23.79
V002  3  0.57368  0.64500  0.00000 10.50000  0.03883  20.65
V003  3  0.65798  0.57518  0.50000 10.50000  0.06615  19.28
V004  3  0.33333  0.66667  1.00000 10.08333  0.04438  17.47
V005  3  0.84536  0.69072  0.00000 10.25000  0.04706  17.44
O006  1  0.33334  0.66667  0.60412 10.16667  0.05272  11.78
O007  1  1.00000  1.00000  0.82680 10.16667  0.00532  10.91
O008  1  0.83373  0.91687  0.50000 10.25000  0.00010  10.89
O009  1  0.66667  0.33333  0.23630 10.16667  0.00010   9.53
O00A  1  0.47022  0.52978  0.66057 10.50000  0.02032   8.79
O00B  1  0.60109  0.80054  0.21994 10.50000  0.01172   8.48
O00C  1  0.80250  0.60499  0.00000 10.25000  0.05221   8.39
O00D  1  0.50368  0.49632  0.50000 10.25000  0.00507   7.95
O00E  1  0.58431  0.41568  0.36378 10.50000  0.01117   7.38
O00F  1  0.73487  0.67267  0.19378 11.00000  0.04269   5.56
HKLF 4
END
