TITL 1230_expF_1_4_expS_1_4_1230_c.res in P-62c
REM Old TITL 1230 in P6(3)mc
REM SHELXT solution in P-62c: R1 0.278, Rweak 0.046, Alpha 0.279
REM <I/s>   0.000 for    0 systematic absences,  Orientation as input
REM Flack x = -1.081 ( 0.468 ) from    52 Parsons' quotients
REM Formula found by SHELXT:  O35 V9

CELL  0.71073  12.4770  12.4770   4.8820   90.000   90.000  120.000
ZERR    8.000   0.0018   0.0018   0.0010    0.000    0.000    0.000
LATT -1
SYMM -Y, X-Y, Z
SYMM -X+Y, -X, Z
SYMM X, Y, 1/2-Z
SYMM -Y, X-Y, 1/2-Z
SYMM -X+Y, -X, 1/2-Z
SYMM Y, X, -Z
SYMM X-Y, -Y, -Z
SYMM -X, -X+Y, -Z
SYMM Y, X, 1/2+Z
SYMM X-Y, -Y, 1/2+Z
SYMM -X, -X+Y, 1/2+Z
SFAC O H V CO
UNIT 8 8 8 8
L.S. 10
BOND
LIST 6
FMAP 2
PLAN 20
V001  3  0.07684  0.43083  0.25000 10.50000  0.07017  24.04
V002  3 -0.14578  0.70082  1.25000 10.50000  0.05451  22.27
V003  3 -0.07215  0.57139  0.75000 10.50000  0.04556  19.88
O004  1  0.00000  1.00000  1.25000 10.16667  0.01758  12.92
O005  1  0.33334  0.66666  0.25000 10.16667  0.07806   9.81
O006  1  0.00000  1.00000  1.00000 10.16667  0.00010   9.52
O007  1  0.33334  0.66667  0.52563 10.33333  0.00011   8.67
O008  1  0.19232  0.58066  0.36844 11.00000  0.03866   8.52
O009  1  0.06082  0.52967  0.61102 11.00000  0.03205   7.10
O00A  1 -0.06843  0.65134  1.02846 11.00000  0.02231   6.74
O00B  1 -0.09197  0.83854  1.25000 10.50000  0.03273   6.67
O00C  1 -0.19432  0.61014  1.02114 11.00000  0.05198   6.12
O00D  1 -0.19500  0.76749  1.25000 10.50000  0.01967   5.59
HKLF 4
END
