TITL 10_a.res in P1
REM Old TITL 10 in P1
REM SHELXT solution in P1: R1 0.346, Rweak 0.492, Alpha 0.000
REM <I/s>   0.000 for    0 systematic absences,  Orientation as input
REM Flack x =  0.223 ( 0.431 ) from   145 Parsons' quotients
REM Formula found by SHELXT:  C37 N10 O9 Cl4

CELL  0.71073   4.8200  11.6700  19.2600   90.000   83.290   90.000
ZERR   14.000   0.0010   0.0023   0.0039    0.030    0.030    0.030
LATT -1
SFAC C N O CL
UNIT 14 14 14 14
L.S. 10
BOND
LIST 6
FMAP 2
PLAN 20
C001  1  1.39835  0.03656  0.52288 11.00000  0.02238  23.26
CL02  4  1.02574 -0.12773  0.52753 11.00000  0.10605  17.80
CL03  4  1.12923  0.00432  0.61333 11.00000  0.14164  13.66
CL04  4  0.49770  0.82002  0.75446 11.00000  0.17238  12.64
C005  1  0.58963  0.19941  0.75787 11.00000  0.04721  11.96
CL06  4  1.42027  0.00038  0.45255 11.00000  0.15787  11.48
O007  3  1.40004  0.47862  0.13502 11.00000  0.10313  10.61
N008  2  0.75298  0.25838  0.70638 11.00000  0.10222   9.82
N009  2 -0.18772  0.30522  0.93090 11.00000  0.05592   9.71
O00A  3  0.23167  0.14715  0.87155 11.00000  0.09341   9.51
N00B  2  0.75190  0.28174  0.36408 11.00000  0.10871   9.50
C00C  1  1.14944  0.41030  0.53219 11.00000  0.08482   9.34
O00D  3  0.65324  0.82766  0.20720 11.00000  0.09467   8.92
O00E  3  1.39294  0.45465  0.50794 11.00000  0.11098   8.71
C00F  1  1.54420  0.40422  0.17281 11.00000  0.09328   8.54
O00G  3  1.01344  0.37450  0.34578 11.00000  0.09650   8.28
O00H  3  1.10491  0.50863  0.39991 11.00000  0.07121   8.12
N00I  2  0.71950  1.00934  0.03909 11.00000  0.10205   8.05
N00J  2  1.04176  0.89435  0.03856 11.00000  0.12215   7.35
O00K  3 -0.75877  0.42594  0.91171 11.00000  0.10461   7.33
N00L  2  1.55944  0.74895  0.37871 11.00000  0.13606   6.78
N00M  2  1.00366  0.22418  0.38567 11.00000  0.13713   6.64
N00N  2  1.30435  0.69633  0.16607 11.00000  0.07486   6.52
C00O  1  0.01388  0.27056  0.90716 11.00000  0.05720   6.44
C00P  1  0.90327  0.28451  0.65289 11.00000  0.07153   6.40
C00Q  1  0.90562  1.06115  0.11258 11.00000  0.08217   6.01
C00R  1  0.89486  0.59463  0.79716 11.00000  0.11199   5.91
C00S  1  0.59480  0.22673  0.63863 11.00000  0.12103   5.72
C00T  1  0.83643  0.23417  0.41102 11.00000  0.06847   5.68
C00U  1  1.23560  0.56648  0.74515 11.00000  0.09461   5.64
C00V  1  0.37607  0.19777  0.81413 11.00000  0.07771   5.64
C00W  1  0.66462  1.02687  0.16686 11.00000  0.07619   5.62
C00X  1  1.70087  0.58462  0.08508 11.00000  0.05625   5.55
C00Y  1  0.96784  0.30639  0.75186 11.00000  0.06111   5.46
C00Z  1  1.29027  0.10746  0.34581 11.00000  0.06681   5.38
C010  1 -0.40620  0.31582  0.98424 11.00000  0.13113   5.19
O011  3  0.41760  1.12773  0.15142 11.00000  0.18447   5.01
N012  2  1.16386  0.37635  0.75509 11.00000  0.09367   4.99
C013  1  1.29367  0.81704  0.10922 11.00000  0.13859   4.98
C014  1  1.52863  0.69854  0.66425 11.00000  0.21025   4.93
C015  1  0.85606  0.32219  0.25475 11.00000  0.04732   4.88
N016  2  0.37153  0.11931  0.74713 11.00000  0.04417   4.87
C017  1  0.88865  0.87021  0.05871 11.00000  0.05919   4.85
C018  1 -0.75281  0.42594  1.00002 11.00000  0.05098   4.59
C019  1  0.62195  1.06799  0.07145 11.00000  0.08212   4.58
C01A  1  0.82780  0.05298  0.68382 11.00000  0.07649   4.43
O01B  3  1.75877  0.63643  0.25572 11.00000  0.09798   4.34
C01C  1  1.72444  0.68872  0.37701 11.00000  0.07541   3.96
C01D  1  0.41196  1.07146 -0.00002 11.00000  0.05097   3.91
C01E  1  1.26868  0.67974  0.65160 11.00000  0.09746   3.86
C01F  1  1.23803  0.43335  0.38666 11.00000  0.07595   3.85
C01G  1  0.45848  0.76519  0.85963 11.00000  0.07893   3.81
C01H  1  0.85184  0.27232  0.55003 11.00000  0.09712   3.56
C01I  1  0.99170 -0.06180  0.75267 11.00000  0.14569   3.53
C01J  1  0.20000  1.12360  0.19504 11.00000  0.10342   3.30
C01K  1  1.61697  0.56623  0.22359 11.00000  0.08624   3.28
C01L  1  1.34726  0.62793  0.32037 11.00000  0.08638   3.26
C01M  1  1.42527 -0.12111  0.56943 11.00000  0.07241   3.25
C01N  1  0.76895  0.69183  0.82710 11.00000  0.07045   3.22
C01O  1  0.95589  0.33417  0.42461 11.00000  0.13794   3.00
HKLF 4
END
