TITL 11_a.res in P1
REM Old TITL 11 in P1
REM SHELXT solution in P1: R1 0.322, Rweak 0.450, Alpha 0.000
REM <I/s>   0.000 for    0 systematic absences,  Orientation as input
REM Flack x =  0.303 ( 0.443 ) from   235 Parsons' quotients
REM Formula found by SHELXT:  C28 N12 O24 Cl18

CELL  0.71073   4.8400  11.6900  19.5900   90.000   83.800   90.000
ZERR   15.000   0.0010   0.0023   0.0039    0.030    0.030    0.030
LATT -1
SFAC C N O CL
UNIT 15 15 15 15
L.S. 10
BOND
LIST 6
FMAP 2
PLAN 20
CL01  4  0.28438  0.43486  0.15939 11.00000  0.10570  17.58
CL02  4  0.79526  0.42169  0.23057 11.00000  0.11946  16.88
CL03  4 -0.31836 -0.12079  0.67094 11.00000  0.20044  16.15
CL04  4  0.75193  0.11438  0.40497 11.00000  0.10935  15.98
CL05  4  0.36925  0.22531  0.44334 11.00000  0.11756  15.89
CL06  4  0.02066  0.18890  0.88931 11.00000  0.15021  15.65
O007  3  0.13995  0.59414  0.45187 11.00000  0.10606  15.43
CL08  4  0.98714  0.73610  0.71297 11.00000  0.15749  14.89
CL09  4  0.41532  0.84216  0.32780 11.00000  0.11896  14.87
CL0A  4  0.98252  0.36158  0.26241 11.00000  0.14240  14.62
CL0B  4 -0.05064 -0.01333  0.62432 11.00000  0.13277  14.36
CL0C  4  0.98104  0.50885  0.99132 11.00000  0.11621  14.32
CL0D  4  0.68737  0.37812  0.99544 11.00000  0.10936  14.22
CL0E  4  1.11443  1.02280  0.32468 11.00000  0.12050  13.98
CL0F  4  0.51419  0.98920  0.12159 11.00000  0.14485  13.71
CL0G  4  0.85186  0.43162  0.95221 11.00000  0.11321  13.33
CL0H  4  0.14508  0.05119  0.50932 11.00000  0.18408  13.29
C00I  1  1.07243  0.70861  0.66470 11.00000  0.13573  12.77
O00J  3  0.38904  0.31695  0.15887 11.00000  0.08640  12.48
N00K  2  1.07321  0.97840  0.28987 11.00000  0.05720  12.44
N00L  2  0.66393  0.10894  0.38033 11.00000  0.08089  12.27
O00M  3  0.71397  0.57317  0.28083 11.00000  0.08205  11.68
N00N  2  0.25763  0.58729  0.41314 11.00000  0.05415  11.54
O00O  3 -0.14811  0.07592  0.59354 11.00000  0.06836  11.50
N00P  2  0.51535  0.83285  0.40153 11.00000  0.04250  11.30
CL0Q  4  0.72508  0.38557  0.46425 11.00000  0.12419  11.01
N00R  2  0.57128  0.31649  0.82561 11.00000  0.06959  10.70
O00S  3  0.84726  0.24626  0.76909 11.00000  0.06366  10.14
O00T  3  0.24492  0.74164  0.30830 11.00000  0.09193  10.12
O00U  3 -0.09152 -0.04834  0.82537 11.00000  0.09074   9.94
O00V  3 -0.13950  0.30239  0.64966 11.00000  0.08501   9.90
CL0W  4  1.46217  0.66628  0.97800 11.00000  0.14133   9.74
N00X  2  0.41159  0.17271  0.37811 11.00000  0.06949   9.73
C00Y  1  1.19691  0.70038  0.62295 11.00000  0.04594   9.72
C00Z  1  1.17902  0.61188  0.90347 11.00000  0.04154   9.70
O010  3  0.15010  0.17125  0.51494 11.00000  0.06281   9.68
O011  3  1.25023  0.82412  0.15190 11.00000  0.10573   9.49
O012  3  1.10228  0.59205  0.72319 11.00000  0.07125   9.40
N013  2  0.79866  1.03830  0.26670 11.00000  0.06668   9.37
O014  3  0.48075  0.65064  0.39127 11.00000  0.07766   9.26
N015  2  0.22148  0.13662  0.66001 11.00000  0.04230   9.19
O016  3  0.68027  0.43001  0.37744 11.00000  0.04056   9.07
N017  2  0.34586  0.22625  0.87098 11.00000  0.05516   9.04
O018  3  1.23377  0.63350  0.83703 11.00000  0.07730   9.04
O019  3  0.69055  1.13276  0.00456 11.00000  0.09193   8.56
O01A  3  0.41784  0.93946  0.41774 11.00000  0.05575   8.22
O01B  3  0.19308  1.02716  0.03658 11.00000  0.04313   8.20
O01C  3 -0.44354 -0.10852  0.77644 11.00000  0.12919   7.99
O01D  3  0.48000 -0.15410  0.90223 11.00000  0.10213   7.83
O01E  3  0.40787  0.28927  0.24959 11.00000  0.07930   7.69
O01F  3  0.37175  0.22115  0.59315 11.00000  0.10099   7.66
O01G  3 -0.16587  0.00917  0.74186 11.00000  0.06014   7.28
N01H  2  0.12524 -0.00927  0.56870 11.00000  0.10135   6.93
O01I  3  0.33636  0.60291  0.36142 11.00000  0.08884   6.55
C01J  1  0.33284  0.21751  0.81937 11.00000  0.05333   6.36
C01K  1  0.58091  0.98603  0.02659 11.00000  0.06320   6.29
C01L  1  0.70478  0.67138  0.20218 11.00000  0.06152   6.09
C01M  1 -0.38208  0.45880  0.68410 11.00000  0.07519   5.85
C01N  1  1.06458  1.25285  0.00495 11.00000  0.05894   5.78
C01O  1  0.98709  0.72172  0.18441 11.00000  0.04487   5.35
C01P  1  0.57447  0.87936  0.44183 11.00000  0.04016   5.30
C01Q  1  1.22208  1.01623  0.22482 11.00000  0.05861   5.24
C01R  1  0.69950  1.13153  0.11861 11.00000  0.09826   5.21
N01S  2  0.66581  0.74731  0.27409 11.00000  0.07132   5.06
C01T  1 -0.46217  0.32627  0.68268 11.00000  0.07264   5.02
C01U  1  0.24950 -0.06649  0.85729 11.00000  0.05032   4.88
C01V  1  0.21299  0.09009  0.78851 11.00000  0.04103   4.85
N01W  2  0.78679  0.76040  0.12090 11.00000  0.08250   4.71
C01X  1  1.00978  0.45924  0.78347 11.00000  0.05732   4.70
C01Y  1 -0.34132 -0.25285  0.58755 11.00000  0.18945   4.64
C01Z  1  1.06638  0.87796  0.17786 11.00000  0.15150   4.30
O020  3  0.81095  0.47361  0.85395 11.00000  0.10975   4.30
C021  1  0.55500  0.54835  0.08710 11.00000  0.06520   4.26
C022  1  0.21241  0.03443  0.70057 11.00000  0.05643   3.99
C023  1 -0.12481  0.64088  0.40144 11.00000  0.04045   3.96
C024  1  0.90989  0.89824  0.17514 11.00000  0.07051   3.95
C025  1 -0.06060  0.15309  0.69424 11.00000  0.04417   3.85
C026  1  0.81326  0.79567  0.27171 11.00000  0.08780   3.70
C027  1  0.65726  0.87008  0.05766 11.00000  0.07039   3.58
C028  1  0.68597  0.24586  0.31635 11.00000  0.13367   3.50
C029  1 -0.01612  0.52576  0.53303 11.00000  0.09263   3.34
C02A  1 -0.11803 -0.17382  0.54690 11.00000  0.10293   3.28
HKLF 4
END
