TITL 12_a.res in P1
REM Old TITL 12 in P1
REM SHELXT solution in P1: R1 0.346, Rweak 0.450, Alpha 0.000
REM <I/s>   0.000 for    0 systematic absences,  Orientation as input
REM Flack x = -1.025 ( 1.062 ) from   238 Parsons' quotients
REM Formula found by SHELXT:  C33 N11 O22 Cl

CELL  0.71073   4.8400  11.6900  19.5500   90.000   83.700   90.000
ZERR   15.000   0.0010   0.0023   0.0039    0.030    0.030    0.030
LATT -1
SFAC C N O CL
UNIT 15 15 15 15
L.S. 10
BOND
LIST 6
FMAP 2
PLAN 20
C001  1  1.03080  0.71505  0.45457 11.00000  0.06933  15.30
C002  1  0.50494  0.39884  0.37778 11.00000  0.05892  11.57
O003  3  0.40488  0.08327  0.64579 11.00000  0.11375  11.44
O004  3  0.57246  0.20264  0.42262 11.00000  0.10190  10.71
O005  3  0.60329  0.28878  0.26163 11.00000  0.08827  10.54
O006  3  0.90648  0.38262  0.19620 11.00000  0.11139  10.42
CL07  4 -0.58571  0.21410  0.96902 11.00000  0.16381  10.30
O008  3  1.13419  0.53063  0.22533 11.00000  0.15935   9.24
O009  3  1.29883  0.85978  0.61100 11.00000  0.06874   9.21
O00A  3 -0.41209  0.07858  0.84910 11.00000  0.09383   9.21
O00B  3  0.06201  0.74886  0.86996 11.00000  0.12449   8.97
O00C  3  0.69686  0.29501  0.18916 11.00000  0.15040   8.95
O00D  3  0.50515  0.23760  0.65485 11.00000  0.08777   8.85
O00E  3  1.21310  0.87678  0.11639 11.00000  0.14895   8.73
N00F  2  0.36413  0.02906  0.69544 11.00000  0.11459   8.60
O00G  3  0.29979  0.34447  0.40497 11.00000  0.08155   8.42
O00H  3  1.13201  0.85722  0.06369 11.00000  0.10888   8.26
O00I  3  1.48262  0.58393  0.09058 11.00000  0.10712   8.06
O00J  3  1.20772  0.91235  0.00228 11.00000  0.08807   8.06
N00K  2  0.80885  0.62385  0.49792 11.00000  0.06806   7.97
O00L  3 -0.05337  0.40241  0.81008 11.00000  0.11134   7.80
O00M  3  0.22906  0.44907  0.50066 11.00000  0.07687   7.79
N00N  2  0.57889  0.73049  0.34598 11.00000  0.13339   7.69
O00O  3  1.22259  0.78181  0.46630 11.00000  0.14352   7.66
C00P  1  0.32404  0.41615  0.67841 11.00000  0.07536   7.54
N00Q  2  1.05703  0.43383  0.13551 11.00000  0.09978   7.38
O00R  3  0.44203  0.60897  0.82843 11.00000  0.10421   7.35
N00S  2  0.81348  0.55698  0.56763 11.00000  0.04607   7.29
N00T  2  0.38747  0.09869  0.56913 11.00000  0.09627   7.18
O00U  3  1.53848  0.76150 -0.00587 11.00000  0.18187   7.17
C00V  1 -0.23529  0.16984  0.88026 11.00000  0.07142   7.06
N00W  2  0.44431  0.98084  0.21172 11.00000  0.08511   6.84
N00X  2  0.70193 -0.03454  0.63507 11.00000  0.12844   6.79
N00Y  2 -0.70425 -0.02607  0.81373 11.00000  0.14097   6.63
C00Z  1  0.67978  0.50188  0.61599 11.00000  0.04733   6.45
O010  3 -0.15244  0.35145  0.91444 11.00000  0.15509   6.33
C011  1  0.78244  0.34571  0.08731 11.00000  0.06928   6.29
C012  1  1.19268  0.45535  0.11778 11.00000  0.09542   6.23
C013  1  1.05146  0.79287  0.21641 11.00000  0.06646   6.22
C014  1  1.59868  0.66364  0.01237 11.00000  0.11918   6.14
C015  1  0.06916  0.39692  0.33823 11.00000  0.07550   6.09
C016  1  0.63615  0.58364  0.49375 11.00000  0.07828   6.05
C017  1  0.62163  0.69665  0.75266 11.00000  0.05851   5.99
C018  1  0.51864  0.52358  0.64126 11.00000  0.05044   5.97
C019  1 -0.28461  0.44462  0.84484 11.00000  0.10208   5.86
C01A  1  0.23704  1.03454  0.30170 11.00000  0.06061   5.62
C01B  1  0.60088  0.87963  0.33326 11.00000  0.08828   5.48
C01C  1 -0.54445  0.02410  0.91145 11.00000  0.07049   5.44
C01D  1  0.66994  0.31379  0.14149 11.00000  0.10791   5.38
C01E  1  0.91616  0.77895  0.25818 11.00000  0.12398   5.31
C01F  1 -0.76480  0.16564  1.00587 11.00000  0.09960   5.20
C01G  1  0.80603  0.61280  0.63351 11.00000  0.07444   5.08
O01H  3  0.26219  0.47080  0.76714 11.00000  0.14030   5.02
C01I  1  1.76480  0.52154  0.05322 11.00000  0.11258   4.64
C01J  1  0.52113  0.56264  0.40808 11.00000  0.07239   4.62
C01K  1  0.72760  0.80207  0.32354 11.00000  0.12605   4.53
C01L  1  0.88752  0.63694  0.31741 11.00000  0.06847   4.35
C01M  1  0.38263  0.33808  0.59691 11.00000  0.06361   4.09
C01N  1  0.85162  0.22808  0.35643 11.00000  0.10004   4.05
C01O  1  1.33092  0.84010  0.69997 11.00000  0.10234   4.04
C01P  1  0.98285  0.89187  0.54350 11.00000  0.07389   3.81
C01Q  1  0.66502  0.87342  0.28807 11.00000  0.09181   3.47
C01R  1  0.82660  0.81606  0.28219 11.00000  0.07837   3.42
C01S  1 -0.01374  0.42898  0.68674 11.00000  0.06295   3.41
N01T  2  0.91396  0.27267  0.49903 11.00000  0.10773   3.30
N01U  2  0.31834  0.40299  0.55044 11.00000  0.11333   3.12
C01V  1  0.76967  0.79365  0.24809 11.00000  0.06160   3.05
HKLF 4
END
