TITL 13_a.res in P1
REM Old TITL 13 in P1
REM SHELXT solution in P1: R1 0.307, Rweak 0.350, Alpha 0.000
REM <I/s>   0.000 for    0 systematic absences,  Orientation as input
REM Flack x =  0.434 ( 0.541 ) from    99 Parsons' quotients
REM Formula found by SHELXT:  C26 N20 O16 Cl11

CELL  0.71073   4.8500  11.5800  19.4500   90.000   82.970   90.000
ZERR   14.000   0.0010   0.0023   0.0039    0.030    0.030    0.030
LATT -1
SFAC C N O CL
UNIT 14 14 14 14
L.S. 10
BOND
LIST 6
FMAP 2
PLAN 20
CL01  4  0.10003  0.49176  0.23243 11.00000  0.14342  16.37
CL02  4 -0.17677  0.48465  0.17875 11.00000  0.11331  16.30
CL03  4 -0.54044  0.34335  0.18225 11.00000  0.07868  15.20
CL04  4  0.59271  0.16377  0.58391 11.00000  0.14827  15.02
CL05  4  1.48369  0.14856  0.84800 11.00000  0.11898  14.69
CL06  4  0.51664  0.33239  0.66243 11.00000  0.11544  14.29
CL07  4 -0.10220  0.80376 -0.03828 11.00000  0.12288  13.10
CL08  4 -0.19936  0.54887  0.79526 11.00000  0.12388  12.80
N009  2 -0.14668  0.41574  0.09150 11.00000  0.06606  11.89
O00A  3 -0.03197  0.58125  0.77423 11.00000  0.04389  11.73
N00B  2  0.00320  0.55722  0.14215 11.00000  0.04004  11.73
O00C  3 -0.26533  0.20747  0.19160 11.00000  0.07070  11.56
N00D  2  0.00349  0.56485  0.21386 11.00000  0.07294  11.25
O00E  3  0.39402  0.82187  0.38307 11.00000  0.11416  10.75
CL0F  4 -0.42213  0.09426  0.29372 11.00000  0.12821  10.68
O00G  3  0.87739  0.20037  0.45427 11.00000  0.06702  10.59
CL0H  4  0.97366  0.33305  0.72200 11.00000  0.13939  10.43
N00I  2 -0.12148  0.44836  0.22988 11.00000  0.05922  10.39
CL0J  4  0.14665  0.96499  0.40876 11.00000  0.13085  10.02
O00K  3 -0.89291  0.97904  0.87001 11.00000  0.05924   9.83
C00L  1  1.20387  0.21563  0.95106 11.00000  0.03374   9.80
O00M  3 -0.34630  0.80496  0.57837 11.00000  0.06712   9.68
C00N  1 -0.75510  0.87951  0.82875 11.00000  0.04468   9.47
O00O  3 -0.39110  0.58303  0.39223 11.00000  0.09495   9.07
O00P  3  1.09554  0.15485  1.03828 11.00000  0.11747   8.80
O00Q  3  0.21915  0.38607  0.31585 11.00000  0.05033   8.72
O00R  3  0.18341  0.64412  0.70035 11.00000  0.10616   8.63
O00S  3  0.31326  0.71378  0.49553 11.00000  0.06707   8.28
N00T  2 -0.32261  0.66314  0.12874 11.00000  0.06559   8.18
N00U  2  0.41420  0.26007  0.63298 11.00000  0.05682   8.06
N00V  2  0.66741  0.19608  0.49420 11.00000  0.04788   8.04
N00W  2  1.20054  0.22949  0.88568 11.00000  0.08330   7.86
N00X  2  1.30779  0.25732  0.91889 11.00000  0.06518   7.82
O00Y  3  1.40878  0.34340  1.00184 11.00000  0.05974   7.77
N00Z  2  0.49273  0.24097  0.53381 11.00000  0.04557   7.73
O010  3  0.74234  0.45504  0.69217 11.00000  0.08573   7.64
O011  3  0.09466  0.42486  0.46963 11.00000  0.04673   7.51
N012  2 -0.25189  0.62370  0.85443 11.00000  0.03749   7.40
O013  3  0.00260  0.79525  0.47938 11.00000  0.04570   7.32
C014  1  0.50156  0.12107  0.52990 11.00000  0.04566   7.30
N015  2 -0.14120  0.78527  0.06756 11.00000  0.05588   7.01
N016  2 -0.46783  0.92224  0.91996 11.00000  0.05674   6.94
N017  2 -0.53503  0.67345  0.92743 11.00000  0.12351   6.82
N018  2 -0.64555  0.97522  0.19333 11.00000  0.05305   6.80
N019  2 -0.42033  0.62773  0.29431 11.00000  0.05486   6.64
N01A  2 -0.06236  0.54705  0.10747 11.00000  0.02788   6.59
N01B  2  0.04565  0.15375  0.18604 11.00000  0.04501   6.59
N01C  2 -0.29778  0.31244  0.10109 11.00000  0.03374   6.52
N01D  2  0.35083  0.51501  0.67881 11.00000  0.04417   6.52
C01E  1 -0.54655  0.77931  0.15460 11.00000  0.02844   6.06
C01F  1  0.28294  0.34406  0.59423 11.00000  0.03052   5.94
O01G  3  1.22223  0.39097  0.80667 11.00000  0.06642   5.91
C01H  1 -0.14172  0.76149  0.52967 11.00000  0.04765   5.88
C01I  1  1.07266  0.32821  0.97065 11.00000  0.02826   5.73
C01J  1  1.03309  0.25596  0.42567 11.00000  0.08636   5.73
C01K  1 -0.41019  0.97513  0.96264 11.00000  0.01488   5.73
C01L  1  1.39944  0.28463  0.79878 11.00000  0.02830   5.57
C01M  1 -0.53342  0.84728  0.86734 11.00000  0.03887   5.46
C01N  1 -0.26480  0.43268  0.45244 11.00000  0.03587   4.97
C01O  1 -0.12892  0.58914  0.32501 11.00000  0.07410   4.93
C01P  1  0.21667  0.64295  0.82798 11.00000  0.04585   4.59
C01Q  1 -0.77492  0.91530  0.11635 11.00000  0.07268   4.56
C01R  1 -0.48728  0.90583  0.72464 11.00000  0.08160   4.42
C01S  1  2.08975  0.02096  0.74627 11.00000  0.08645   4.06
C01T  1 -0.67603  0.57309  0.96386 11.00000  0.02425   3.87
C01U  1 -0.35846  0.84789  0.67253 11.00000  0.04699   3.79
C01V  1 -0.28938  0.53471  0.90764 11.00000  0.07988   3.79
C01W  1 -0.05404  0.78724  0.66272 11.00000  0.06150   3.74
C01X  1 -0.54270  0.55072  0.19214 11.00000  0.04275   3.68
C01Y  1  1.74273  0.08734  0.76049 11.00000  0.05576   3.56
C01Z  1  0.30386  0.30883  0.51424 11.00000  0.05393   3.39
C020  1 -1.08975  0.84710  0.21154 11.00000  0.04077   3.25
C021  1 -0.67312  0.80178  0.58134 11.00000  0.05156   3.12
HKLF 4
END
