TITL 14_a.res in P1
REM Old TITL 14 in P1
REM SHELXT solution in P1: R1 0.317, Rweak 0.543, Alpha 0.000
REM <I/s>   0.000 for    0 systematic absences,  Orientation as input
REM Flack x = -1.005 ( 0.756 ) from    79 Parsons' quotients
REM Formula found by SHELXT:  C36 N16 O20 Cl7

CELL  0.71073   4.8300  11.6500  19.2200   90.000   83.640   90.000
ZERR   14.000   0.0010   0.0023   0.0038    0.030    0.030    0.030
LATT -1
SFAC C N O CL
UNIT 14 14 14 14
L.S. 10
BOND
LIST 6
FMAP 2
PLAN 20
CL01  4  0.54182  0.78339  0.33269 11.00000  0.08530  22.85
CL02  4  1.41155  0.38052  0.94161 11.00000  0.13216  17.78
CL03  4 -0.83867  0.96947  0.91690 11.00000  0.10704  15.48
CL04  4  1.46920  0.20916  0.50682 11.00000  0.18756  14.55
C005  1  0.74855  0.86401  0.09004 11.00000  0.03917  14.05
CL06  4  0.04776  0.95655  0.46502 11.00000  0.09952  13.38
CL07  4 -0.16985  0.87687  0.60302 11.00000  0.13180  13.38
CL08  4  0.19575  0.87032  0.45065 11.00000  0.14423  12.68
O009  3  1.07829  0.59142  0.23096 11.00000  0.07418  12.03
O00A  3  1.29627  0.18690  0.16655 11.00000  0.03249  12.01
O00B  3  0.86002  0.89802  0.09660 11.00000  0.06234  11.66
O00C  3  1.45018  0.31483  0.98079 11.00000  0.06179  11.66
O00D  3  1.47664  0.17026  0.61773 11.00000  0.06763  11.20
O00E  3  1.58097  0.22202  0.36464 11.00000  0.07774  10.99
O00F  3 -0.81530  0.65438  0.86351 11.00000  0.06509  10.81
N00G  2  0.66983  0.82169  0.30807 11.00000  0.06132  10.79
O00H  3  1.46324  0.70359  0.41549 11.00000  0.07390  10.64
O00I  3  0.64371  0.75811  0.04033 11.00000  0.10405  10.57
O00J  3 -0.81217  0.86878  0.68685 11.00000  0.02970  10.30
N00K  2  0.99001  0.71195  0.19603 11.00000  0.09514  10.19
N00L  2  0.46130  0.83204  0.31965 11.00000  0.05122   9.73
O00M  3  0.89820  0.92246  0.19835 11.00000  0.09875   9.07
O00N  3  1.83369  0.37647  0.88745 11.00000  0.04363   9.06
O00O  3  1.27802  0.58995  0.37890 11.00000  0.08369   8.84
O00P  3 -0.60961  0.74953  0.64444 11.00000  0.10046   8.76
O00Q  3  1.81099  0.22065  0.93692 11.00000  0.04247   8.61
N00R  2 -0.48271  0.74760  0.61295 11.00000  0.08707   8.23
O00S  3  1.38747  0.33973  0.56102 11.00000  0.07983   8.16
N00T  2  1.63446  0.24411  0.56414 11.00000  0.05786   7.96
N00U  2 -0.08512  0.94226  0.51685 11.00000  0.10935   7.82
O00V  3  0.82071  0.64194  0.33835 11.00000  0.08203   7.77
O00W  3  1.48475  0.51671  0.34237 11.00000  0.05502   7.56
O00X  3  1.74313  0.62360  0.67656 11.00000  0.06202   7.44
N00Y  2  1.22178  0.42514  1.00940 11.00000  0.08420   7.31
O00Z  3  1.90730  0.54170  0.72889 11.00000  0.08946   7.25
N010  2  1.02220  0.03053  0.30679 11.00000  0.03233   7.24
N011  2 -0.98387  0.89867  0.91593 11.00000  0.08363   7.09
N012  2  1.62602  0.27694  0.64267 11.00000  0.07538   6.93
N013  2 -0.98457  0.78041  0.89498 11.00000  0.05164   6.90
N014  2  0.32847  0.88846  0.35826 11.00000  0.06096   6.78
N015  2  1.14454  0.43499  0.48758 11.00000  0.07495   6.65
N016  2  1.35037  0.39368  0.39737 11.00000  0.10693   6.60
N017  2  1.11573  0.31960  0.49878 11.00000  0.04074   6.59
N018  2  1.33601  0.53222  0.63327 11.00000  0.03711   6.59
C019  1  1.77213  0.34828  0.81953 11.00000  0.01397   6.52
C01A  1 -0.91410  0.81964  0.81126 11.00000  0.04780   6.49
C01B  1  0.43431  0.59412  0.09056 11.00000  0.09046   6.41
C01C  1  1.62258  0.50119  0.57476 11.00000  0.04664   6.34
C01D  1  1.30559  0.37233  0.50605 11.00000  0.06099   6.12
C01E  1  1.47548  0.17801  0.19464 11.00000  0.04900   5.99
C01F  1  1.46783  0.12579  0.94966 11.00000  0.05429   5.98
C01G  1  1.54758  0.10788  0.25912 11.00000  0.04763   5.83
C01H  1  1.72599  0.09671  0.79517 11.00000  0.04596   5.77
C01I  1 -1.13848  0.62735  0.94764 11.00000  0.04806   5.70
C01J  1  1.79949  0.20504  0.33548 11.00000  0.05601   5.67
C01K  1  1.59256  0.53945  0.67555 11.00000  0.02341   5.53
C01L  1  0.61901  0.64886  0.18064 11.00000  0.04797   5.49
C01M  1  0.25071  0.78315  0.52517 11.00000  0.05771   5.36
C01N  1  1.59356  0.24727  0.26786 11.00000  0.02624   5.29
C01O  1  0.48558  0.86399 -0.01382 11.00000  0.07456   5.26
C01P  1  1.30828  0.56067  0.29628 11.00000  0.06349   5.16
C01Q  1  0.86450  0.78395  0.23606 11.00000  0.06894   4.93
C01R  1  2.00530  0.08075  0.74147 11.00000  0.07940   4.89
C01S  1  1.20987  0.04620  0.13669 11.00000  0.05481   4.68
C01T  1  1.71098  0.06128  1.01382 11.00000  0.08188   4.64
C01U  1  0.52727  0.83313  0.48037 11.00000  0.05595   4.59
C01V  1 -0.42191  0.88045  0.68489 11.00000  0.05591   4.55
C01W  1  1.72602  0.10018  0.45669 11.00000  0.07589   4.55
C01X  1  2.13848  0.44202  0.76461 11.00000  0.05629   4.51
C01Y  1  1.32860  0.36277  0.21904 11.00000  0.05406   4.09
C01Z  1  0.62847  0.76223  0.50018 11.00000  0.09152   3.74
C020  1  1.42899  0.17616  0.74375 11.00000  0.05128   3.52
C021  1  1.28421  0.27053  0.45798 11.00000  0.09464   3.51
C022  1  1.47989  0.28390  0.19435 11.00000  0.05948   3.30
C023  1  1.41939  0.26249  0.25525 11.00000  0.07421   3.25
C024  1  1.10784  0.66125  0.17283 11.00000  0.07975   3.23
C025  1 -0.51044  0.85997  0.72803 11.00000  0.06704   3.18
C026  1  2.02239  0.12719  0.81131 11.00000  0.04871   3.14
C027  1  1.21790  0.03997  0.27190 11.00000  0.07981   3.08
HKLF 4
END
