TITL 16_a.res in P1
REM Old TITL 16 in P1
REM SHELXT solution in P1: R1 0.340, Rweak 0.542, Alpha 0.000
REM <I/s>   0.000 for    0 systematic absences,  Orientation as input
REM Flack x = -0.046 ( 0.676 ) from    88 Parsons' quotients
REM Formula found by SHELXT:  C42 N11 O11 Cl4

CELL  0.71073   4.8300  11.6400  19.3400   90.000   83.660   90.000
ZERR   14.000   0.0010   0.0023   0.0039    0.030    0.030    0.030
LATT -1
SFAC C N O CL
UNIT 14 14 14 14
L.S. 10
BOND
LIST 6
FMAP 2
PLAN 20
CL01  4  1.53244  0.74502  0.58986 11.00000  0.10729  28.44
CL02  4 -0.13098  0.70473  0.45897 11.00000  0.10518  16.63
CL03  4  0.65369  0.14844  0.98148 11.00000  0.10278  13.91
O004  3  0.05423  0.49378  1.11229 11.00000  0.05297  13.04
O005  3  0.89211  0.50100  0.27485 11.00000  0.12472  10.66
O006  3  1.39918  0.29069  0.65603 11.00000  0.06916  10.51
C007  1  0.27797  0.41821  1.06859 11.00000  0.04661  10.42
O008  3  0.82153  0.12776  0.49041 11.00000  0.11525  10.10
CL09  4  0.11558  0.58182  0.41816 11.00000  0.13683  10.09
O00A  3 -0.00628  1.17474  0.24310 11.00000  0.07846   9.04
O00B  3 -0.27750  1.17838  0.18402 11.00000  0.07258   8.01
O00C  3  0.38824  0.77542 -0.11229 11.00000  0.08961   7.88
O00D  3  0.33851  1.02727  0.25380 11.00000  0.07668   7.65
N00E  2  0.66375  0.17048  0.88102 11.00000  0.05784   7.45
N00F  2  0.70087  0.02106  0.70089 11.00000  0.06223   7.40
O00G  3  0.06955  0.15411  0.98284 11.00000  0.16065   7.36
O00H  3 -0.31606  0.74231  0.06851 11.00000  0.07801   7.33
N00I  2  0.39252  0.46734  0.87945 11.00000  0.15295   7.14
C00J  1 -0.53971  0.86594  0.47437 11.00000  0.03952   7.11
N00K  2  1.26688  0.03065  0.79961 11.00000  0.05729   6.94
N00L  2  0.44492 -0.01791  1.06566 11.00000  0.03195   6.76
N00M  2  0.36293  0.33140  0.97194 11.00000  0.10361   6.73
N00N  2  0.46715  0.47640  0.35642 11.00000  0.06629   6.65
C00O  1  0.01226  0.71481  0.12799 11.00000  0.07096   6.48
C00P  1 -0.21906  0.90837  0.37195 11.00000  0.11345   6.48
C00Q  1  1.17435  0.21139  0.70237 11.00000  0.07564   6.37
C00R  1  0.38399  0.91208 -0.08752 11.00000  0.05598   6.32
C00S  1  0.20052  1.00121  0.32745 11.00000  0.03466   6.29
C00T  1  0.41820  0.27991  0.91983 11.00000  0.04533   6.27
C00U  1  0.40117  0.22991  0.85685 11.00000  0.03489   6.18
N00V  2  0.01465  0.80080 -0.02645 11.00000  0.08006   6.15
C00W  1  1.25552  0.36308  0.60670 11.00000  0.09203   6.05
C00X  1  1.04021  0.06517  0.86488 11.00000  0.02068   5.89
C00Y  1  1.04793  0.56404  0.68674 11.00000  0.04791   5.72
N00Z  2 -0.39991  0.80788  0.45517 11.00000  0.12308   5.67
C010  1  1.40034  0.24998  0.58796 11.00000  0.14911   5.62
C011  1  0.86218  0.34825  0.47371 11.00000  0.10454   5.57
C012  1  0.85026  0.45972  0.74566 11.00000  0.04376   5.47
C013  1  0.63326  0.55027  0.83547 11.00000  0.05103   5.40
C014  1  0.88643 -0.10240  0.60731 11.00000  0.03709   5.38
C015  1  0.84171  0.09238  0.58573 11.00000  0.08259   5.35
C016  1  0.84772  0.15143  0.66530 11.00000  0.05831   5.28
C017  1 -0.02781  1.09749  0.13301 11.00000  0.04930   5.17
C018  1  0.74167  0.46388  0.28121 11.00000  0.03194   4.98
C019  1  0.31869  0.34374  0.31669 11.00000  0.07705   4.95
N01A  2  0.07407  0.75677  0.26196 11.00000  0.03682   4.92
C01B  1  0.70376  0.15970  0.42042 11.00000  0.08747   4.84
C01C  1  0.26943  0.21646  0.98281 11.00000  0.06284   4.78
C01D  1  0.23333  0.67903  0.28643 11.00000  0.07925   4.67
C01E  1  0.97804 -0.08617  0.72145 11.00000  0.08521   4.64
C01F  1  0.60365  0.01355  0.55858 11.00000  0.07781   4.62
C01G  1 -0.12794  1.23846  0.29532 11.00000  0.06084   4.61
C01H  1  0.68956  0.52884  0.51942 11.00000  0.10204   4.53
N01I  2  1.02072 -0.23846  0.79535 11.00000  0.11116   4.32
C01J  1  1.16035  0.47718  0.68614 11.00000  0.10665   4.14
O01K  3 -0.26954  0.93379  0.30780 11.00000  0.05825   3.99
C01L  1 -0.11952  0.81651  0.16423 11.00000  0.07133   3.98
C01M  1 -0.17651  0.75862  0.04219 11.00000  0.08867   3.88
C01N  1  0.96452  0.27265  0.49002 11.00000  0.05869   3.83
C01O  1  0.04746  0.78694  0.40841 11.00000  0.05977   3.66
C01P  1  1.53971  0.59959  0.64901 11.00000  0.06181   3.64
C01Q  1  0.05653  0.75896  0.18886 11.00000  0.07389   3.54
C01R  1  0.38900  0.27729  0.37400 11.00000  0.16370   3.40
C01S  1  0.42085  0.59013  0.18019 11.00000  0.05805   3.34
C01T  1 -0.27684  0.87801  0.22789 11.00000  0.04323   3.25
C01U  1  0.78053  0.03667  0.55912 11.00000  0.07524   3.24
C01V  1  0.86920  0.15232  0.81313 11.00000  0.09475   3.21
C01W  1  0.11453  0.50912  0.83217 11.00000  0.04354   3.15
HKLF 4
END
