TITL 17_a.res in P1
REM Old TITL 17 in P1
REM SHELXT solution in P1: R1 0.358, Rweak 0.517, Alpha 0.000
REM <I/s>   0.000 for    0 systematic absences,  Orientation as input
REM Flack x =  0.251 ( 0.617 ) from   131 Parsons' quotients
REM Formula found by SHELXT:  C16 N4 O21 Cl15

CELL  0.71073   4.8400  11.6500  19.8300   90.000   84.160   90.000
ZERR   15.000   0.0010   0.0023   0.0040    0.030    0.030    0.030
LATT -1
SFAC C N O CL
UNIT 15 15 15 15
L.S. 10
BOND
LIST 6
FMAP 2
PLAN 20
CL01  4  0.74150  0.96738  0.68817 11.00000  0.15677  17.08
CL02  4  0.66460  0.90555  0.72751 11.00000  0.16251  16.20
CL03  4  0.33244  1.02961  0.78761 11.00000  0.14552  15.85
CL04  4  1.07835  0.78101  0.80161 11.00000  0.16665  15.78
CL05  4  0.30946  0.67130  0.32304 11.00000  0.14950  15.28
CL06  4 -0.35238  0.14412  0.46654 11.00000  0.18956  14.96
CL07  4  0.25270  0.33861  0.61845 11.00000  0.17547  14.62
CL08  4 -0.20003  0.54993  0.01920 11.00000  0.13713  14.43
CL09  4  0.45363  0.76173  0.21507 11.00000  0.10565  13.63
CL0A  4  0.73702  0.10266  0.11831 11.00000  0.16258  13.54
O00B  3  1.51916  0.60731  0.91497 11.00000  0.12331  13.45
CL0C  4  0.16133  0.32247  0.14660 11.00000  0.16504  13.33
CL0D  4 -1.05169 -0.06022  0.41746 11.00000  0.14430  13.20
CL0E  4 -0.41340  0.07938  0.41353 11.00000  0.16012  13.02
O00F  3 -0.29908  1.18380  0.98080 11.00000  0.08190  12.34
O00G  3  0.01651  1.08398  0.90552 11.00000  0.11716  12.32
O00H  3  0.23334  0.56279  0.48103 11.00000  0.10964  12.27
CL0I  4  0.06112  0.26681  0.48977 11.00000  0.13509  11.65
O00J  3  0.91732  0.80023  0.76431 11.00000  0.12241  10.93
O00K  3  0.60594  0.62503  0.34186 11.00000  0.14459  10.91
O00L  3  0.34357  1.05333  0.85315 11.00000  0.10262  10.89
O00M  3 -0.32873  0.55541  0.10332 11.00000  0.11071  10.39
CL0N  4 -0.14702  0.90659  0.20475 11.00000  0.16851  10.06
O00O  3 -0.10601  0.44017  0.06641 11.00000  0.09586   9.68
O00P  3  0.57605  0.24466  0.21359 11.00000  0.13277   9.41
O00Q  3 -0.12166  1.16740  0.90037 11.00000  0.11653   9.24
O00R  3 -0.18514  0.51010  0.46260 11.00000  0.10480   9.09
O00S  3 -0.76000 -0.00137  0.48694 11.00000  0.11218   8.83
O00T  3  0.08698  0.30860  0.25040 11.00000  0.08335   8.40
O00U  3 -0.29189  1.29560  0.80301 11.00000  0.13369   8.39
O00V  3  2.37700  0.48113  0.81024 11.00000  0.09669   7.94
O00W  3  1.01444  0.83059  0.90771 11.00000  0.08016   7.77
O00X  3  0.03126  0.23617  0.60194 11.00000  0.11148   7.63
O00Y  3  2.11533  0.45815  0.76379 11.00000  0.09885   7.47
O00Z  3 -1.37700 -0.12707  0.46977 11.00000  0.12233   7.39
O010  3  1.03770 -0.18557  0.09266 11.00000  0.12490   7.29
N011  2  0.08395  0.46783  0.19104 11.00000  0.10420   7.16
N012  2  0.38464  0.45005  0.29607 11.00000  0.06097   7.13
N013  2  0.24446  0.71808  0.62142 11.00000  0.06963   6.53
C014  1  0.30749  0.96319  0.83325 11.00000  0.09098   6.39
C015  1  1.39540 -0.29560  0.04221 11.00000  0.09210   6.24
N016  2 -0.71766  0.02054  0.29430 11.00000  0.09108   5.94
C017  1  1.83003  0.55068  0.87182 11.00000  0.08840   5.88
C018  1  0.20153  0.53289  0.59516 11.00000  0.09861   5.45
C019  1  1.15796  0.72888  0.86217 11.00000  0.09687   5.39
C01A  1  0.48607  0.50563  0.55664 11.00000  0.09786   5.31
C01B  1  0.32293  0.67984  0.45297 11.00000  0.10970   5.26
C01C  1  0.34209  0.84224  0.64408 11.00000  0.09204   5.19
C01D  1  0.53065  0.18783  0.16587 11.00000  0.08707   5.01
C01E  1 -0.56306  1.29092  0.89818 11.00000  0.10605   5.01
C01F  1  0.37517  0.80105  0.71236 11.00000  0.09666   4.64
C01G  1  0.10987  0.68971  0.63519 11.00000  0.04675   4.47
C01H  1  0.34224  0.26121  0.11153 11.00000  0.07458   4.01
C01I  1  0.75517 -0.02684  0.05583 11.00000  0.10601   3.88
C01J  1  0.35428  0.59687  0.65749 11.00000  0.09530   3.12
C01K  1  0.11058  0.75058  0.23647 11.00000  0.11742   3.03
HKLF 4
END
