TITL 18_a.res in P1
REM Old TITL 18 in P1
REM SHELXT solution in P1: R1 0.372, Rweak 0.517, Alpha 0.000
REM <I/s>   0.000 for    0 systematic absences,  Orientation as input
REM Flack x = -9.990 ( 9.302 ) from   138 Parsons' quotients
REM Formula found by SHELXT:  C39 N10 O10

CELL  0.71073   4.8500  11.6400  19.7700   90.000   84.040   90.000
ZERR   15.000   0.0010   0.0023   0.0040    0.030    0.030    0.030
LATT -1
SFAC C N O CL
UNIT 15 15 15 15
L.S. 10
BOND
LIST 6
FMAP 2
PLAN 20
N001  2  1.10188  0.36949  0.85476 11.00000  0.09396  12.21
C002  1  1.00590  0.64688  0.61300 11.00000  0.10796  10.31
O003  3  1.30946  0.30833  0.81182 11.00000  0.10267   9.25
O004  3  1.15630  0.38318  0.76512 11.00000  0.08994   8.98
O005  3  0.21401  0.40503  0.26927 11.00000  0.16240   8.94
O006  3  0.64626  0.58218  0.69866 11.00000  0.16651   8.83
O007  3  0.01337  0.03865  0.39260 11.00000  0.14142   8.55
O008  3  0.56990  0.76276  0.37633 11.00000  0.14888   8.51
N009  2  0.67680  0.26041  0.64885 11.00000  0.10798   8.45
O00A  3  0.94566  0.36121  0.92080 11.00000  0.13868   7.65
O00B  3  0.88955  0.29765  0.70339 11.00000  0.14519   7.62
O00C  3  0.99067  0.64451  0.54209 11.00000  0.11723   7.44
N00D  2  0.88712  0.14652  0.61833 11.00000  0.16816   7.20
N00E  2  0.45751  0.60387  0.99272 11.00000  0.12522   7.13
N00F  2 -0.10947  0.26731  0.35146 11.00000  0.11757   7.09
C00G  1  0.82427  1.06371  0.83089 11.00000  0.11695   7.08
N00H  2  0.54816  0.14339  0.68259 11.00000  0.07816   6.84
N00I  2  0.95582  0.99426  0.83668 11.00000  0.10792   6.74
O00J  3  0.79341  0.75571  0.93589 11.00000  0.11766   6.63
N00K  2  0.95798  0.61388  0.35467 11.00000  0.12561   6.62
N00L  2  0.63486  1.14601  0.83184 11.00000  0.11550   6.50
C00M  1  0.19932  0.30124  0.52097 11.00000  0.12575   6.29
C00N  1  1.31487  0.26578  0.92689 11.00000  0.10463   6.28
C00O  1  0.72560  0.64222  0.46899 11.00000  0.18719   6.07
C00P  1 -0.12855  0.00292  0.19199 11.00000  0.13603   5.93
C00Q  1  0.14655  0.25437  0.46978 11.00000  0.14401   5.89
C00R  1  0.07344  0.11560  0.10112 11.00000  0.13049   5.87
C00S  1  0.72171  0.73846  0.88391 11.00000  0.11248   5.78
C00T  1  0.68983  0.13332  0.68203 11.00000  0.07922   5.69
C00U  1  0.37943  0.47163  0.17514 11.00000  0.13684   5.69
C00V  1  0.68680  0.58620  0.63375 11.00000  0.08215   5.63
C00W  1  0.93929 -0.00140  0.70870 11.00000  0.14226   5.41
C00X  1  0.44804  0.62533  0.81242 11.00000  0.11393   5.33
C00Y  1  0.00987 -0.02189  0.44433 11.00000  0.15484   5.24
C00Z  1 -0.10911  0.36787  0.44150 11.00000  0.11313   5.15
C010  1  0.57272  0.49104  0.52005 11.00000  0.12650   5.10
C011  1  0.59681  0.77109  0.25334 11.00000  0.10865   5.05
C012  1  0.58530  0.55875  0.95147 11.00000  0.10648   4.96
C013  1 -0.31487  0.03998  0.49397 11.00000  0.12782   4.74
C014  1  0.79125  0.73273  0.32857 11.00000  0.10722   4.72
C015  1  0.38338  0.81577  0.02925 11.00000  0.13254   4.70
C016  1  0.81333  0.47313  0.96932 11.00000  0.11084   4.66
C017  1  0.43429  0.83781  0.32956 11.00000  0.07943   4.38
C018  1  1.11449  0.61198  0.99218 11.00000  0.19370   4.37
C019  1  0.28966  0.44764  0.51558 11.00000  0.13649   4.27
C01A  1 -0.17147 -0.14601  0.60403 11.00000  0.09513   3.92
C01B  1  0.43365  0.88447  0.12056 11.00000  0.12760   3.89
C01C  1  0.31418  0.49096  0.48616 11.00000  0.13383   3.78
C01D  1  0.92557  0.76527  0.83628 11.00000  0.11730   3.76
C01E  1  1.05595  0.47576  1.00805 11.00000  0.11818   3.71
C01F  1  0.71671  0.95677  0.07441 11.00000  0.14585   3.60
C01G  1  0.52316  0.71478  0.75059 11.00000  0.18335   3.52
C01H  1  0.59251  0.77683  0.13351 11.00000  0.10979   3.50
C01I  1  0.16367  0.23477  0.15943 11.00000  0.11227   3.42
C01J  1  1.25629  0.87468  0.88655 11.00000  0.14892   3.36
C01K  1  0.81259  1.10062 -0.00805 11.00000  0.12762   3.35
N01L  2  0.11617  0.13338  0.26793 11.00000  0.17767   3.08
C01M  1 -0.00611 -0.07616  0.53202 11.00000  0.08911   3.07
C01N  1  0.36552  0.17576  0.41464 11.00000  0.12703   3.03
HKLF 4
END
