TITL 19_a.res in P1
REM Old TITL 19 in P1
REM SHELXT solution in P1: R1 0.351, Rweak 0.390, Alpha 0.000
REM <I/s>   0.000 for    0 systematic absences,  Orientation as input
REM Flack x = -0.899 ( 0.819 ) from    80 Parsons' quotients
REM Formula found by SHELXT:  C33 N11 O17 Cl3

CELL  0.71073   4.8700  11.8100  19.3900   90.000   83.630   90.000
ZERR   15.000   0.0010   0.0024   0.0039    0.030    0.030    0.030
LATT -1
SFAC C N O CL
UNIT 15 15 15 15
L.S. 10
BOND
LIST 6
FMAP 2
PLAN 20
CL01  4  0.35512  0.16216  0.74401 11.00000  0.18190  16.57
CL02  4 -0.59058  0.46458  0.95374 11.00000  0.23576  14.88
CL03  4  1.24818  0.65433  0.44759 11.00000  0.17081  14.84
O004  3  0.16672  0.27106  0.66007 11.00000  0.10954  12.03
C005  1  1.48498  0.52659  0.48724 11.00000  0.08887  11.99
O006  3  0.88358  0.73228  0.19202 11.00000  0.11060  11.81
O007  3  0.12780 -0.12239  0.75380 11.00000  0.13292  11.28
O008  3  1.37378  0.94597  0.33987 11.00000  0.13544  11.21
O009  3 -0.64602  0.49429  0.89558 11.00000  0.15865  10.99
O00A  3  0.26817  0.22040  0.60597 11.00000  0.09614  10.60
O00B  3  0.39198  0.15721  0.63175 11.00000  0.09305  10.46
O00C  3  1.52220  1.09520  0.40585 11.00000  0.10879   9.39
O00D  3 -0.62945  0.53582  1.01337 11.00000  0.14494   9.29
O00E  3 -0.73524  0.43636  0.83330 11.00000  0.11804   9.22
O00F  3  0.81882  0.65805  0.09854 11.00000  0.13982   8.82
N00G  2  0.26915 -0.27929  0.81346 11.00000  0.10138   8.46
C00H  1  0.95807  0.30764  0.52264 11.00000  0.10193   8.33
O00I  3  1.26929  0.47085  0.46921 11.00000  0.14509   8.18
O00J  3  0.00391  0.38390  0.76427 11.00000  0.15126   7.98
O00K  3  0.94495  1.34509  0.24976 11.00000  0.11165   7.84
O00L  3  0.80486  0.40121  0.47694 11.00000  0.16251   7.61
C00M  1  1.52320  0.95741  0.38080 11.00000  0.09584   7.39
N00N  2 -0.36984  0.35004  0.88718 11.00000  0.11227   7.37
O00O  3  1.20321  1.09634  0.00551 11.00000  0.10899   7.33
N00P  2  1.42144  0.89969 -0.01337 11.00000  0.06868   7.19
N00Q  2  1.50395  0.90837  0.03008 11.00000  0.07302   7.19
N00R  2 -0.08236 -0.22929  0.79258 11.00000  0.10538   7.10
N00S  2  1.00449  1.01526  0.07183 11.00000  0.07666   7.09
N00T  2 -0.09721 -0.03825  0.82964 11.00000  0.12324   6.92
N00U  2 -0.37664  0.42419  0.77558 11.00000  0.10288   6.74
N00V  2 -0.07821 -0.01630  0.89091 11.00000  0.11170   6.60
N00W  2  1.16174  0.82776  0.28093 11.00000  0.10246   6.53
C00X  1  0.07149 -0.20628  0.84860 11.00000  0.08450   6.47
C00Y  1  0.62595  1.20068  0.07587 11.00000  0.10319   6.35
C00Z  1  0.23841 -0.25388  0.68017 11.00000  0.07479   6.21
C010  1  0.72381  0.85502  0.56178 11.00000  0.08683   6.20
C011  1  1.36099  0.48743  0.54285 11.00000  0.12047   6.12
C012  1  0.87401  1.40694  0.22945 11.00000  0.15374   5.91
C013  1  1.16269  0.71672  0.39554 11.00000  0.10353   5.85
C014  1  1.11143  0.92754  0.04417 11.00000  0.08537   5.69
C015  1  0.49812 -0.02209  0.66582 11.00000  0.12821   5.56
C016  1  0.34978 -0.19664  0.72849 11.00000  0.09570   5.52
C017  1  1.73524  1.04810  0.33958 11.00000  0.11334   5.52
C018  1  1.00684  1.12875  0.22432 11.00000  0.08492   5.41
C019  1  0.49594  0.19665  0.52728 11.00000  0.10156   5.21
O01A  3  1.24541  0.56614  0.17793 11.00000  0.10185   5.12
C01B  1 -0.10899 -0.29205  0.88346 11.00000  0.11644   5.06
C01C  1  0.58508  0.75380  0.50832 11.00000  0.14103   4.93
C01D  1  0.86362  0.98815  0.10004 11.00000  0.08920   4.91
C01E  1  1.33137  0.61468  0.21989 11.00000  0.07593   4.88
N01F  2  0.90169  0.94020  0.56570 11.00000  0.15460   4.74
C01G  1 -0.12931 -0.40694  0.68493 11.00000  0.08280   4.65
C01H  1  0.90009  1.28932  0.09917 11.00000  0.13624   4.62
C01I  1  1.13336  0.34118  0.50826 11.00000  0.10123   4.37
C01J  1  1.60089  0.60231  0.32298 11.00000  0.08986   4.08
C01K  1  1.10011  0.65668  0.26397 11.00000  0.14901   4.03
C01L  1  0.88543  0.85005  0.36129 11.00000  0.07854   4.02
C01M  1 -0.11011  0.23447  0.95303 11.00000  0.09490   3.99
C01N  1  1.21596  1.05070  0.29691 11.00000  0.07898   3.94
C01O  1  0.90315  1.14000  0.17668 11.00000  0.11932   3.76
C01P  1  0.85439  0.25611  0.52016 11.00000  0.11328   3.19
C01Q  1  0.11192  0.04905  0.84427 11.00000  0.08332   3.05
C01R  1  1.02555  1.26617  0.34244 11.00000  0.12196   3.05
C01S  1  0.85061  0.84721  0.46642 11.00000  0.08883   3.04
HKLF 4
END
