TITL 1_a.res in P1
REM Old TITL 1 in P1
REM SHELXT solution in P1: R1 0.301, Rweak 0.305, Alpha 0.000
REM <I/s>   0.000 for    0 systematic absences,  Orientation as input
REM Flack x =  0.192 ( 0.675 ) from    41 Parsons' quotients
REM Formula found by SHELXT:  C24 N5 O17 Cl7

CELL  0.71073   4.7900  11.9600  19.0000   90.000   83.350   90.000
ZERR   14.000   0.0010   0.0024   0.0038    0.030    0.030    0.030
LATT -1
SFAC C N O CL
UNIT 14 14 14 14
L.S. 10
BOND
LIST 6
FMAP 2
PLAN 20
CL01  4  0.02575  0.33627  0.57484 11.00000  0.09058  19.99
CL02  4 -0.03001  0.37564  0.66436 11.00000  0.10270  19.26
CL03  4  1.39476  0.59418  0.23066 11.00000  0.12728  14.83
CL04  4  0.14312  0.27493  0.91081 11.00000  0.11775  14.81
CL05  4 -0.14540  0.21468  0.99348 11.00000  0.16293  14.33
C006  1  0.53946  0.77164  0.44498 11.00000  0.05648  12.40
CL07  4 -0.51616  0.25961  0.77146 11.00000  0.11152  12.37
O008  3 -0.28525  0.28745  0.69746 11.00000  0.04682  10.44
CL09  4 -0.34327 -0.03451  1.03634 11.00000  0.16485  10.01
O00A  3  1.00113  0.44343  0.24440 11.00000  0.06919   9.54
O00B  3  1.22680  0.05215  0.17980 11.00000  0.07001   9.36
O00C  3  0.55494  1.12293  0.59795 11.00000  0.16947   9.10
O00D  3  1.07810  0.67987 -0.03634 11.00000  0.07387   8.86
O00E  3 -0.85241  0.86871  0.80844 11.00000  0.10751   8.70
O00F  3  0.37965  0.36863  0.46963 11.00000  0.07143   8.68
O00G  3 -0.41439  0.79258  0.75448 11.00000  0.08755   8.42
O00H  3  1.24623  0.24528  0.18482 11.00000  0.03243   8.35
O00I  3  0.34888  0.50899  0.57434 11.00000  0.05207   8.07
C00J  1  1.17799  0.56088  0.30924 11.00000  0.02714   7.75
O00K  3  0.55777  0.66491  0.38712 11.00000  0.04058   7.64
O00L  3 -0.76987  1.08678  0.74059 11.00000  0.06198   7.57
C00M  1  1.61341  0.54099  0.08219 11.00000  0.07161   7.47
O00N  3  0.83153  0.81863  0.51100 11.00000  0.09896   7.45
O00O  3  0.17202  0.70971  0.58210 11.00000  0.05010   7.43
N00P  2 -0.51469  0.48168  0.74364 11.00000  0.07157   7.09
C00Q  1  1.28842  0.14944  0.24077 11.00000  0.05451   7.03
N00R  2  1.24683  0.16729  0.27556 11.00000  0.01906   6.92
N00S  2 -0.25241  0.56429  0.83086 11.00000  0.06898   6.84
C00T  1  1.53325  0.26635  0.10826 11.00000  0.05911   6.44
N00U  2  1.18116 -0.12293  0.24454 11.00000  0.08511   6.10
C00V  1  0.64469  0.38773  0.39346 11.00000  0.04814   6.02
C00W  1 -0.81476  0.60609  0.76511 11.00000  0.03686   5.95
O00X  3  1.72362  0.51520  0.00443 11.00000  0.05421   5.86
N00Y  2  0.65059  0.96013  0.51966 11.00000  0.05059   5.76
C00Z  1  0.38491  0.64299  0.61325 11.00000  0.04392   5.76
C010  1  1.21859  0.22317  0.37454 11.00000  0.04438   5.49
C011  1 -0.19059  0.72779  0.67895 11.00000  0.04850   5.38
C012  1  0.52978  0.04952  0.36642 11.00000  0.04192   5.06
O013  3  1.63421  0.72955  0.13950 11.00000  0.05351   4.99
C014  1 -0.58087  0.70567  0.84088 11.00000  0.06029   4.97
C015  1  0.94315  0.09347  0.33009 11.00000  0.04698   4.88
C016  1 -0.76851  0.93014  0.75722 11.00000  0.03045   4.79
C017  1 -0.55568  1.01776  0.76189 11.00000  0.02247   4.74
C018  1  1.00265  0.29654  0.32137 11.00000  0.03448   4.71
C019  1  1.36109  0.66557 -0.02250 11.00000  0.07938   4.44
C01A  1  1.85241  0.60802  0.12093 11.00000  0.01864   4.17
O01B  3 -0.29231  0.35213  0.88993 11.00000  0.08336   3.73
C01C  1  0.75946  0.53312  0.42894 11.00000  0.03658   3.64
C01D  1 -0.06131 -0.00137  0.93518 11.00000  0.03136   3.64
C01E  1  0.89223  0.53761  0.40025 11.00000  0.10259   3.51
C01F  1  0.74841  0.58846  0.42888 11.00000  0.07889   3.50
C01G  1 -0.45543  0.45488  0.88038 11.00000  0.03715   3.42
C01H  1  0.19574  0.44873  0.47638 11.00000  0.05005   3.25
HKLF 4
END
