TITL 21_a.res in P1
REM Old TITL 21 in P1
REM SHELXT solution in P1: R1 0.355, Rweak 0.433, Alpha 0.000
REM <I/s>   0.000 for    0 systematic absences,  Orientation as input
REM Flack x =  0.268 ( 0.311 ) from   127 Parsons' quotients
REM Formula found by SHELXT:  C34 N10 O22 Cl8

CELL  0.71073   4.8400  11.6700  19.4900   90.000   83.580   90.000
ZERR   15.000   0.0010   0.0023   0.0039    0.030    0.030    0.030
LATT -1
SFAC C N O CL
UNIT 15 15 15 15
L.S. 10
BOND
LIST 6
FMAP 2
PLAN 20
CL01  4  0.01718  0.20999  0.31472 11.00000  0.16424  15.77
CL02  4  0.94437  0.91177  0.47393 11.00000  0.15077  15.16
CL03  4  1.05789  0.82686  0.44513 11.00000  0.14621  14.26
CL04  4  0.51846  0.58382  0.20632 11.00000  0.14964  13.59
CL05  4  0.33034  0.37066  0.36112 11.00000  0.16064  12.59
CL06  4  0.39357  0.40249  0.43467 11.00000  0.12371  12.55
CL07  4  0.42993  0.16203  0.80042 11.00000  0.24388  12.51
O008  3 -0.14355  0.07512  0.22486 11.00000  0.08219  12.29
N009  2  0.91354  0.72946  0.08860 11.00000  0.09849  11.45
O00A  3  0.06853  0.20292  0.18454 11.00000  0.09053  11.44
O00B  3  0.10891  0.62299  0.69191 11.00000  0.07639  11.15
O00C  3  0.84721  0.95893  0.55074 11.00000  0.09389  11.05
C00D  1  1.02267  0.69993  0.00003 11.00000  0.07508  11.01
CL0E  4  1.34814  1.06670  0.64913 11.00000  0.17953  10.71
O00F  3  1.20859  0.86021  0.39149 11.00000  0.05695  10.27
N00G  2  1.05537  0.71257  0.05891 11.00000  0.10934  10.24
O00H  3 -0.20135  0.36277  0.09483 11.00000  0.10608  10.11
O00I  3  0.79836  0.32444  0.64772 11.00000  0.06293   9.93
O00J  3 -0.49894  0.10200  0.38745 11.00000  0.09249   9.64
O00K  3  0.65821  0.46749  0.30151 11.00000  0.10185   9.51
O00L  3  0.91472  0.76304  0.22037 11.00000  0.07011   9.27
C00M  1  0.79712  0.05072  0.78692 11.00000  0.05291   8.95
C00N  1  0.37335  0.52978  0.24971 11.00000  0.05262   8.84
O00O  3  0.92138  0.66585 -0.01760 11.00000  0.09321   8.83
O00P  3  0.90319  0.37707  0.94663 11.00000  0.08938   8.75
N00Q  2  0.46246  0.44780  0.37149 11.00000  0.06686   8.48
C00R  1 -0.13813  0.30913  0.14306 11.00000  0.05602   8.33
C00S  1  0.58218 -0.07762  0.90675 11.00000  0.09743   8.33
O00T  3  0.26070 -0.00876  0.11988 11.00000  0.10149   8.27
O00U  3  0.24756  0.14907  0.11494 11.00000  0.09596   8.20
N00V  2  0.66252  0.66547  0.26943 11.00000  0.12660   8.19
O00W  3  0.12297  0.27994  0.36946 11.00000  0.10807   8.11
N00X  2  0.23631  0.44260  0.31610 11.00000  0.05981   7.87
O00Y  3  0.15024  0.23161  0.23210 11.00000  0.06617   7.77
O00Z  3  0.85951  0.58307  0.30179 11.00000  0.12268   7.72
O010  3  0.68043 -0.14495  0.86750 11.00000  0.06542   7.34
C011  1  1.27885  0.72460  0.31588 11.00000  0.06354   7.28
O012  3  0.29479  0.45419  0.78699 11.00000  0.08637   7.25
N013  2  0.54751  0.48153  1.01075 11.00000  0.05017   7.22
N014  2  1.06709  0.19957  0.72377 11.00000  0.04739   6.98
N015  2  0.98173  0.74662  0.38953 11.00000  0.11073   6.82
C016  1  0.97063  0.70004  0.15352 11.00000  0.10369   6.79
N017  2  0.82960 -0.07479  0.99781 11.00000  0.07459   6.71
N018  2  1.17154  0.68181  0.45196 11.00000  0.08560   6.65
C019  1  0.99174 -0.01946  0.73140 11.00000  0.06579   6.49
C01A  1  0.48227 -0.13173  0.15236 11.00000  0.09653   6.46
C01B  1  1.16077  0.97374  0.55999 11.00000  0.04858   6.23
C01C  1  0.70712  0.48850  0.70231 11.00000  0.10940   6.08
C01D  1  0.98025  0.59263  0.53168 11.00000  0.07918   6.06
C01E  1  0.31839  0.51723  0.35363 11.00000  0.08697   5.95
C01F  1 -0.44859  0.10627  0.30940 11.00000  0.09065   5.82
C01G  1  0.72175  0.98960  0.49082 11.00000  0.19843   5.64
C01H  1  0.50642  0.45973  0.14094 11.00000  0.11236   5.59
C01I  1  1.27023  0.68094  0.15780 11.00000  0.15340   5.54
C01J  1  0.44817 -0.02977  0.97206 11.00000  0.04783   5.34
C01K  1  0.47151  0.52978  0.93428 11.00000  0.08248   5.31
O01L  3  0.80328  0.24450  0.85400 11.00000  0.08135   5.17
C01M  1  0.97092  0.24416  0.86331 11.00000  0.06657   5.15
O01N  3  0.56205  0.00659  0.82523 11.00000  0.09375   5.02
C01O  1  0.32616 -0.09167  0.21218 11.00000  0.15669   5.00
C01P  1  0.50546  0.53193  0.70504 11.00000  0.05939   4.96
C01Q  1  0.82860  0.36709  0.74755 11.00000  0.05958   4.89
O01R  3  1.06676  0.81446  0.27123 11.00000  0.13368   4.87
C01S  1  0.57692  0.58395  0.67610 11.00000  0.06432   4.53
C01T  1  0.44777 -0.06757  0.12359 11.00000  0.07001   4.38
C01U  1  1.49894  0.81046  0.26984 11.00000  0.08151   4.10
C01V  1  0.20344  0.29947  1.01760 11.00000  0.06928   4.07
C01W  1  1.00493  1.14495  0.58432 11.00000  0.05073   3.87
C01X  1  0.46538  0.41269  0.97319 11.00000  0.10609   3.50
C01Y  1  0.37544 -0.10105  0.94952 11.00000  0.06625   3.23
C01Z  1  0.82557  0.46898  0.58580 11.00000  0.09033   3.18
C020  1  0.94406  0.57995  0.22455 11.00000  0.06839   3.12
C021  1  0.70583  0.34140  0.75821 11.00000  0.09512   3.03
C022  1  0.56541  0.06961  0.15370 11.00000  0.09662   3.01
HKLF 4
END
