TITL 22_a.res in P1
REM Old TITL 22 in P1
REM SHELXT solution in P1: R1 0.344, Rweak 0.422, Alpha 0.000
REM <I/s>   0.000 for    0 systematic absences,  Orientation as input
REM Flack x =  0.018 ( 0.301 ) from   136 Parsons' quotients
REM Formula found by SHELXT:  C37 N14 O19 Cl9

CELL  0.71073   4.8400  11.6600  19.5500   90.000   83.600   90.000
ZERR   15.000   0.0010   0.0023   0.0039    0.030    0.030    0.030
LATT -1
SFAC C N O CL
UNIT 15 15 15 15
L.S. 10
BOND
LIST 6
FMAP 2
PLAN 20
CL01  4  1.62067  1.10502  0.33050 11.00000  0.15721  17.14
CL02  4 -0.17735  0.36161  0.58393 11.00000  0.13040  16.53
CL03  4  0.34769  0.55111  0.75739 11.00000  0.18104  14.60
CL04  4 -0.59829  0.15108  0.62926 11.00000  0.17425  13.32
CL05  4 -0.29348 -0.12058  0.58192 11.00000  0.11550  13.08
CL06  4  1.63961  1.09841  0.38871 11.00000  0.20310  12.93
CL07  4  1.39535  0.55343  0.36804 11.00000  0.21429  12.45
O008  3 -0.18126 -0.06684  0.63412 11.00000  0.06409  12.34
O009  3  0.99710  0.82312  0.13457 11.00000  0.05605  12.20
N00A  2  0.46457  0.57620  0.80537 11.00000  0.09303  11.57
O00B  3 -0.49015 -0.15748  0.62498 11.00000  0.06373  11.39
O00C  3  0.22685  0.60757  0.70206 11.00000  0.09966  11.35
O00D  3  0.09288  0.34616  0.49635 11.00000  0.06722  11.29
O00E  3  0.65219  0.77870  0.25121 11.00000  0.06317  11.02
CL0F  4  0.12555  1.12235 -0.18176 11.00000  0.14189  10.90
O00G  3  1.37190  1.00592  0.43148 11.00000  0.07163  10.89
N00H  2  0.78353  0.67700  0.50098 11.00000  0.07469  10.36
C00I  1  0.91547  0.73346  0.46718 11.00000  0.01368  10.19
CL0J  4  0.49466  0.46167  0.48687 11.00000  0.20324   9.71
C00K  1 -0.06244  0.41525  0.61578 11.00000  0.04285   8.66
O00L  3  0.15548  0.32068  1.18176 11.00000  0.13011   8.61
C00M  1  0.26799  0.19062  1.16013 11.00000  0.12028   8.31
N00N  2  0.62362  0.62305  0.56517 11.00000  0.06004   8.21
O00O  3  1.11934  0.62406  0.36187 11.00000  0.05764   8.13
O00P  3 -0.09447  0.39509  0.75055 11.00000  0.09291   8.05
O00Q  3  0.45108  0.57869  0.85738 11.00000  0.14569   7.93
O00R  3 -0.18398  0.35400  1.01626 11.00000  0.12122   7.86
O00S  3  0.42085  0.70365  0.87849 11.00000  0.13091   7.74
O00T  3 -0.11544  0.34163  0.86147 11.00000  0.10956   7.62
O00U  3  0.24107  0.64785  0.82410 11.00000  0.10189   7.58
O00V  3 -0.00429  0.41603  1.12818 11.00000  0.12244   7.55
C00W  1  0.01778  0.51874  1.09900 11.00000  0.07675   7.51
N00X  2 -0.22773  0.35192  0.68504 11.00000  0.06627   7.41
N00Y  2  0.76328  0.87072  0.06695 11.00000  0.08217   7.29
N00Z  2 -0.92856  0.20328  0.68568 11.00000  0.09819   7.18
N010  2  0.29536  0.73417  1.01881 11.00000  0.14453   7.01
C011  1 -0.57067  0.19762  0.66798 11.00000  0.06694   6.94
N012  2 -0.34967 -0.13809  0.75853 11.00000  0.09116   6.91
N013  2 -0.50296 -0.03601  0.79884 11.00000  0.08703   6.87
N014  2 -0.11599  0.42949  0.31449 11.00000  0.08925   6.82
N015  2 -0.68059  0.03860  0.59067 11.00000  0.05464   6.78
N016  2 -0.60807 -0.06944  0.65716 11.00000  0.09831   6.71
N017  2 -0.00370 -0.23566  0.65043 11.00000  0.06966   6.54
C018  1  1.18971  0.87233  0.32511 11.00000  0.07953   6.45
C019  1  1.92856  1.15989  0.26136 11.00000  0.06180   6.36
C01A  1  1.36187  0.98072  0.34795 11.00000  0.07059   6.26
O01B  3  0.00740  0.44262  0.94551 11.00000  0.09914   6.25
C01C  1 -0.13705  1.07344 -0.10099 11.00000  0.11439   6.23
C01D  1 -0.02011  0.45725  0.67407 11.00000  0.08835   5.92
C01E  1  0.77201  0.62577  0.49729 11.00000  0.15034   5.91
C01F  1 -0.44290 -0.02410  0.71281 11.00000  0.05486   5.83
C01G  1 -0.37515  0.29864  0.96474 11.00000  0.08731   5.59
C01H  1  0.87104  0.69918  0.35361 11.00000  0.13428   5.57
C01I  1  0.98639  0.68494  0.18814 11.00000  0.10225   5.55
C01J  1 -0.15257 -0.16733  0.73375 11.00000  0.07948   5.52
C01K  1  0.53054  1.04509  0.09428 11.00000  0.07762   5.31
C01L  1 -0.23385  0.37852  0.78870 11.00000  0.08011   5.13
C01M  1 -0.57998  0.17511  0.52367 11.00000  0.08680   4.98
C01N  1 -0.10553  0.61022  1.01317 11.00000  0.07038   4.98
C01O  1 -0.05964  1.04921 -0.03232 11.00000  0.07144   4.91
C01P  1 -0.26918  1.03209 -0.06308 11.00000  0.06517   4.90
C01Q  1  0.14037  0.31500  0.38075 11.00000  0.07111   4.86
C01R  1 -0.45650  0.23366  0.73585 11.00000  0.06716   4.62
C01S  1  0.90851  0.89284  0.23602 11.00000  0.10568   4.62
C01T  1  0.21068  1.07765 -0.00362 11.00000  0.06167   4.60
C01U  1  1.09937  0.93615  0.41646 11.00000  0.06860   4.55
C01V  1  1.10947  0.83535  0.42541 11.00000  0.08326   4.50
C01W  1  0.28611  0.55953  0.60897 11.00000  0.08501   4.38
C01X  1  0.11231  0.69079  0.93134 11.00000  0.07000   4.31
O01Y  3  0.38337  0.26744  1.09631 11.00000  0.10353   3.94
C01Z  1  0.05311  0.68115  1.03810 11.00000  0.13098   3.87
N020  2  0.32765  1.12140  0.01492 11.00000  0.10885   3.67
C021  1  1.03547  0.81672  0.41215 11.00000  0.09376   3.59
C022  1  0.40561  0.66174  0.21241 11.00000  0.09984   3.43
C023  1  1.77729  1.23566  0.30123 11.00000  0.07843   3.32
C024  1  0.86206  0.93052  0.35809 11.00000  0.17161   3.24
C025  1  0.26388  0.24127  0.33255 11.00000  0.08770   3.23
C026  1 -0.05059  0.51042  0.92582 11.00000  0.06658   3.19
O027  3 -0.34610  0.20729  0.75929 11.00000  0.13169   3.05
HKLF 4
END
