TITL 23_a.res in P1
REM Old TITL 23 in P1
REM SHELXT solution in P1: R1 0.357, Rweak 0.438, Alpha 0.000
REM <I/s>   0.000 for    0 systematic absences,  Orientation as input
REM Flack x =  0.339 ( 0.410 ) from   155 Parsons' quotients
REM Formula found by SHELXT:  C28 N11 O20 Cl10

CELL  0.71073   4.8500  11.6600  19.7100   90.000   83.790   90.000
ZERR   15.000   0.0010   0.0023   0.0039    0.030    0.030    0.030
LATT -1
SFAC C N O CL
UNIT 15 15 15 15
L.S. 10
BOND
LIST 6
FMAP 2
PLAN 20
CL01  4  2.07791  0.79612  0.16228 11.00000  0.11502  16.87
CL02  4  1.93600  0.77160  0.19172 11.00000  0.11768  15.69
CL03  4  0.78808  0.02766  0.59966 11.00000  0.13145  15.06
CL04  4  2.07899  0.81033  0.25823 11.00000  0.14050  14.94
O005  3 -0.75725  0.99325  0.83407 11.00000  0.07627  14.84
CL06  4  0.30894  0.28568  0.70094 11.00000  0.10808  14.44
C007  1 -0.48951  0.74282  0.81480 11.00000  0.08223  13.57
CL08  4  1.76613  0.48618  0.24316 11.00000  0.18322  13.57
CL09  4 -0.88186  1.02445  0.81783 11.00000  0.12899  12.75
CL0A  4  2.13273  0.18662  0.16328 11.00000  0.16996  12.22
N00B  2  2.25254  0.86666  0.20924 11.00000  0.07382  11.48
CL0C  4  1.83307  0.05128  0.04205 11.00000  0.14279  10.90
O00D  3  1.71540 -0.01663  0.02215 11.00000  0.07594  10.59
O00E  3 -0.01423  0.40166  0.97785 11.00000  0.10151  10.15
CL0F  4  1.62093  0.32287  0.12862 11.00000  0.19255   9.57
O00G  3  0.44580  0.19047  0.74543 11.00000  0.09287   9.56
C00H  1  0.12323  0.38499  0.91333 11.00000  0.09156   9.56
O00I  3  1.48475  0.24066  0.06468 11.00000  0.06620   9.09
O00J  3  1.54696  0.58282  0.18650 11.00000  0.07841   8.89
O00K  3 -0.43676  0.75931  0.74523 11.00000  0.09616   8.73
O00L  3  0.88614  0.67791  0.45905 11.00000  0.05764   8.55
O00M  3 -0.34687  0.53711  0.82871 11.00000  0.07181   8.42
O00N  3  1.69213  0.07079  0.46539 11.00000  0.04935   8.29
O00O  3  1.82173  0.47495  0.51447 11.00000  0.08756   8.09
O00P  3  1.22001  0.59451  0.39757 11.00000  0.08491   8.06
O00Q  3  1.83472  0.39629  0.32904 11.00000  0.05994   8.04
O00R  3  1.54825  0.51052  0.44572 11.00000  0.07479   7.98
O00S  3  1.53170  0.54844  0.27445 11.00000  0.06502   7.95
O00T  3  1.96263  0.74747  0.30016 11.00000  0.13476   7.94
O00U  3  2.29971  0.87686  0.11382 11.00000  0.10426   7.93
N00V  2  0.30483  0.64633  0.67633 11.00000  0.08763   7.81
O00W  3  1.79290  0.63240  0.22147 11.00000  0.09441   7.69
O00X  3  2.17109  0.30118  0.24703 11.00000  0.08975   7.66
N00Y  2  1.39550 -0.06157  0.41209 11.00000  0.10232   7.11
N00Z  2  1.82572  0.16040  0.41617 11.00000  0.08171   7.05
N010  2  1.69094  0.12244  0.10302 11.00000  0.08253   6.85
N011  2  2.13206  0.41519  0.44917 11.00000  0.11096   6.82
O012  3  0.78431 -0.12031  0.64717 11.00000  0.10718   6.82
C013  1  0.91041 -0.07193  0.61835 11.00000  0.06938   6.82
N014  2  1.60953  0.00483  0.31470 11.00000  0.07130   6.80
N015  2  1.34335  0.66075  0.15520 11.00000  0.06811   6.66
C016  1  0.97891 -0.10386  0.48676 11.00000  0.05877   6.35
C017  1  0.23834  0.59995  0.74222 11.00000  0.06990   6.31
C018  1  0.00660  0.38881  0.66971 11.00000  0.06173   6.30
C019  1  0.27460  0.26884  0.76323 11.00000  0.04954   6.23
C01A  1 -0.04461  0.65237  0.72703 11.00000  0.05053   6.19
C01B  1 -1.29971  1.13721  0.88879 11.00000  0.05847   6.10
N01C  2  0.27061  0.49764  0.56709 11.00000  0.08333   5.94
C01D  1 -0.10798  0.68716  0.87354 11.00000  0.06652   5.78
C01E  1  0.09549  0.56747  0.68988 11.00000  0.08568   5.78
C01F  1  1.92896  0.17996  0.36366 11.00000  0.06736   5.77
C01G  1 -0.08326  0.42069  0.74845 11.00000  0.04812   5.30
C01H  1  1.78690  0.24194  0.23228 11.00000  0.07155   5.29
C01I  1  1.01289  0.17472  0.71962 11.00000  0.06142   5.05
C01J  1  0.17701  0.52842  0.61250 11.00000  0.05055   5.04
C01K  1  1.70920  0.09021  0.38059 11.00000  0.05132   4.95
C01L  1  0.24274  0.28402  0.88018 11.00000  0.07100   4.89
C01M  1  0.37974  0.37436  0.96541 11.00000  0.09342   4.69
C01N  1 -0.42199  0.49421  0.76870 11.00000  0.04550   4.59
C01O  1  1.87438  0.11708  0.24265 11.00000  0.09209   4.05
C01P  1  1.26351 -0.03007  0.55048 11.00000  0.10539   3.99
C01Q  1  2.19070  0.24947  0.33337 11.00000  0.08957   3.88
C01R  1  0.16762  0.69863  0.94814 11.00000  0.07037   3.74
C01S  1  1.24607  0.63852  0.27546 11.00000  0.06081   3.69
C01T  1 -0.85372  0.83091  0.75762 11.00000  0.12288   3.61
N01U  2  0.16972  0.25269  0.55617 11.00000  0.08034   3.49
N01V  2  1.57182  0.01579  0.37411 11.00000  0.11486   3.33
C01W  1  1.06284 -0.13721  0.54596 11.00000  0.05638   3.26
C01X  1  0.66270  0.13870  0.69492 11.00000  0.05984   3.07
HKLF 4
END
