TITL 24_a.res in P1
REM Old TITL 24 in P1
REM SHELXT solution in P1: R1 0.354, Rweak 0.521, Alpha 0.000
REM <I/s>   0.000 for    0 systematic absences,  Orientation as input
REM Flack x =  0.007 ( 0.482 ) from   169 Parsons' quotients
REM Formula found by SHELXT:  C29 N8 O24 Cl6

CELL  0.71073   4.8500  11.6600  19.7300   90.000   83.760   90.000
ZERR   15.000   0.0010   0.0023   0.0039    0.030    0.030    0.030
LATT -1
SFAC C N O CL
UNIT 15 15 15 15
L.S. 10
BOND
LIST 6
FMAP 2
PLAN 20
CL01  4  0.10718  0.85130  0.37981 11.00000  0.11406  22.04
CL02  4  0.01830  0.87791  0.46597 11.00000  0.15487  16.09
CL03  4  0.69038  0.23766  0.13257 11.00000  0.13835  15.51
CL04  4  0.46241  0.64597  0.19441 11.00000  0.16589  13.38
O005  3  0.48195  0.00031  0.36198 11.00000  0.08300  11.57
CL06  4  0.37827  0.36528  0.10960 11.00000  0.20543  11.22
O007  3  0.76200  0.93571  0.85394 11.00000  0.09257  11.08
O008  3  1.13383  0.33025  0.66589 11.00000  0.10651  10.92
CL09  4  0.84580  0.58015  0.98027 11.00000  0.28591  10.33
O00A  3  0.56482  0.48989  0.88952 11.00000  0.07524   9.96
O00B  3  0.32270  0.40491  0.96850 11.00000  0.07293   9.50
O00C  3  0.29526  0.18998  0.75101 11.00000  0.10961   9.33
O00D  3  1.09371  0.64981  0.64708 11.00000  0.10049   9.12
O00E  3  0.28747 -0.02406  0.04490 11.00000  0.10237   8.73
O00F  3  0.52293  0.72098  0.31465 11.00000  0.06807   8.53
O00G  3  1.35072  0.10921  0.24721 11.00000  0.06173   8.52
O00H  3 -0.19992  0.80363  0.51074 11.00000  0.09084   8.49
O00I  3  0.66481  0.13457  0.78108 11.00000  0.09054   8.44
O00J  3  0.74092  0.19871  0.52520 11.00000  0.10867   8.35
O00K  3  0.87490 -0.00583  0.58920 11.00000  0.10361   8.33
O00L  3  0.59253  0.51079  0.47046 11.00000  0.10468   8.03
O00M  3  1.38477  0.75630  0.66350 11.00000  0.08318   7.95
N00N  2  0.48234  0.39546  0.91871 11.00000  0.08480   7.81
O00O  3  1.24455  0.80064  0.72130 11.00000  0.09114   7.63
O00P  3  0.59560  0.70582  0.78210 11.00000  0.11909   7.63
O00Q  3  0.38565  0.47220  0.87555 11.00000  0.08477   7.55
O00R  3  0.08157  0.08234  0.13607 11.00000  0.06406   7.54
O00S  3  0.52142  0.08525  0.62231 11.00000  0.09154   7.31
N00T  2  0.05730  0.89445  0.94211 11.00000  0.07413   7.11
N00U  2  0.24731  0.15160  0.64193 11.00000  0.07729   6.90
N00V  2  0.87337  0.27691  0.30162 11.00000  0.08255   6.86
N00W  2  0.32106  1.02406  0.88604 11.00000  0.15612   6.78
N00X  2  0.03752  0.80403  0.98919 11.00000  0.11669   6.68
C00Y  1  0.19638  0.76799  0.51793 11.00000  0.06128   6.61
N00Z  2  1.11415  0.86891  0.77232 11.00000  0.08292   6.59
C010  1  0.84218  0.46096  0.29639 11.00000  0.08404   6.57
N011  2  0.54831  0.11283  0.51339 11.00000  0.09176   6.53
C012  1  1.31772  0.28703  0.29818 11.00000  0.08942   6.34
C013  1  0.98014  0.42654  0.26629 11.00000  0.07436   5.97
C014  1  0.50922  0.15241  0.36896 11.00000  0.05615   5.89
C015  1  0.91638  0.28252  0.61737 11.00000  0.10844   5.82
C016  1  0.83425  0.65840  0.71389 11.00000  0.13869   5.58
C017  1  1.01392  0.18663  0.54671 11.00000  0.06125   5.33
C018  1  0.57511  0.41364  0.57421 11.00000  0.17863   5.11
C019  1  0.21096  0.63127  0.13665 11.00000  0.08975   4.98
C01A  1 -0.38477  0.75230  0.45494 11.00000  0.09183   4.97
C01B  1  1.03941  0.48293  0.23842 11.00000  0.10340   4.97
C01C  1  0.24506  0.76168  0.40640 11.00000  0.06416   4.95
C01D  1  0.33574  0.51972  0.09791 11.00000  0.08060   4.92
C01E  1  0.60485  0.33154  0.49691 11.00000  0.09073   4.88
C01F  1  0.88917  0.56754  0.50341 11.00000  0.11507   4.82
C01G  1  0.66490  0.66151  0.27275 11.00000  0.04827   4.76
C01H  1  0.50913  0.00159  0.11805 11.00000  0.18138   4.73
O01I  3  0.85617  0.54182  0.66931 11.00000  0.14421   4.63
O01J  3  0.88923  0.49236  0.35477 11.00000  0.12623   4.63
C01K  1  0.28521  0.25523  0.87374 11.00000  0.06203   4.55
O01L  3  0.27871  0.79198  0.55022 11.00000  0.06770   4.44
C01M  1  0.05549  0.73927  0.87216 11.00000  0.09293   4.37
C01N  1  0.72822  0.61134  0.21631 11.00000  0.14054   4.34
C01O  1  0.57590  0.14437  0.05560 11.00000  0.06547   4.31
C01P  1  0.69191  0.39503  0.41729 11.00000  0.06144   4.27
C01Q  1  0.53652  0.12137  0.43305 11.00000  0.09057   4.09
C01R  1  0.70478  0.88979  0.78235 11.00000  0.07835   3.98
C01S  1  0.56626  0.30733  0.65308 11.00000  0.11555   3.37
C01T  1  0.99916  0.20029  0.35617 11.00000  0.07552   3.23
C01U  1  0.77012  0.19866  0.01081 11.00000  0.06985   3.17
C01V  1  0.67440  0.42170  0.67548 11.00000  0.06677   3.12
HKLF 4
END
