TITL 25_a.res in P1
REM Old TITL 25 in P-1
REM SHELXT solution in P1: R1 0.421, Rweak 0.073, Alpha 0.000
REM <I/s>   0.000 for    0 systematic absences,  Orientation as input
REM Flack x = -9.990 ( 9.990 ) from    52 Parsons' quotients
REM Formula found by SHELXT:  C28 N14 O2

CELL  0.71073   4.8400  12.1800  19.6660   90.000   96.902   90.000
ZERR   15.000   0.0010   0.0024   0.0039    0.030    0.030    0.030
LATT -1
SFAC C N O CL
UNIT 15 15 15 15
L.S. 10
BOND
LIST 6
FMAP 2
PLAN 20
N001  2  0.00718  1.09996  0.27069 11.00000  0.03106  11.26
O002  3  0.85485  0.46576  0.49481 11.00000  0.09112  11.18
O003  3  1.12424  0.58918  0.47064 11.00000  0.08336  10.25
N004  2 -0.06099  1.26461  0.25693 11.00000  0.09291   9.92
N005  2 -0.22291  1.15111  0.28481 11.00000  0.04863   9.16
N006  2  1.03096  0.54911  0.42667 11.00000  0.06989   8.99
N007  2  1.21020  0.64228  0.39005 11.00000  0.08591   8.82
C008  1 -0.08090 -0.16209  0.63906 11.00000  0.08647   8.56
N009  2  0.11026  0.96005  0.28535 11.00000  0.11289   7.82
N00A  2  0.39901  0.69918  0.27642 11.00000  0.14110   7.74
N00B  2  0.51691  0.72331  0.33703 11.00000  0.09516   7.50
N00C  2  0.03036  0.88949  0.32918 11.00000  0.15116   7.45
N00D  2  0.38624  0.10135  0.57294 11.00000  0.15299   7.33
N00E  2  0.47823  0.21357  0.55108 11.00000  0.13891   7.33
N00F  2  0.75585  0.37132  0.51139 11.00000  0.06778   6.89
N00G  2 -0.18173 -0.26498  0.64854 11.00000  0.16736   6.82
C00H  1 -0.03153  1.06044  0.32286 11.00000  0.18872   6.55
C00I  1  0.21424  0.00898  0.58857 11.00000  0.10261   6.43
C00J  1  0.41081  0.52540  0.28586 11.00000  0.11353   6.15
C00K  1  0.06655  0.95810  0.35373 11.00000  0.04062   6.12
C00L  1  0.55215  0.38765  0.28748 11.00000  0.09858   6.12
C00M  1  0.81014  0.44739  0.42973 11.00000  0.04845   6.12
C00N  1  0.93859  0.54510  0.39350 11.00000  0.04168   5.96
C00O  1  0.58289  0.77713  0.33173 11.00000  0.05513   5.96
C00P  1  0.08828 -0.07314  0.61214 11.00000  0.08806   5.87
C00Q  1 -0.00905  1.02759  0.28458 11.00000  0.06798   5.61
C00R  1  0.17734  0.88554  0.35534 11.00000  0.03865   5.33
C00S  1 -0.00744  1.27308  0.33717 11.00000  0.17161   5.27
C00T  1  0.64206  0.48027  0.28309 11.00000  0.09883   5.20
C00U  1  0.29722  0.33493  0.46954 11.00000  0.06795   4.69
C00V  1 -0.58053 -0.35695  0.59633 11.00000  0.21552   4.64
C00W  1  1.58053  0.79844  0.43922 11.00000  0.15225   4.63
C00X  1  1.29149  0.68608  0.44240 11.00000  0.07952   4.53
C00Y  1  0.00219  1.05519  0.36575 11.00000  0.17624   4.30
C00Z  1  0.43281  0.62556  0.27071 11.00000  0.09759   4.19
C010  1 -0.52188  1.18704  0.31329 11.00000  0.07094   3.88
N011  2  0.77793  0.26162  0.75500 11.00000  0.25735   3.81
C012  1  1.08766  0.54257  0.32333 11.00000  0.11373   3.72
C013  1  0.04985  1.35695  0.24500 11.00000  0.06234   3.72
C014  1  0.31713  0.81842  0.34440 11.00000  0.01332   3.60
C015  1  0.23843  0.20642  0.40721 11.00000  0.16975   3.45
C016  1  0.47406  0.28109  0.46762 11.00000  0.09272   3.27
C017  1  0.85434  0.40979  0.34964 11.00000  0.13532   3.27
C018  1  0.68050  0.42528  0.57394 11.00000  0.15724   3.25
HKLF 4
END
