TITL 28_a.res in P1
REM Old TITL 28 in P-1
REM SHELXT solution in P1: R1 0.505, Rweak 0.378, Alpha 0.000
REM <I/s>   0.000 for    0 systematic absences,  Orientation as input
REM Formula found by SHELXT:  C59 N15 O16

CELL  0.71073   4.8800  11.7900  19.7600   90.000   83.700   90.000
ZERR   15.000   0.0010   0.0024   0.0040    0.030    0.030    0.030
LATT -1
SFAC C N O CL
UNIT 15 15 15 15
L.S. 10
BOND
LIST 6
FMAP 2
PLAN 20
N001  2  1.13538  0.13994  0.34833 11.00000  0.08349  10.32
O002  3 -0.44800  0.98495  0.50306 11.00000  0.10297  10.22
C003  1  1.02737  0.21947  0.35989 11.00000  0.11832  10.21
C004  1  0.62514  0.58910  0.69334 11.00000  0.00936  10.01
O005  3 -0.21497  0.94551  0.41869 11.00000  0.03582   9.89
O006  3  0.30325  0.38348  0.58934 11.00000  0.04355   9.84
O007  3  0.52340  0.15587  0.87644 11.00000  0.08448   9.58
N008  2  0.32757  0.10846  0.84085 11.00000  0.01006   8.92
C009  1 -0.29953  0.84546  0.29570 11.00000  0.02549   8.88
N00A  2  1.05325  0.66723  0.28341 11.00000  0.01635   8.75
O00B  3  0.62518  0.43939  0.72691 11.00000  0.11535   8.61
O00C  3  0.32161  0.74134  0.92577 11.00000  0.17636   8.60
C00D  1  0.16727  0.50608  0.53765 11.00000  0.04529   8.60
O00E  3 -0.31464  0.92558  0.46608 11.00000  0.04291   8.50
O00F  3 -0.00212  0.76204  0.47525 11.00000  0.07208   8.43
O00G  3  0.76286  0.47694  0.94069 11.00000  0.08757   8.41
N00H  2 -0.07419  0.47753  0.64212 11.00000  0.10700   7.69
N00I  2  0.61623  0.75338  0.72555 11.00000  0.06989   7.65
O00J  3 -0.38632  0.90247  0.38578 11.00000  0.01933   7.63
N00K  2  0.40544  0.81652  0.72181 11.00000  0.00442   7.54
O00L  3 -0.17023 -0.20393  0.09664 11.00000  0.08029   7.51
N00M  2  0.98781  0.31647  0.43025 11.00000  0.11487   7.48
N00N  2  0.40815  0.42001  0.54062 11.00000  0.03826   7.43
N00O  2  1.23877  0.07418  0.35499 11.00000  0.06538   7.35
N00P  2  0.32932 -0.03365  0.11508 11.00000  0.08815   7.20
O00Q  3 -0.29101  1.20393  0.74102 11.00000  0.06800   7.04
N00R  2 -0.05397  0.98225  0.67517 11.00000  0.04943   6.96
N00S  2  0.48382  0.60394  0.63968 11.00000  0.05570   6.90
C00T  1  0.74194  0.53194  0.72592 11.00000  0.10904   6.83
N00U  2  0.91054  0.55961  0.24237 11.00000  0.01104   6.73
C00V  1  0.79697  0.66528  0.70798 11.00000  0.00696   6.64
N00W  2 -0.02068  0.82328  0.93919 11.00000  0.04224   6.57
C00X  1 -0.23106  1.05624  0.65850 11.00000  0.05790   6.56
C00Y  1  0.33655  0.43114  0.45187 11.00000  0.03213   6.48
C00Z  1 -0.15122  0.91760  0.61450 11.00000  0.01459   6.38
C010  1  0.13056  0.86217  0.81356 11.00000  0.01468   6.36
N011  2  0.75017  0.30701  0.26643 11.00000  0.06501   6.34
C012  1  1.28896  0.22341  0.48514 11.00000  0.09647   6.23
C013  1  1.05117  0.37021  0.93582 11.00000  0.19365   6.21
C014  1  0.79429  0.19243  0.08799 11.00000  0.08021   6.09
C015  1  0.53040  0.36094  0.69831 11.00000  0.04235   6.00
C016  1  0.55937  0.51907  0.55590 11.00000  0.03877   5.72
C017  1  0.24731  0.01072  0.15631 11.00000  0.03065   5.63
C018  1  0.95129  0.12753  0.46410 11.00000  0.10446   5.62
C019  1  0.02847 -0.09893  0.10324 11.00000  0.05001   5.61
C01A  1  1.60115  0.54653  0.05931 11.00000  0.07321   5.36
C01B  1  0.53980  0.70134  0.75377 11.00000  0.00899   5.33
C01C  1  0.21134  0.79637  0.53016 11.00000  0.06254   5.33
C01D  1  0.89297  0.24400  0.18495 11.00000  0.06830   5.32
O01E  3 -0.48871  0.85751  0.28994 11.00000  0.11432   5.28
C01F  1  0.02579  0.05203  0.11097 11.00000  0.08545   5.26
C01G  1  0.36578  0.66456  0.69488 11.00000  0.03632   5.20
C01H  1 -0.04692  0.90573  0.31535 11.00000  0.02127   5.14
C01I  1  0.57665  0.49043  0.31164 11.00000  0.02763   5.12
C01J  1  0.90630  0.62704  0.33586 11.00000  0.00010   5.08
C01K  1  0.07363  0.78427  0.86935 11.00000  0.06476   5.06
C01L  1  0.18168  0.70976  0.74429 11.00000  0.00122   5.04
C01M  1  0.75470  0.34917  0.30498 11.00000  0.07362   5.00
C01N  1  1.30233  0.59000  0.06249 11.00000  0.02632   4.99
C01O  1  0.25810  0.85439  0.71367 11.00000  0.08228   4.96
C01P  1  0.23820  0.08312  0.87104 11.00000  0.06782   4.95
C01Q  1  1.17208  0.72318  0.25943 11.00000  0.04140   4.85
C01R  1 -0.12344  1.14494  0.62952 11.00000  0.03933   4.76
O01S  3  0.13195  0.57172  0.57175 11.00000  0.09358   4.70
C01T  1  0.74348  0.47514  0.24180 11.00000  0.03538   4.58
C01U  1  0.78883  0.26342  0.52668 11.00000  0.06856   4.54
C01V  1  0.46741  0.74573  0.83393 11.00000  0.01781   4.44
O01W  3  0.42627  0.15068  0.21078 11.00000  0.06122   4.44
C01X  1 -0.60115  0.98213  0.61962 11.00000  0.03512   4.31
C01Y  1  0.79971  0.58957  0.28164 11.00000  0.02320   4.30
C01Z  1  0.53118  0.06745  0.17453 11.00000  0.05244   4.09
C020  1  0.51849  0.31843  0.62025 11.00000  0.03850   4.07
O021  3  0.42709  0.02982  0.10233 11.00000  0.05063   4.06
C022  1  0.53943  0.77998  0.64505 11.00000  0.11254   4.05
C023  1  1.07332  0.39196  0.21865 11.00000  0.03293   4.02
C024  1  1.54491  0.64593  0.16192 11.00000  0.13341   3.97
C025  1  1.15575  0.64548  0.07887 11.00000  0.04324   3.85
C026  1  0.13689  0.17178  0.87925 11.00000  0.07978   3.82
C027  1 -0.07389  0.45592  0.59281 11.00000  0.10962   3.82
C028  1 -0.11812  1.19114  0.70266 11.00000  0.00690   3.81
C029  1  0.22157  0.57237  0.87874 11.00000  0.08293   3.79
C02A  1 -0.07820  1.04649  0.74380 11.00000  0.02998   3.78
C02B  1  0.43380 -0.10157  0.12324 11.00000  0.05746   3.62
C02C  1  1.27854  0.49229  0.19314 11.00000  0.03297   3.61
C02D  1 -0.18831 -0.14812  0.07911 11.00000  0.04879   3.45
C02E  1  0.62170  0.27673  0.36590 11.00000  0.09490   3.38
C02F  1  0.59357  0.26511  0.17195 11.00000  0.06050   3.37
C02G  1  0.06166  0.95509  0.71252 11.00000  0.05178   3.25
C02H  1  0.72500  0.39948  0.82512 11.00000  0.05400   3.13
C02I  1  0.37373  0.28707  0.83561 11.00000  0.03327   3.09
HKLF 4
END
