TITL 29_a.res in P1
REM Old TITL 29 in P-1
REM SHELXT solution in P1: R1 0.500, Rweak 0.286, Alpha 0.000
REM <I/s>   0.000 for    0 systematic absences,  Orientation as input
REM Formula found by SHELXT:  C44 N14 O18 Cl2

CELL  0.71073   4.8600  11.7400  19.5900   90.000   83.780   90.000
ZERR   15.000   0.0010   0.0023   0.0039    0.030    0.030    0.030
LATT -1
SFAC C N O CL
UNIT 15 15 15 15
L.S. 10
BOND
LIST 6
FMAP 2
PLAN 20
CL01  4  0.76448  0.34769  0.48937 11.00000  0.16298  14.32
CL02  4  0.68660  0.41339  0.57351 11.00000  0.14154  12.95
O003  3  0.98139  0.29485  0.46294 11.00000  0.03502  10.80
O004  3  1.65334  0.19886  0.20766 11.00000  0.12840  10.63
N005  2  1.69756  0.16011  0.29719 11.00000  0.02601  10.49
O006  3  0.51085  0.86444  0.61832 11.00000  0.01024  10.36
N007  2  0.48417  0.53843  0.45889 11.00000  0.05373  10.15
C008  1  0.31911  0.50109  0.29496 11.00000  0.03310   9.92
O009  3  1.00161  0.90551  0.65731 11.00000  0.05120   9.38
N00A  2  0.37659  0.46393  0.24435 11.00000  0.02470   9.35
N00B  2  0.32677  0.57367  0.58504 11.00000  0.07057   9.29
O00C  3  0.84493  0.97474  0.65075 11.00000  0.03518   9.17
N00D  2  1.53134  0.15447  0.32749 11.00000  0.04385   9.14
O00E  3  0.29697  0.60828  0.46624 11.00000  0.09900   8.69
O00F  3  1.85119  0.23715  0.26199 11.00000  0.07442   8.67
N00G  2  1.06772 -0.01117  0.47540 11.00000  0.02570   8.58
N00H  2  1.45919  0.19945  0.41563 11.00000  0.04705   8.32
C00I  1 -0.65125  0.03266  0.87316 11.00000  0.06136   8.12
O00J  3  0.56849  0.46728  0.61779 11.00000  0.09037   8.08
O00K  3  1.53817 -0.23548  0.22865 11.00000  0.07641   7.94
O00L  3  1.31256  1.11248  0.67838 11.00000  0.09047   7.92
O00M  3  0.83662  0.38686  0.60661 11.00000  0.06870   7.77
C00N  1  1.56472  0.28238  0.44720 11.00000  0.00884   7.65
O00O  3  1.33200 -0.14367  0.45417 11.00000  0.06266   7.61
O00P  3  1.17763  0.24149  0.42426 11.00000  0.03692   7.52
O00Q  3  1.63997  0.43625  0.09098 11.00000  0.12508   7.48
C00R  1  1.22601  1.03911  0.68722 11.00000  0.05157   7.32
N00S  2  0.02789  0.65704  0.80285 11.00000  0.03162   7.26
N00T  2 -1.12634  0.16861  0.86164 11.00000  0.17812   7.13
C00U  1  1.58875  0.20536  0.37915 11.00000  0.00010   6.99
N00V  2  0.20270  0.37548  0.24435 11.00000  0.04494   6.97
N00W  2  0.34586  0.73692  0.69238 11.00000  0.11181   6.97
N00X  2  1.43700  0.10720  0.36645 11.00000  0.02649   6.95
O00Y  3  1.90525 -0.09957  0.09492 11.00000  0.13428   6.64
N00Z  2 -0.06551  0.49605  0.70698 11.00000  0.06652   6.58
N010  2  0.70239  0.95974  0.61066 11.00000  0.05141   6.54
O011  3  0.60886  0.79860  0.75160 11.00000  0.13314   6.46
C012  1  1.57140  0.29924  0.02361 11.00000  0.07905   6.37
C013  1 -0.00352  0.62043  0.28671 11.00000  0.04759   6.34
C014  1  0.18970  0.67345  0.52629 11.00000  0.05378   6.14
C015  1  0.42013  0.32537  0.27317 11.00000  0.01490   6.11
C016  1  0.14929  0.82114  0.33772 11.00000  0.06258   6.06
C017  1  0.54243  0.52890  0.54469 11.00000  0.13893   5.90
C018  1 -0.57459  0.55612  0.93262 11.00000  0.11434   5.87
C019  1 -0.18155  0.69960  0.47465 11.00000  0.04754   5.85
C01A  1 -0.66847  0.39888  0.83234 11.00000  0.02812   5.77
C01B  1  0.95158 -0.01349  0.40217 11.00000  0.05920   5.62
C01C  1  1.60585  0.11799  0.38374 11.00000  0.03414   5.50
C01D  1  0.11926  0.52856  0.66631 11.00000  0.04026   5.47
C01E  1 -0.91268  0.32689  0.88510 11.00000  0.05565   5.40
C01F  1  0.54922  0.82795  0.56783 11.00000  0.04075   5.31
C01G  1 -0.11359  0.61892  0.33021 11.00000  0.05150   5.29
O01H  3 -0.44205  0.08242  0.90063 11.00000  0.11735   5.22
C01I  1  0.20979  0.59356  0.62815 11.00000  0.02795   5.08
C01J  1  2.12634 -0.04379  0.10984 11.00000  0.02863   4.98
C01K  1  0.08920  0.66755  0.36073 11.00000  0.05090   4.93
C01L  1 -0.29034  0.53638  0.82571 11.00000  0.02840   4.92
C01M  1  0.70647  0.78999  0.69775 11.00000  0.02578   4.89
C01N  1  0.27259  0.31408  0.18554 11.00000  0.04017   4.85
C01O  1  1.19489  1.25157  0.63354 11.00000  0.03479   4.81
C01P  1  1.27607  1.17488  0.76245 11.00000  0.09488   4.54
C01Q  1  1.16459  0.09306  0.48056 11.00000  0.08220   4.30
C01R  1  0.11193  0.61299  0.74667 11.00000  0.09024   4.24
C01S  1  1.93073  0.11599  0.07434 11.00000  0.06040   4.21
O01T  3  1.52884 -0.07257  0.20330 11.00000  0.10324   4.16
C01U  1  0.35660  0.53339  0.39234 11.00000  0.03685   4.12
C01V  1  0.48764  1.05014  0.56989 11.00000  0.06769   4.08
C01W  1  0.93258  0.89627  0.70000 11.00000  0.05233   4.07
C01X  1 -0.54186 -0.00159  0.83099 11.00000  0.14399   3.99
C01Y  1 -0.92042  0.09010  0.89153 11.00000  0.10110   3.93
C01Z  1 -0.02303  0.70224  0.86714 11.00000  0.05348   3.93
C020  1  0.10651  0.78306  0.82719 11.00000  0.12602   3.61
C021  1  1.42487 -0.25157  0.12369 11.00000  0.09562   3.58
C022  1  1.84703  0.32148  0.09903 11.00000  0.06402   3.55
C023  1  1.73601 -0.00856  0.11366 11.00000  0.11944   3.27
C024  1 -0.00842  0.83548  0.95914 11.00000  0.07200   3.19
C025  1 -0.73243  0.66206  0.97639 11.00000  0.06138   3.15
C026  1  1.36199  0.01373  0.18690 11.00000  0.03445   3.14
HKLF 4
END
