TITL 2_a.res in P1
REM Old TITL 2 in P1
REM SHELXT solution in P1: R1 0.308, Rweak 0.483, Alpha 0.000
REM <I/s>   0.000 for    0 systematic absences,  Orientation as input
REM Flack x = -0.309 ( 0.791 ) from   150 Parsons' quotients
REM Formula found by SHELXT:  C30 N6 O26 Cl4

CELL  0.71073   4.8100  11.6200  19.4900   90.000   83.200   90.000
ZERR   14.000   0.0010   0.0023   0.0039    0.030    0.030    0.030
LATT -1
SFAC C N O CL
UNIT 14 14 14 14
L.S. 10
BOND
LIST 6
FMAP 2
PLAN 20
CL01  4  0.74297  0.23800  0.45614 11.00000  0.16767  16.35
CL02  4  0.64468 -0.23716  0.54674 11.00000  0.13652  15.38
CL03  4  0.51203 -0.28346  0.49814 11.00000  0.15171  15.06
CL04  4  1.10880  1.10330  0.66038 11.00000  0.15478  15.06
O005  3  0.49693  0.57426  0.81072 11.00000  0.06677  14.95
O006  3  0.96482  0.24077  0.37669 11.00000  0.06944  12.13
O007  3  0.74630  0.83030  0.08506 11.00000  0.06602  11.87
O008  3  0.82340  0.73794  0.20274 11.00000  0.08316  11.43
O009  3  0.79996  0.89943  0.63369 11.00000  0.09080  11.24
O00A  3  0.27850  0.60957  0.40953 11.00000  0.07911  11.14
O00B  3  0.14027  0.05017  0.27844 11.00000  0.08340  10.51
O00C  3  0.14049  0.09085  0.18431 11.00000  0.07719  10.46
O00D  3  0.80612  0.96888  0.74231 11.00000  0.08791  10.41
N00E  2  0.38538  0.07239  0.44674 11.00000  0.09820   9.95
N00F  2  0.81092  0.30287  0.38682 11.00000  0.07122   9.88
O00G  3  0.44527  0.36059  0.64602 11.00000  0.08922   9.85
N00H  2  0.24616  0.00241  0.21370 11.00000  0.08160   9.65
O00I  3  0.63293  0.37700  0.36950 11.00000  0.10758   9.64
N00J  2  0.03626 -0.05233  0.23494 11.00000  0.08093   9.62
O00K  3  0.39866  0.89361  0.79666 11.00000  0.10634   9.34
O00L  3  0.59608  0.57290 -0.01574 11.00000  0.10048   8.92
O00M  3  0.44630 -0.02010  0.55129 11.00000  0.08180   8.88
O00N  3  0.80925  1.03916  0.70325 11.00000  0.13941   8.21
O00O  3  0.64152  0.47360  0.55512 11.00000  0.08838   8.02
O00P  3  0.26967  1.23426  0.90828 11.00000  0.15325   8.01
O00Q  3  1.35249  1.15472  0.65477 11.00000  0.14657   8.00
O00R  3  1.01178  0.79364 -0.03837 11.00000  0.09868   7.88
O00S  3  0.71799  0.87017  0.02182 11.00000  0.15619   7.75
O00T  3  0.32587 -0.06747  0.41990 11.00000  0.08916   7.73
O00U  3  0.50364  0.12304  0.17494 11.00000  0.08842   7.55
O00V  3  1.06392  1.04950  0.83281 11.00000  0.11429   7.51
O00W  3  1.23360  0.58045  0.16875 11.00000  0.11219   7.38
C00X  1  0.33997  0.50257  0.82080 11.00000  0.13027   7.17
N00Y  2  0.97274  0.74212  0.68563 11.00000  0.07594   7.13
N00Z  2 -0.17570 -0.06162  0.31001 11.00000  0.07962   7.09
C010  1  0.41463  0.43254  0.59195 11.00000  0.05452   6.81
C011  1  0.65458  0.60091  0.67669 11.00000  0.09174   6.46
C012  1  0.94092  1.13166  1.03837 11.00000  0.08866   6.45
C013  1  0.30276 -0.21698  0.46653 11.00000  0.07512   6.42
C014  1  0.72640  0.57546  0.35947 11.00000  0.08935   6.31
O015  3 -0.09478  0.10273  0.55301 11.00000  0.21476   5.94
C016  1  0.07093  0.51493  0.51815 11.00000  0.07513   5.93
C017  1  0.14726 -0.14197  0.33091 11.00000  0.10288   5.85
C018  1  0.52163  0.33786  0.44090 11.00000  0.05176   5.72
C019  1  0.52776  1.10530  0.88591 11.00000  0.08156   5.68
C01A  1  0.71464 -0.02228  0.48676 11.00000  0.05795   5.51
C01B  1  0.11155  0.09127  0.51309 11.00000  0.08516   5.44
C01C  1  0.79485  0.99659  0.80301 11.00000  0.04979   5.41
O01D  3  0.29392  0.37921  0.50242 11.00000  0.12741   5.23
C01E  1  0.93296  0.89344  0.10752 11.00000  0.15741   4.93
C01F  1  0.61290  0.53905  0.44439 11.00000  0.06917   4.84
C01G  1 -0.35249 -0.22664  0.36038 11.00000  0.06899   4.69
C01H  1  0.42966  0.04049  0.49051 11.00000  0.10170   4.61
C01I  1  0.82252  0.60545  0.59223 11.00000  0.11203   4.42
C01J  1  0.96029  1.28346  1.01481 11.00000  0.07854   3.83
C01K  1  0.45783  0.70292  0.01040 11.00000  0.08833   3.65
C01L  1  0.18858  0.40688  0.47195 11.00000  0.10459   3.65
C01M  1  0.91354  0.29464  0.23588 11.00000  0.09549   3.63
C01N  1  1.01285  1.03169  0.94484 11.00000  0.06752   3.62
C01O  1  0.60633  0.30288  0.55869 11.00000  0.10113   3.52
C01P  1  0.26736  0.38267  0.33735 11.00000  0.08021   3.51
C01Q  1  0.72232  0.22992  0.32027 11.00000  0.07515   3.48
C01R  1  0.55188  0.51651  0.71836 11.00000  0.10036   3.32
C01S  1  0.49560  0.07416  0.32356 11.00000  0.10617   3.23
C01T  1  0.55694  0.62886  0.27042 11.00000  0.05825   3.06
C01U  1  0.45277  0.84657  0.69738 11.00000  0.14011   3.06
HKLF 4
END
