TITL 30_a.res in P1
REM Old TITL 30 in P-1
REM SHELXT solution in P1: R1 0.468, Rweak 0.426, Alpha 0.000
REM <I/s>   0.000 for    0 systematic absences,  Orientation as input
REM Flack x = -3.463 ( 2.007 ) from    19 Parsons' quotients
REM Formula found by SHELXT:  C23 N4 O16 Cl16

CELL  0.71073   4.8600  11.7800  19.5900   90.000   83.700   90.000
ZERR   15.000   0.0010   0.0024   0.0039    0.030    0.030    0.030
LATT -1
SFAC C N O CL
UNIT 15 15 15 15
L.S. 10
BOND
LIST 6
FMAP 2
PLAN 20
O001  3 -0.64829  0.24906  0.84317 11.00000  0.13158  18.10
C002  1 -0.52667  0.17538  0.80584 11.00000  0.06341  17.03
CL03  4  0.19857  0.37934  0.62741 11.00000  0.13199  16.66
CL04  4  0.64117 -0.29209  0.08674 11.00000  0.14316  16.26
CL05  4  0.82766  0.64057  0.63031 11.00000  0.14303  16.25
CL06  4 -0.14975  0.98768  0.80310 11.00000  0.16675  14.65
CL07  4  1.35151  0.60084  0.32141 11.00000  0.16112  14.50
CL08  4  1.13987  0.76415  0.54319 11.00000  0.19582  14.31
CL09  4  0.12561  0.89532  0.90171 11.00000  0.12800  14.01
CL0A  4  0.80687  0.26572  0.09134 11.00000  0.15949  13.73
CL0B  4  0.92381  0.22694  0.03907 11.00000  0.13281  13.50
CL0C  4  0.92648 -0.01463  0.27736 11.00000  0.14707  13.47
CL0D  4  0.78308 -0.11704  0.26556 11.00000  0.21079  13.28
C00E  1  0.30437  0.84763  0.74144 11.00000  0.09888  13.17
CL0F  4 -0.06316  0.92616  0.92458 11.00000  0.15561  13.02
CL0G  4  0.79255 -0.21630  0.09522 11.00000  0.15464  12.85
O00H  3  1.19690  1.04580  0.49463 11.00000  0.08266  12.46
CL0I  4  1.01741  0.36636  0.15458 11.00000  0.19692  11.78
CL0J  4 -0.30710  1.01714  0.91452 11.00000  0.15736  11.73
O00K  3  0.33913  0.40595  0.66150 11.00000  0.12829  11.73
O00L  3  0.54911  0.51684  0.66014 11.00000  0.07810  11.10
O00M  3  1.49694  0.52453  0.31778 11.00000  0.07893  10.95
O00N  3  0.99025 -0.14977  0.05151 11.00000  0.07216  10.88
CL0O  4  0.36985  0.81477  0.69079 11.00000  0.21667  10.64
O00P  3  0.07117  0.56843  0.71788 11.00000  0.11894  10.07
O00Q  3  0.08792  0.33887  0.72441 11.00000  0.08127   9.93
O00R  3  1.38013  0.01113  0.28213 11.00000  0.09080   8.97
O00S  3  1.68103  0.44509  0.39248 11.00000  0.12339   8.91
O00T  3 -0.26857  0.36465  0.91781 11.00000  0.07891   8.72
O00U  3  1.07515  0.19654  0.07122 11.00000  0.07138   8.70
O00V  3  1.26230  0.47024  0.20588 11.00000  0.10571   8.58
O00W  3  1.43643  0.69767  0.43859 11.00000  0.10015   8.13
O00X  3  0.47339  0.56451  0.72493 11.00000  0.07759   7.56
N00Y  2 -0.03796  0.42825  0.84210 11.00000  0.10300   7.09
N00Z  2 -0.35386  0.36343  0.96093 11.00000  0.07281   6.86
N010  2  1.37990  0.06753  0.08336 11.00000  0.08420   6.83
N011  2  1.19885  1.30083  0.41179 11.00000  0.10318   6.56
C012  1 -0.77032  0.58541  0.90354 11.00000  0.04632   6.36
C013  1  0.08012  0.81649  0.84738 11.00000  0.03585   6.29
C014  1  1.50146  0.50686  0.10183 11.00000  0.06830   6.01
C015  1 -0.01274  0.68725  0.79747 11.00000  0.08848   5.97
C016  1  0.54509  0.91065  0.39144 11.00000  0.06601   5.94
C017  1 -0.48619  0.43092  0.92227 11.00000  0.08527   5.87
C018  1  1.23089  0.58720  0.20615 11.00000  0.09192   5.84
C019  1  1.51677  0.56358  0.18857 11.00000  0.04698   5.72
C01A  1  1.09175  0.69843  0.28512 11.00000  0.07641   4.99
C01B  1  0.30808 -0.30083  0.06216 11.00000  0.07778   4.97
O01C  3  1.77032  0.45625  0.48700 11.00000  0.09993   4.93
C01D  1  0.81024  0.89365  0.48797 11.00000  0.05695   4.92
C01E  1  1.31674  0.03855  0.11737 11.00000  0.06102   4.81
C01F  1 -0.34787  0.26437  0.70805 11.00000  0.08892   4.59
C01G  1  1.01990  1.08714  0.46976 11.00000  0.11656   4.38
C01H  1  0.57490  1.16108  0.53144 11.00000  0.09169   4.34
C01I  1  0.98935  0.82713  0.45965 11.00000  0.07188   4.12
C01J  1  1.15352 -0.04736  0.07226 11.00000  0.06306   4.11
C01K  1  0.68263  1.11471  0.44119 11.00000  0.11889   3.83
C01L  1  1.28628  0.09650  0.18376 11.00000  0.07111   3.23
C01M  1  0.54419  1.11300  0.45577 11.00000  0.06453   3.07
C01N  1  1.62299  0.51937  0.47612 11.00000  0.08094   3.02
HKLF 4
END
