TITL 5_a.res in P1
REM Old TITL 5 in P1
REM SHELXT solution in P1: R1 0.326, Rweak 0.449, Alpha 0.000
REM <I/s>   0.000 for    0 systematic absences,  Orientation as input
REM Flack x =  0.291 ( 0.682 ) from   160 Parsons' quotients
REM Formula found by SHELXT:  C29 N10 O23 Cl6

CELL  0.71073   4.8300  11.6200  19.5100   90.000   83.290   90.000
ZERR   14.000   0.0010   0.0023   0.0039    0.030    0.030    0.030
LATT -1
SFAC C N O CL
UNIT 14 14 14 14
L.S. 10
BOND
LIST 6
FMAP 2
PLAN 20
CL01  4  0.23896  1.09194  0.72325 11.00000  0.14255  17.22
CL02  4  0.06637  1.14884  0.73986 11.00000  0.12962  15.83
CL03  4 -0.20961  1.04322  0.77946 11.00000  0.13799  14.18
CL04  4  0.45642  1.12674  0.70405 11.00000  0.18101  14.15
CL05  4  0.33033  0.81948  0.82677 11.00000  0.13461  13.06
CL06  4 -0.08078  0.96706  0.69156 11.00000  0.12612  12.93
O007  3  0.13890 -0.23141  0.18171 11.00000  0.05071  11.99
O008  3  0.92002 -0.33093  0.08736 11.00000  0.06472  11.76
O009  3  0.67028  0.40549  0.10147 11.00000  0.09571  10.94
O00A  3  0.82409  0.54296  0.57148 11.00000  0.07103  10.89
O00B  3  0.60571  0.58837  0.77602 11.00000  0.05887  10.73
O00C  3  0.10218  0.34455  0.29203 11.00000  0.09257  10.72
N00D  2  0.75910 -0.24234  0.12551 11.00000  0.08925  10.55
O00E  3  1.23013  0.96581  0.29819 11.00000  0.06725  10.55
O00F  3  0.14436  0.90554  0.77964 11.00000  0.08373  10.41
O00G  3  1.06530  1.20888  0.90067 11.00000  0.05950  10.38
N00H  2  0.73231 -0.20543  0.03811 11.00000  0.09108  10.24
O00I  3  1.24625  0.78212  0.57097 11.00000  0.09281  10.09
O00J  3  0.95796  1.21633  0.99990 11.00000  0.11836   9.48
O00K  3  0.33026  0.54586  0.81369 11.00000  0.07375   9.27
O00L  3 -0.02130  1.08962  0.63397 11.00000  0.09585   9.19
O00M  3 -0.12336  1.13465  0.55423 11.00000  0.09001   8.79
C00N  1  0.62996  0.46906  0.53859 11.00000  0.06145   8.78
O00O  3  0.42623  0.53244  0.31165 11.00000  0.08553   8.77
O00P  3  0.36336  0.31492  0.13481 11.00000  0.07314   8.74
N00Q  2  1.22287  1.00293  0.37314 11.00000  0.06525   8.69
O00R  3 -0.16274  0.15578  0.31227 11.00000  0.09998   8.40
O00S  3  0.00497  0.45956  0.97495 11.00000  0.09420   8.29
O00T  3  0.33916  1.36022  0.69938 11.00000  0.10510   7.98
N00U  2  0.21467  0.36200  0.51604 11.00000  0.07763   7.91
O00V  3  0.95609  0.65605  0.66568 11.00000  0.08734   7.65
O00W  3 -0.02673  0.21929  0.23128 11.00000  0.10223   7.59
N00X  2  0.38694 -0.15837  0.19444 11.00000  0.06138   7.17
C00Y  1  1.19904  0.71881  0.63523 11.00000  0.07917   7.13
N00Z  2  0.84478  0.73535  0.73316 11.00000  0.07705   7.13
N010  2  0.32719  0.37902  0.22136 11.00000  0.05568   7.06
N011  2  0.69899  0.66712  0.84251 11.00000  0.08813   7.04
N012  2  1.19381  0.93467  0.42253 11.00000  0.07257   7.04
C013  1  0.45240  0.75823  0.86396 11.00000  0.06761   6.48
C014  1  0.27224  0.26120  0.49327 11.00000  0.09676   6.41
O015  3  0.34206  0.52718  0.89288 11.00000  0.08749   6.37
C016  1  0.48645  0.62389  0.44519 11.00000  0.05866   5.93
C017  1  0.73446 -0.36022  0.02880 11.00000  0.04524   5.87
C018  1  0.67842  0.78191  0.65966 11.00000  0.14038   5.37
C019  1  0.76448 -0.25477  0.19657 11.00000  0.07031   5.34
C01A  1  0.51960  0.20622  0.09526 11.00000  0.09722   5.30
C01B  1  0.77097  0.66194  0.31461 11.00000  0.05415   5.24
C01C  1  1.40783  0.92578  0.39721 11.00000  0.10792   5.14
C01D  1  0.21529  0.50174  0.87284 11.00000  0.06755   5.14
C01E  1  0.59964  0.44447  0.49358 11.00000  0.07249   5.13
N01F  2  0.60601  0.69767  0.41437 11.00000  0.11599   5.12
C01G  1  0.01203  0.77534  0.90689 11.00000  0.06313   5.04
C01H  1  0.66278 -0.13710  0.24708 11.00000  0.04884   4.87
C01I  1  0.67031  1.35836  0.75676 11.00000  0.15927   4.80
C01J  1  0.14045 -0.02899  0.15955 11.00000  0.07059   4.76
C01K  1  0.50933  0.50501  0.24228 11.00000  0.09983   4.75
C01L  1  1.08175  0.59110  0.55082 11.00000  0.13380   4.51
C01M  1  0.41707  0.06701  0.09089 11.00000  0.05910   4.39
C01N  1  0.23159  0.33264  0.42480 11.00000  0.15664   4.30
C01O  1 -0.40783  0.11407  0.23679 11.00000  0.06375   4.29
O01P  3  0.99524  0.70227  0.41438 11.00000  0.06756   4.28
C01Q  1 -0.05540  1.25817  0.60616 11.00000  0.09089   4.25
C01R  1  0.76084 -0.05234  0.00010 11.00000  0.04328   4.19
C01S  1  0.21352  1.27945  0.64283 11.00000  0.09674   3.90
C01T  1  0.77882  1.28597  0.84547 11.00000  0.08727   3.67
C01U  1  0.44696  0.49318  0.47076 11.00000  0.05984   3.38
C01V  1  0.84346  0.78605  0.42849 11.00000  0.07551   3.25
C01W  1  0.33445  0.16465  0.45909 11.00000  0.10272   3.11
HKLF 4
END
