TITL 6_a.res in P1
REM Old TITL 6 in P1
REM SHELXT solution in P1: R1 0.315, Rweak 0.461, Alpha 0.000
REM <I/s>   0.000 for    0 systematic absences,  Orientation as input
REM Flack x = -0.002 ( 0.509 ) from   177 Parsons' quotients
REM Formula found by SHELXT:  C35 N6 O27 Cl7

CELL  0.71073   4.8500  11.5900  19.5600   90.000   83.980   90.000
ZERR   15.000   0.0010   0.0023   0.0039    0.030    0.030    0.030
LATT -1
SFAC C N O CL
UNIT 15 15 15 15
L.S. 10
BOND
LIST 6
FMAP 2
PLAN 20
CL01  4  0.27729  1.00951  0.06044 11.00000  0.12265  15.48
CL02  4 -0.08412 -0.06609  0.43391 11.00000  0.13244  15.15
CL03  4  0.32705  0.95866 -0.00462 11.00000  0.13037  14.36
CL04  4 -0.18460 -0.14401  0.65421 11.00000  0.14338  13.76
CL05  4  0.70197  0.38804  0.85823 11.00000  0.16739  12.80
O006  3 -0.62870  0.51250  0.38121 11.00000  0.07371  11.35
O007  3  1.72715  0.82076  0.90369 11.00000  0.05074  11.24
O008  3 -0.73252  0.84534  0.32909 11.00000  0.08250  11.20
O009  3  0.61692  0.26862  0.78909 11.00000  0.05017  11.02
CL0A  4  1.55262  0.67284  1.00462 11.00000  0.13695  11.02
O00B  3  1.73252  0.85453  0.80334 11.00000  0.05587  11.00
CL0C  4 -0.18328  0.38648  0.51722 11.00000  0.11845  10.16
O00D  3  0.41270  0.43124  0.25693 11.00000  0.09760  10.15
O00E  3  0.14364  0.05774  0.52142 11.00000  0.07667   9.97
O00F  3  1.11349  0.51559  0.96424 11.00000  0.10450   9.68
O00G  3 -0.21009 -0.30930  0.74442 11.00000  0.10652   9.50
O00H  3  0.44307  0.01713  0.62699 11.00000  0.07754   9.47
O00I  3  0.07327  0.96694  0.08548 11.00000  0.09108   9.44
O00J  3  0.21014 -0.29224  0.64894 11.00000  0.06318   9.38
O00K  3  0.06102  0.02420  0.77050 11.00000  0.16223   9.34
C00L  1  0.32820  0.24371  0.70663 11.00000  0.05229   9.34
C00M  1  0.20175 -0.01762  0.54779 11.00000  0.06564   9.29
O00N  3 -0.21997  0.19626  0.95035 11.00000  0.10179   9.22
O00O  3  0.82986  0.39140  0.95032 11.00000  0.07983   9.00
O00P  3  0.36888 -0.19975  0.68273 11.00000  0.11380   8.93
N00Q  2 -0.00599 -0.03481  0.74052 11.00000  0.09896   8.84
O00R  3  0.25875 -0.25848  0.79764 11.00000  0.08427   8.72
O00S  3 -0.04953  0.12716  0.85488 11.00000  0.12334   8.68
O00T  3 -0.11003  0.02034  0.36353 11.00000  0.11730   8.28
O00U  3  0.44979  1.13510  0.24660 11.00000  0.10029   8.27
O00V  3 -0.60000  0.83617  0.23019 11.00000  0.10366   8.15
O00W  3  0.41926  1.39045  0.14279 11.00000  0.10404   8.02
O00X  3 -0.22448  0.79884  0.29952 11.00000  0.08768   7.91
O00Y  3  0.04168  0.64394  0.51617 11.00000  0.06258   7.77
O00Z  3 -0.43296  0.56643  0.36291 11.00000  0.08925   7.74
N010  2 -0.07300  0.52547  0.31964 11.00000  0.04719   7.16
N011  2  0.25508  0.10967  0.44450 11.00000  0.08118   7.08
N012  2  0.11496  0.56711  0.23438 11.00000  0.05626   6.97
O013  3  0.10115  0.28818  0.59879 11.00000  0.06808   6.58
N014  2 -0.06644  0.64416  0.21033 11.00000  0.10119   6.53
C015  1 -0.18606  0.85054  0.15197 11.00000  0.08955   6.31
C016  1  0.01609 -0.19921  0.71337 11.00000  0.05880   6.27
C017  1  0.18386  0.52039  0.49612 11.00000  0.05989   6.27
C018  1 -0.22903  0.03543  0.84487 11.00000  0.05560   6.20
C019  1  0.23093  1.33484  0.08272 11.00000  0.07380   6.13
C01A  1 -0.01352  0.58338  0.26577 11.00000  0.05658   6.06
C01B  1 -0.40424  0.48378  0.43851 11.00000  0.06938   5.98
C01C  1  0.10265  0.22310  0.83689 11.00000  0.07411   5.94
C01D  1  1.63586  0.73026  0.87372 11.00000  0.08853   5.94
O01E  3  0.72054  0.44052  0.69795 11.00000  0.10686   5.92
C01F  1  0.94477  0.44374  0.99809 11.00000  0.04520   5.91
C01G  1 -0.40746  0.57092  0.14978 11.00000  0.07398   5.89
N01H  2  0.31857  0.20180  0.76473 11.00000  0.06272   5.55
C01I  1 -0.15928  0.62820  0.50180 11.00000  0.10214   5.39
C01J  1  0.38762  0.38937  0.76173 11.00000  0.07269   5.29
C01K  1 -0.08044  0.90778  0.12924 11.00000  0.08112   5.27
C01L  1  0.47537  1.26215  0.16715 11.00000  0.08655   5.25
C01M  1  0.64380  1.35899  0.14706 11.00000  0.12944   5.17
C01N  1 -0.05619  0.85778  0.02722 11.00000  0.07214   5.16
C01O  1 -0.34712  0.66286  0.42720 11.00000  0.06674   5.08
C01P  1  0.91706  1.42918  0.13101 11.00000  0.08127   4.85
C01Q  1  0.09330 -0.42918  0.75574 11.00000  0.08547   4.82
C01R  1  1.46711  0.58702  0.92709 11.00000  0.12150   4.35
C01S  1  0.78473  0.44703  0.76389 11.00000  0.07650   4.34
C01T  1 -0.32247  0.64848  0.51701 11.00000  0.09066   4.22
C01U  1  0.11335  0.00051  0.65833 11.00000  0.09381   4.21
C01V  1  0.34213 -0.04159  0.72485 11.00000  0.03524   3.92
C01W  1 -0.38777  0.70592  0.20453 11.00000  0.03872   3.79
C01X  1  0.15020  0.24996  0.51766 11.00000  0.07084   3.77
C01Y  1  0.14768 -0.30015  0.75391 11.00000  0.04848   3.76
C01Z  1  0.46349  1.07095  0.04124 11.00000  0.07650   3.62
C020  1  0.23856  1.15988  0.04802 11.00000  0.07939   3.53
C021  1  1.65770  0.56868  0.92448 11.00000  0.05999   3.28
C022  1  0.51228  0.27720  0.63458 11.00000  0.09805   3.23
C023  1 -0.04649 -0.07532  0.58029 11.00000  0.08060   3.20
HKLF 4
END
