TITL 7_a.res in P1
REM Old TITL 7 in P1
REM SHELXT solution in P1: R1 0.341, Rweak 0.470, Alpha 0.000
REM <I/s>   0.000 for    0 systematic absences,  Orientation as input
REM Flack x = -0.784 ( 0.865 ) from   138 Parsons' quotients
REM Formula found by SHELXT:  C42 N13 O13 Cl

CELL  0.71073   4.8300  11.7000  19.2800   90.000   83.330   90.000
ZERR   14.000   0.0010   0.0023   0.0039    0.030    0.030    0.030
LATT -1
SFAC C N O CL
UNIT 14 14 14 14
L.S. 10
BOND
LIST 6
FMAP 2
PLAN 20
CL01  4  0.17110  0.14163  0.50476 11.00000  0.15286  13.03
O002  3 -0.56108  0.83475  0.39978 11.00000  0.16606  11.93
O003  3  0.83422  0.48414  0.30620 11.00000  0.05940  10.78
O004  3 -0.18137  0.49998  0.69614 11.00000  0.09616  10.18
O005  3  0.59595  0.46901  0.39199 11.00000  0.12740   9.93
O006  3 -0.46517  0.41431  0.76475 11.00000  0.09611   9.56
O007  3  0.69949  0.15070  0.24581 11.00000  0.06239   9.36
O008  3 -0.12159  0.01629  0.36705 11.00000  0.06241   8.75
N009  2 -0.42589  0.88598  0.30738 11.00000  0.11317   8.61
O00A  3 -0.55933  0.81702  0.23706 11.00000  0.07909   8.43
N00B  2  0.60131  0.15456  0.07919 11.00000  0.09197   8.37
O00C  3  1.75274  0.56052  0.06289 11.00000  0.10179   8.27
O00D  3  0.10220  0.76380  0.35962 11.00000  0.06156   8.22
N00E  2 -0.36802  0.06002  0.73088 11.00000  0.05998   7.98
O00F  3  0.86567  0.31735  0.26982 11.00000  0.09984   7.58
O00G  3 -0.25473  0.75995  0.32876 11.00000  0.10783   7.53
N00H  2  0.23847  0.23619  0.55781 11.00000  0.07775   7.51
N00I  2 -0.49137  0.61730  0.64077 11.00000  0.06715   7.35
N00J  2  1.32740  0.52473  0.15937 11.00000  0.04680   7.19
N00K  2  0.10671  0.59049  0.55701 11.00000  0.07228   7.15
C00L  1  0.09158  0.01252  0.40576 11.00000  0.10996   6.95
N00M  2  1.45587  0.63197  0.15049 11.00000  0.09595   6.77
N00N  2 -0.30082  0.16121  0.74486 11.00000  0.09576   6.70
N00O  2 -0.71830  0.72319  0.66459 11.00000  0.11453   6.69
N00P  2 -0.71467  0.80044  0.44786 11.00000  0.12885   6.63
C00Q  1  1.21350  0.32922  0.17313 11.00000  0.05767   6.22
C00R  1 -0.75274  0.49064  0.88202 11.00000  0.06117   6.19
C00S  1  0.40657  0.20662  0.46130 11.00000  0.08945   6.17
C00T  1  0.85881  0.41396  0.44065 11.00000  0.08799   6.17
C00U  1  0.19288  0.11144  0.45507 11.00000  0.09465   5.72
C00V  1 -0.15290  0.66607  0.49989 11.00000  0.06836   5.71
C00W  1 -0.75050  0.18098  0.70751 11.00000  0.04305   5.70
C00X  1  1.52694  0.49656  0.12736 11.00000  0.07445   5.69
C00Y  1  0.95481  0.49773  0.16933 11.00000  0.06730   5.64
C00Z  1 -0.27551  0.13949  0.66106 11.00000  0.08406   5.58
O010  3  0.17995  1.02284  0.94865 11.00000  0.14953   5.55
C011  1 -0.28307  0.53892  0.58448 11.00000  0.10463   5.50
C012  1  0.89203  0.61303  0.24012 11.00000  0.08968   5.21
C013  1 -0.45961  0.45706  0.71493 11.00000  0.07119   5.08
C014  1  0.30820  0.38545  0.47315 11.00000  0.05696   5.04
C015  1  0.18798  0.98554  0.87529 11.00000  0.09065   5.03
C016  1  0.64465  0.14311  0.14690 11.00000  0.10170   5.00
C017  1 -0.23407  0.27658  0.65296 11.00000  0.06410   4.99
C018  1  0.07140  0.22498  0.58329 11.00000  0.05135   4.90
N019  2 -0.23981  0.35112  0.86666 11.00000  0.13051   4.87
C01A  1 -0.72626  0.91555  0.69795 11.00000  0.06178   4.83
C01B  1  0.80522  0.52757  0.36551 11.00000  0.09350   4.74
C01C  1 -0.65818  0.36533  0.65393 11.00000  0.13484   4.72
C01D  1 -0.53624  0.59995  0.94835 11.00000  0.05820   4.67
C01E  1 -0.00359  0.70273  0.58603 11.00000  0.06650   4.57
C01F  1  0.01001  0.66109  0.80248 11.00000  0.05569   4.51
C01G  1  0.74275  0.12908  0.01741 11.00000  0.08509   4.50
C01H  1  1.33962  0.74193  0.12123 11.00000  0.06431   4.47
C01I  1 -0.33438  0.07815  0.65933 11.00000  0.09719   4.42
C01J  1  0.20256  0.07218  0.56791 11.00000  0.05344   4.35
N01K  2  0.19487  0.84787  1.00421 11.00000  0.13917   4.32
C01L  1  1.67325  0.61839  0.07303 11.00000  0.04882   4.32
C01M  1  0.74347  0.55767  0.23964 11.00000  0.06318   4.18
C01N  1 -0.22562 -0.02284  0.50290 11.00000  0.06110   4.15
C01O  1 -0.25699  0.00951  0.59223 11.00000  0.07176   3.98
C01P  1 -0.35048  0.06587  0.47314 11.00000  0.08176   3.97
C01Q  1 -0.19071  0.80458  0.81606 11.00000  0.10951   3.90
C01R  1  0.55649  0.24796 -0.00421 11.00000  0.06255   3.58
C01S  1  1.21987  0.22929  0.29509 11.00000  0.07348   3.44
C01T  1 -0.23179  0.77456  0.94083 11.00000  0.07941   3.37
C01U  1 -0.64656  0.67587  0.43112 11.00000  0.08141   3.28
C01V  1  0.81435  0.32426  0.34452 11.00000  0.04593   3.24
C01W  1  0.59421  0.35720  0.40784 11.00000  0.07821   3.13
C01X  1 -0.30802  0.74588  0.44789 11.00000  0.07408   3.08
HKLF 4
END
