TITL c2 in C2 
CELL 0.71073  22.7011   9.8731   7.2765  90.000  98.412  90.000 
ZERR   10.00   0.0028   0.0012   0.0010   0.000   0.011   0.000 
LATT -7 
SYMM -X, Y, -Z 
SFAC C H N O S 
UNIT 50 20 10 10 10 
 
L.S. 4 
BOND 
FMAP 2 
PLAN 20 
 
MOLE   1 
S1    5  0.1549  0.0575  0.3021 11.000000  0.05  250.00
Q1    1  0.1973 -0.0441  0.2887 11.000000  0.05  225.86 
Q2    1 -0.0302 -0.1185  0.2410 11.000000  0.05  221.65 
Q3    1  0.2426  0.0598  0.8138 11.000000  0.05  212.63 
Q4    1  0.1672  0.1039  0.5159 11.000000  0.05  204.65 
Q5    1  0.0335  0.0683  0.2577 11.000000  0.05  202.00 
Q6    1  0.3225  0.0860  0.5378 11.000000  0.05  200.91 
Q7    1  0.1532  0.1783  0.1871 11.000000  0.05  193.91 
Q8    1 -0.0916 -0.1811  0.2172 11.000000  0.05  186.38 
Q9    1  0.1797  0.2428  0.5886 11.000000  0.05  183.60 
Q10   1  0.0828 -0.0113  0.2835 11.000000  0.05  182.90 
Q11   1 -0.0200  0.0219  0.2318 11.000000  0.05  178.28
Q12   1  0.0795 -0.1487  0.2997 11.000000  0.05  177.39
Q13   1  0.0203 -0.1891  0.2572 11.000000  0.05  175.78 
Q14   1  0.1507  0.2932  0.7298 11.000000  0.05  174.32 
Q15   1  0.2285  0.1351  0.6206 11.000000  0.05  168.96 
Q16   1  0.0854  0.3574  0.6585 11.000000  0.05  165.77 
Q17   1  0.2751  0.1476  0.5114 11.000000  0.05  158.21 
Q18   1  0.2864  0.1447  0.9395 11.000000  0.05  151.33 
Q19   1  0.0325 -0.4572  0.0876 11.000000  0.05  103.00 
Q20   1  0.0526  0.4044  0.8015 11.000000  0.05   99.41 
Q21   1  0.0573 -0.4376  0.4239 11.000000  0.05   86.31 
Q22   1  0.0380 -0.3390  0.2215 11.000000  0.05   77.30 
Q23   1 -0.0715  0.0595  0.2184 11.000000  0.05   72.27 
Q24   1  0.2710  0.2540  0.9961 11.000000  0.05   67.75 
Q25   1  0.1979  0.1547  0.2916 11.000000  0.05   66.05 
Q26   1  0.0077  0.3432  0.8130 11.000000  0.05   64.64 
Q27   1  0.2303  0.3550  1.1497 11.000000  0.05   62.62 
Q28   1 -0.0717  0.2932  0.7171 11.000000  0.05   62.07 
Q29   1  0.2238 -0.1406  0.3314 11.000000  0.05   62.03 
Q30   1  0.2763  0.0730  0.3368 11.000000  0.05   60.51 
Q31   1  0.2539  0.0581  0.2443 11.000000  0.05   58.74 
Q32   1  0.3573  0.0557  0.6409 11.000000  0.05   58.07 
Q33   1  0.0936 -0.1971  0.4689 11.000000  0.05   56.62 
MOLE   2 
HKLF 4                                                                          
END  
