TITL 10_a.res in P1
REM Old TITL 10 in P1
REM SHELXT solution in P1: R1 0.308, Rweak 0.295, Alpha 0.000
REM <I/s>   0.000 for    0 systematic absences,  Orientation as input
REM Flack x =  0.494 ( 0.100 ) from    85 Parsons' quotients
REM Formula found by SHELXT:  C15 N16 O34 Cl18 Br2

CELL  0.71073   4.8400  11.4500  19.4600   90.000   83.460   90.000
ZERR   14.000   0.0010   0.0023   0.0039    0.030    0.030    0.030
LATT -1
SFAC C N O CL BR
UNIT 14 14 14 14 0
L.S. 10
BOND
LIST 6
FMAP 2
PLAN 20
BR01  5  0.73458  0.53752  0.38066 11.00000  0.11238  36.02
BR02  5 -0.24837  0.71093  0.65993 11.00000  0.12764  27.28
CL03  4  1.01925  0.68646  0.26694 11.00000  0.07667  23.34
CL04  4  0.85525  0.59555  0.32606 11.00000  0.04476  20.84
CL05  4  1.47831  0.88516  0.21811 11.00000  0.06929  18.99
CL06  4  1.34302  0.77611  0.18776 11.00000  0.08608  18.74
CL07  4  1.39540  0.84719  0.27683 11.00000  0.06629  18.67
CL08  4 -0.20104  0.82556  0.96553 11.00000  0.05474  18.16
CL09  4  1.51090  0.07481  0.76795 11.00000  0.05225  17.81
CL0A  4 -0.00415  0.85897  0.89722 11.00000  0.08809  17.17
CL0B  4 -0.39004  0.48843  0.11145 11.00000  0.06933  15.46
CL0C  4  0.60806  0.53749  0.90216 11.00000  0.08807  15.06
CL0D  4  0.13636  0.22235  0.15164 11.00000  0.06908  14.45
CL0E  4  0.51326  0.60383  0.49725 11.00000  0.06283  14.30
CL0F  4  0.67547  0.10389  0.85627 11.00000  0.12564  13.79
CL0G  4 -0.13141  0.59018  0.65699 11.00000  0.11884  13.54
CL0H  4  1.47079  0.97042 -0.04854 11.00000  0.07293  13.42
CL0I  4 -0.36045  0.08239  0.56955 11.00000  0.05979  12.94
CL0J  4  1.03849  0.17825  0.71606 11.00000  0.07472  12.65
O00K  3  1.50890  0.20492  0.70489 11.00000  0.00769  11.74
O00L  3  0.20992  0.53456  0.81762 11.00000  0.04979  11.72
N00M  2  0.89148  0.11504  0.78273 11.00000  0.02312  11.72
O00N  3 -0.22610  0.02012  0.49942 11.00000  0.04249  11.58
CL0O  4 -0.27883  0.14586  0.35987 11.00000  0.07893  11.29
O00P  3 -0.15949  0.24971  0.17548 11.00000  0.07316  11.23
O00Q  3 -0.52008  0.69053  0.66977 11.00000  0.05125  11.13
O00R  3  0.47534  0.44178  0.34328 11.00000  0.02963  11.12
O00S  3  1.62264  0.93810  0.06363 11.00000  0.01079  10.91
C00T  1 -0.14090  0.74346  0.72478 11.00000  0.00010  10.86
O00U  3  0.25786  0.62725  0.56731 11.00000  0.01303  10.65
O00V  3 -0.08807  0.27918  0.57254 11.00000  0.00474  10.55
O00W  3  1.13537  0.74633  0.21193 11.00000  0.04345  10.54
O00X  3 -0.25096 -0.05558  0.63485 11.00000  0.04239  10.52
O00Y  3  1.22409  0.11275  0.76872 11.00000  0.00508  10.30
O00Z  3  0.04540  0.65397  1.04854 11.00000  0.02110  10.26
O010  3 -0.16864  0.80764  0.81308 11.00000  0.06322  10.22
O011  3  0.14627  0.32627  0.25402 11.00000  0.01026  10.17
C012  1 -0.71645 -0.03161  0.59408 11.00000  0.00010  10.03
O013  3  0.75790  0.69031  0.40676 11.00000  0.03694  10.01
O014  3 -0.39881  0.13750  0.25969 11.00000  0.02773   9.99
O015  3 -0.81014 -0.10008  0.50754 11.00000  0.01337   9.89
O016  3 -0.00441  0.88271  0.95473 11.00000  0.02287   9.78
O017  3  0.74011  0.35466  0.99232 11.00000  0.02223   9.63
O018  3  0.17355  0.65815  0.93934 11.00000  0.00894   9.52
O019  3  1.46675  0.82432  0.07554 11.00000  0.02841   9.51
N01A  2  0.42899  0.53572  0.95361 11.00000  0.04559   9.29
N01B  2  1.29081  0.96817  0.24033 11.00000  0.05400   8.91
O01C  3  0.83156  0.35540  0.95104 11.00000  0.03616   8.87
O01D  3  0.48034  0.39362  0.48733 11.00000  0.01519   8.81
O01E  3  1.44711  0.90708  0.35742 11.00000  0.01913   8.70
O01F  3  0.33305  0.40357  0.23011 11.00000  0.03192   8.50
O01G  3  0.64808  0.54484  0.56842 11.00000  0.03969   8.13
O01H  3  0.36069  0.61647  0.85675 11.00000  0.03277   7.89
O01I  3  0.32764  0.41276  0.33255 11.00000  0.05364   7.86
O01J  3  0.25679  0.83644  0.72797 11.00000  0.07241   7.77
O01K  3  0.45113  0.35811  0.88022 11.00000  0.00982   7.73
O01L  3  0.76394  0.14157  0.91240 11.00000  0.07851   7.70
O01M  3  0.60930  0.29711  0.80674 11.00000  0.01480   7.61
N01N  2  0.64217  0.41930  0.93023 11.00000  0.00932   7.39
N01O  2  0.09776  0.75377  0.63034 11.00000  0.00010   7.32
N01P  2  0.65528  0.50381  0.46711 11.00000  0.00404   7.18
N01Q  2  0.00966  0.41227  0.26907 11.00000  0.03278   7.14
N01R  2  1.81014  0.96589  0.12310 11.00000  0.00426   7.09
N01S  2  0.38179  0.53822  0.74848 11.00000  0.00706   7.08
N01T  2 -0.18821  0.49238  0.22790 11.00000  0.03468   6.89
N01U  2  0.06230  0.40792  0.62864 11.00000  0.01981   6.85
N01V  2  0.90918  0.39663  0.84596 11.00000  0.03579   6.74
N01W  2  0.32014  0.29122  0.07221 11.00000  0.03591   6.67
N01X  2  0.29795  0.34686  0.55835 11.00000  0.00870   6.60
N01Y  2  0.00845  0.70450  0.87307 11.00000  0.01149   6.58
C01Z  1 -0.35099  0.53713  0.18407 11.00000  0.00256   5.97
N020  2 -0.48895 -0.01549  0.64857 11.00000  0.01293   5.94
C021  1  0.42858  0.38364  0.83404 11.00000  0.00010   5.85
C022  1 -0.17201  0.09163  0.23373 11.00000  0.00010   5.62
C023  1 -0.05600  0.19490  0.47918 11.00000  0.00289   5.45
C024  1  0.79871  0.20549  0.77607 11.00000  0.01760   5.40
C025  1  0.28351  0.26940  0.61425 11.00000  0.00218   4.99
C026  1  0.07938  0.81753  0.67304 11.00000  0.03860   4.72
C027  1  0.90919  0.37300  1.02400 11.00000  0.00369   4.72
C028  1 -0.26291  0.64029  1.01660 11.00000  0.00290   4.36
C029  1  1.66439  1.10008  0.01690 11.00000  0.02549   4.11
C02A  1 -0.08774  0.11702  0.49104 11.00000  0.00010   4.05
O02B  3  0.32072  0.42078  0.83344 11.00000  0.04255   4.04
C02C  1  1.16336  0.76101  0.34977 11.00000  0.00430   4.00
C02D  1  1.67495  0.73944  0.13220 11.00000  0.07578   3.95
HKLF 4
END
