TITL 11_a.res in P1
REM Old TITL 11 in P1
REM SHELXT solution in P1: R1 0.334, Rweak 0.373, Alpha 0.000
REM <I/s>   0.000 for    0 systematic absences,  Orientation as input
REM Flack x =  0.142 ( 0.170 ) from    45 Parsons' quotients
REM Formula found by SHELXT:  C31 N13 O20 Cl17 Br2

CELL  0.71073   4.8200  11.4500  19.4500   90.000   83.000   90.000
ZERR   14.000   0.0010   0.0023   0.0039    0.030    0.030    0.030
LATT -1
SFAC C N O CL BR
UNIT 14 14 14 14 0
L.S. 10
BOND
LIST 6
FMAP 2
PLAN 20
BR01  5  0.17226 -0.06918  0.24108 11.00000  0.07866  34.07
BR02  5  0.86107  0.34851  0.38625 11.00000  0.10633  27.28
CL03  4  0.29901  0.04189  0.46719 11.00000  0.05124  24.55
CL04  4 -0.21002  0.83446  0.51868 11.00000  0.06500  24.03
CL05  4  0.71136  0.82677  0.39238 11.00000  0.06943  23.36
CL06  4  0.76315  0.40549  0.35025 11.00000  0.02430  22.23
CL07  4  0.92000  0.80682  0.33540 11.00000  0.07398  19.64
CL08  4  0.04062  0.85670  0.96003 11.00000  0.10577  17.91
CL09  4  0.40309  0.00509  0.23972 11.00000  0.12050  17.73
CL0A  4  1.49062  0.61768  0.30515 11.00000  0.07779  17.40
CL0B  4  0.89683  0.49100  0.22509 11.00000  0.08940  15.87
CL0C  4  0.51343  0.29253  0.58891 11.00000  0.06145  15.44
CL0D  4 -0.23148  0.92203  0.70706 11.00000  0.09835  15.28
CL0E  4  0.05357  1.04048  0.90302 11.00000  0.06526  15.06
CL0F  4  0.62779  0.19680  0.69617 11.00000  0.05921  14.92
CL0G  4  0.03699 -0.18153  0.22336 11.00000  0.07041  14.80
CL0H  4  0.61923  0.29242  0.44819 11.00000  0.09004  13.02
CL0I  4 -0.03532  0.36179  0.68740 11.00000  0.07480  12.98
CL0J  4  0.87921  0.44300  0.28815 11.00000  0.05947  12.89
O00K  3  0.00188  0.76959  0.48534 11.00000  0.02908  12.38
O00L  3  1.06232  0.46071  0.44289 11.00000  0.00010  12.24
O00M  3  0.61206  0.17779  0.64616 11.00000  0.04162  12.15
O00N  3  0.43542  0.21271  0.30725 11.00000  0.02570  11.94
O00O  3  0.29311  0.92156  0.86211 11.00000  0.03677  11.43
N00P  2  0.14477  0.41460  0.68345 11.00000  0.00922  11.33
N00Q  2  0.69434  0.87508  0.35517 11.00000  0.06390  11.11
O00R  3  0.46947  0.48911  0.53101 11.00000  0.08036  10.86
O00S  3  0.61603  0.87961  0.41257 11.00000  0.03404  10.63
O00T  3  0.17498  0.07883  0.57874 11.00000  0.01667  10.43
O00U  3  0.34574 -0.00093  0.17436 11.00000  0.02375  10.40
O00V  3  0.11410 -0.00330  0.37459 11.00000  0.00010  10.05
C00W  1  0.65917  0.66249  0.44652 11.00000  0.00120   9.59
N00X  2  0.43450  0.74187  0.52650 11.00000  0.00800   9.20
O00Y  3  0.03168  0.60349  0.58822 11.00000  0.02823   8.85
C00Z  1  0.00525  0.21655  0.46217 11.00000  0.00131   8.66
O010  3  0.53667 -0.33929  0.04379 11.00000  0.03006   8.44
O011  3  0.30532  0.96749  0.96073 11.00000  0.04821   8.39
N012  2  0.83004 -0.27443  0.06323 11.00000  0.01003   8.24
O013  3 -0.57207  0.85810  0.64162 11.00000  0.04767   7.96
O014  3 -0.34227 -0.16978  0.25461 11.00000  0.03425   7.87
O015  3  0.32486  0.23811  0.47047 11.00000  0.01307   7.81
O016  3  0.23266  0.03651  0.38428 11.00000  0.01157   7.75
N017  2  0.24017  0.34888  0.62792 11.00000  0.00281   7.64
N018  2  0.24707  0.86931  0.94313 11.00000  0.02394   7.42
O019  3  0.27071  0.52599  0.78797 11.00000  0.04814   7.32
O01A  3  0.18948  1.26590  0.97150 11.00000  0.07075   7.26
N01B  2  1.11282 -0.40685  0.02850 11.00000  0.04621   7.13
N01C  2  0.71532  0.22196  0.59465 11.00000  0.02925   6.95
N01D  2  0.82811  0.34618  0.28148 11.00000  0.01121   6.82
N01E  2  0.42045  0.13119  0.19832 11.00000  0.03993   6.65
N01F  2  0.75847  0.46643  0.43462 11.00000  0.00103   6.57
C01G  1  0.11290  0.67303  0.52473 11.00000  0.05045   6.13
C01H  1  1.18990  0.67391  0.37169 11.00000  0.02491   6.09
C01I  1  0.99532  0.57206  0.33245 11.00000  0.00941   6.07
C01J  1  0.89033  0.28199  0.20084 11.00000  0.01348   5.96
C01K  1  1.21304  0.24433  0.12818 11.00000  0.00010   5.71
C01L  1  0.81464  0.59918  0.41505 11.00000  0.01814   5.64
C01M  1 -0.01763  1.05983  0.72420 11.00000  0.00032   5.58
C01N  1  0.28069  0.69906  0.58110 11.00000  0.00010   5.49
C01O  1  0.14108  0.09126  0.30704 11.00000  0.00417   5.48
C01P  1 -0.12693  0.49435  0.66255 11.00000  0.02022   5.31
C01Q  1  1.32001  0.51099  0.26247 11.00000  0.02530   5.22
C01R  1  0.60863  0.13638  0.10109 11.00000  0.00010   5.06
C01S  1  0.01624  1.22778  0.87270 11.00000  0.02844   5.05
C01T  1  0.72811  0.28472  0.23517 11.00000  0.00010   5.01
O01U  3 -0.09824  0.13367  0.44437 11.00000  0.02320   4.86
C01V  1 -0.25491  0.83678  0.60436 11.00000  0.02889   4.64
C01W  1  0.35883  0.19660  0.23734 11.00000  0.02489   4.55
C01X  1  0.20284  0.39332  0.58462 11.00000  0.00010   4.44
C01Y  1  1.57207  0.37787  0.12173 11.00000  0.01856   4.38
C01Z  1  0.60106  0.18545  0.31358 11.00000  0.01568   4.19
N020  2  0.55489  0.72491  0.46758 11.00000  0.01485   4.17
C021  1  0.54742 -0.35404  0.08289 11.00000  0.01143   4.01
C022  1  0.28721  0.78362  0.80819 11.00000  0.00010   4.01
C023  1  0.12396  0.38477  0.75481 11.00000  0.01560   4.00
C024  1 -0.25310  0.69418  0.71369 11.00000  0.00010   4.00
C025  1  0.51634  0.84399  0.84862 11.00000  0.02802   3.98
C026  1  1.04489 -0.15237  0.11833 11.00000  0.00842   3.87
C027  1  0.87048 -0.05206  0.08611 11.00000  0.02588   3.87
N028  2  0.78386  0.04542  0.07834 11.00000  0.02681   3.73
C029  1  0.26767  1.40685  0.88835 11.00000  0.01316   3.72
C02A  1 -0.13204  1.16829  0.80055 11.00000  0.03835   3.68
C02B  1  1.13422 -0.26501  0.04665 11.00000  0.00642   3.68
HKLF 4
END
