TITL 12_a.res in P1
REM Old TITL 12 in P1
REM SHELXT solution in P1: R1 0.256, Rweak 0.226, Alpha 0.000
REM <I/s>   0.000 for    0 systematic absences,  Orientation as input
REM Flack x =  0.284 ( 0.504 ) from   151 Parsons' quotients
REM Formula found by SHELXT:  C37 N15 O9 Cl2

CELL  0.71073   4.8600  11.5200  19.5600   90.000   83.870   90.000
ZERR   14.000   0.0010   0.0023   0.0039    0.030    0.030    0.030
LATT -1
SFAC C N O CL
UNIT 14 14 14 14
L.S. 10
BOND
LIST 6
FMAP 2
PLAN 20
CL01  4 -0.00795  0.27283  0.56310 11.00000  0.09616  22.54
CL02  4  0.63666  0.13811  0.58402 11.00000  0.13367  15.02
C003  1  0.98903  0.21022  0.45654 11.00000  0.01273  12.87
O004  3  0.15915  0.30804  0.64870 11.00000  0.02503  11.94
O005  3  0.51026  0.53331  0.28271 11.00000  0.04295  11.43
N006  2  0.71304  0.17995  0.51566 11.00000  0.06455  10.71
O007  3  1.12638  0.91976  0.67384 11.00000  0.05199  10.38
N008  2  0.17234  0.34741  0.71291 11.00000  0.02415  10.32
N009  2  0.32579  0.42122  0.69502 11.00000  0.04216  10.07
O00A  3  0.47792  0.03519  0.61934 11.00000  0.03410  10.00
O00B  3  0.34181  0.35610  0.11695 11.00000  0.08461   9.99
O00C  3  0.37168  0.26114  0.00491 11.00000  0.13546   9.89
N00D  2  0.52288  0.08540  0.69988 11.00000  0.01994   9.58
O00E  3  1.06504  0.31004  0.45007 11.00000  0.03537   9.25
N00F  2  0.49011  0.11550  0.74307 11.00000  0.01328   8.57
N00G  2  1.11923  0.13292  0.38147 11.00000  0.05475   8.54
O00H  3  0.29014  0.44398  0.51710 11.00000  0.06209   8.43
O00I  3 -0.20070  0.52267  0.85604 11.00000  0.05484   8.05
N00J  2  0.94324  0.86803  0.71532 11.00000  0.08626   7.45
N00K  2 -0.08470  0.27612  0.87180 11.00000  0.09369   7.40
N00L  2  0.57824  0.48676  0.38941 11.00000  0.07387   6.95
N00M  2  0.80185  0.57481  0.16337 11.00000  0.06880   6.92
N00N  2  0.69757  0.01205  0.81625 11.00000  0.10653   6.64
C00O  1  0.21209  0.49053  0.36446 11.00000  0.08571   6.27
C00P  1  1.32889  0.05276  0.38198 11.00000  0.07105   6.14
C00Q  1  0.99343  0.84791  0.65104 11.00000  0.10117   6.09
C00R  1  0.17898  0.53705  0.89985 11.00000  0.04577   5.99
C00S  1 -0.32889  0.59097  0.92946 11.00000  0.14693   5.97
C00T  1  0.88534  0.67554  0.65376 11.00000  0.07610   5.87
C00U  1  0.72548  0.63016  0.54243 11.00000  0.07877   5.85
C00V  1  0.16475  0.09031  0.71642 11.00000  0.01527   5.82
C00W  1  0.87808  0.00673  0.51464 11.00000  0.04054   5.73
C00X  1 -0.05941  0.40866  0.74686 11.00000  0.06567   5.63
N00Y  2  0.01591  0.75079  0.85686 11.00000  0.03697   5.46
C00Z  1  0.80349  0.08868  0.90594 11.00000  0.10594   5.42
C010  1  0.77289  0.70366  0.50401 11.00000  0.02952   5.38
C011  1  0.58522  0.54472  0.49471 11.00000  0.05415   5.31
C012  1  0.10482  0.38684  0.22653 11.00000  0.07858   5.29
C013  1  0.33847  0.49840  0.25849 11.00000  0.05769   5.17
C014  1 -0.08673  0.25680  0.80424 11.00000  0.07549   5.10
C015  1  0.90105  0.99327  0.26755 11.00000  0.03074   5.09
C016  1  0.21846  0.17649  0.08378 11.00000  0.06279   5.05
C017  1  0.10258  0.86907  0.99509 11.00000  0.04285   5.04
N018  2  1.05113  0.81566  0.37115 11.00000  0.09370   5.01
C019  1  0.63470  0.11291  0.85870 11.00000  0.02694   5.00
C01A  1  0.29279  0.51768  0.67880 11.00000  0.04890   4.96
C01B  1  0.94770  0.68697  0.56511 11.00000  0.04140   4.67
C01C  1  1.20189  0.91285  0.15970 11.00000  0.04888   4.50
C01D  1  0.67791  0.54781  0.66595 11.00000  0.02654   4.46
C01E  1  0.98704  0.53020  0.10324 11.00000  0.09909   4.38
N01F  2  1.19905  0.67722  0.55621 11.00000  0.08721   4.32
C01G  1  1.23844  0.19614  0.45860 11.00000  0.06843   4.29
C01H  1  0.35620  0.13732  0.72674 11.00000  0.07250   4.18
C01I  1  0.65954  0.04494  0.77534 11.00000  0.02724   4.10
C01J  1  0.45186  0.18705  0.82441 11.00000  0.05152   3.84
C01K  1  0.78093  0.79646  0.73267 11.00000  0.07348   3.82
C01L  1  0.03949  0.64579  0.31572 11.00000  0.05176   3.67
C01M  1  0.92226  0.78303  0.54972 11.00000  0.05808   3.61
N01N  2  0.18702  0.29955  0.79041 11.00000  0.04598   3.45
C01O  1  0.32965  0.19556  0.78938 11.00000  0.11568   3.40
C01P  1  0.45427  0.34087  0.88597 11.00000  0.10891   3.35
C01Q  1  0.94600  0.76949  0.43345 11.00000  0.03776   3.34
C01R  1  0.41954  0.27766  0.05884 11.00000  0.08013   3.24
HKLF 4
END
