TITL 14_a.res in P1
REM Old TITL 14 in P1
REM SHELXT solution in P1: R1 0.384, Rweak 0.530, Alpha 0.000
REM <I/s>   0.000 for    0 systematic absences,  Orientation as input
REM Flack x =  0.209 ( 0.673 ) from    87 Parsons' quotients
REM Formula found by SHELXT:  C46 N12 O15 Cl2

CELL  0.71073   4.8500  11.5100  19.5000   90.000   83.670   90.000
ZERR   14.000   0.0010   0.0023   0.0039    0.030    0.030    0.030
LATT -1
SFAC C N O CL
UNIT 14 14 14 14
L.S. 10
BOND
LIST 6
FMAP 2
PLAN 20
CL01  4  0.96761  0.58264  0.69775 11.00000  0.11430  13.22
CL02  4  1.17316  0.40245  0.88894 11.00000  0.11323  12.82
N003  2  0.50188  0.67578  0.53897 11.00000  0.03867  12.05
O004  3  0.32040  0.00404  0.29128 11.00000  0.04701  11.96
O005  3  1.46082  0.71191  0.91401 11.00000  0.04152  10.79
O006  3  1.13593  0.39093  0.59319 11.00000  0.04857  10.27
O007  3  1.20613  0.48132  0.40175 11.00000  0.05459  10.16
N008  2  0.83942  0.47012  0.95174 11.00000  0.03892   9.98
N009  2  1.03537  0.79210  0.26640 11.00000  0.04321   8.53
O00A  3  1.10844  0.66942  0.94410 11.00000  0.08855   8.38
N00B  2  0.93934  0.47821  0.97745 11.00000  0.08946   8.37
N00C  2  0.79865  0.51802  0.56905 11.00000  0.04951   8.19
O00D  3 -0.34012 -0.25676  0.72247 11.00000  0.04404   8.02
O00E  3  1.68195  0.84677  0.81937 11.00000  0.18510   7.89
O00F  3  0.35612  0.15511  0.71412 11.00000  0.11093   7.76
C00G  1  0.73204  0.32079  0.23063 11.00000  0.05127   7.74
O00H  3  0.84914  0.39337  0.15678 11.00000  0.03353   7.51
O00I  3  1.12914  0.86884  0.20608 11.00000  0.09639   7.51
O00J  3  0.21343 -0.09096  0.77502 11.00000  0.06920   7.45
N00K  2  1.02166  0.44186  0.75565 11.00000  0.02044   7.35
C00L  1  0.67038  0.62482  0.56380 11.00000  0.04963   7.01
C00M  1  0.61460  0.60129  0.45258 11.00000  0.02603   6.94
N00N  2  0.69893  0.44215  0.80351 11.00000  0.02977   6.86
N00O  2 -0.68195 -0.10733  0.64618 11.00000  0.05346   6.79
C00P  1  1.17710  0.74539  0.22532 11.00000  0.01901   6.75
O00Q  3  0.73141  0.27144  0.16380 11.00000  0.10302   6.72
N00R  2  0.66416  0.62396  1.07080 11.00000  0.04223   6.58
N00S  2  0.88489  0.61656  0.98248 11.00000  0.02983   6.56
C00T  1  0.62713  0.18927  0.49698 11.00000  0.08078   6.43
C00U  1  0.36806  0.55940  1.09826 11.00000  0.07425   6.30
C00V  1  1.33655  1.17036 -0.10535 11.00000  0.06024   6.16
C00W  1  0.92786  0.21068  0.16078 11.00000  0.08698   6.08
C00X  1  0.67268  0.86328  0.34673 11.00000  0.04470   5.95
C00Y  1  1.64177  1.25676 -0.14458 11.00000  0.02346   5.90
C00Z  1  1.49969  1.16328 -0.02996 11.00000  0.13433   5.87
C010  1  1.37625  0.43079  0.29453 11.00000  0.04244   5.84
C011  1  0.86133  0.71820  0.24180 11.00000  0.03126   5.53
C012  1  1.07957  0.97224  0.13083 11.00000  0.04502   5.51
O013  3  0.65675  0.98457  0.16599 11.00000  0.07609   5.34
C014  1  0.64377  0.65245  1.14458 11.00000  0.02108   5.32
C015  1  0.12779  0.10806  0.59088 11.00000  0.02354   5.29
C016  1  0.50909  0.78589  0.53047 11.00000  0.02547   5.26
C017  1 -0.05845  0.04161  0.70634 11.00000  0.04417   5.20
C018  1  1.45094  0.45047  0.21291 11.00000  0.05846   4.99
C019  1  0.41990  0.68497  0.51427 11.00000  0.01623   4.91
C01A  1  0.84285  0.51535  0.90540 11.00000  0.04691   4.88
C01B  1  0.54946  0.52130  0.79924 11.00000  0.02261   4.74
C01C  1  1.34536  0.50676  0.93772 11.00000  0.03226   4.71
O01D  3  0.71857  0.50151  0.45837 11.00000  0.10238   4.64
C01E  1  1.15614  1.01453  0.02361 11.00000  0.04530   4.63
C01F  1  0.40258  0.10278  0.40215 11.00000  0.05539   4.53
C01G  1  0.27705  0.28305  0.67093 11.00000  0.09249   4.49
O01H  3  0.78523  0.33589  0.29887 11.00000  0.07041   4.47
C01I  1  1.06680  1.15001  0.01213 11.00000  0.05842   4.33
C01J  1 -0.28154 -0.08473  0.68290 11.00000  0.06359   4.29
N01K  2  0.37229  0.61603  0.77141 11.00000  0.02579   4.16
C01L  1  0.85159  0.55077  0.65215 11.00000  0.06923   4.12
C01M  1  0.01331  0.02452  0.54548 11.00000  0.04524   4.09
C01N  1  1.09307  0.42278  0.21060 11.00000  0.06168   4.04
C01O  1  0.90289  0.45909  0.80588 11.00000  0.07124   4.03
C01P  1  1.52088  1.10672 -0.11246 11.00000  0.02394   3.97
C01Q  1  0.46971  0.22693  0.59027 11.00000  0.02200   3.88
C01R  1  1.57895  0.79297  0.86959 11.00000  0.03030   3.81
C01S  1  0.83661  0.56642  1.06113 11.00000  0.07101   3.78
C01T  1  0.79202  0.69365  0.36521 11.00000  0.05186   3.74
C01U  1  0.68409  0.43561  0.55114 11.00000  0.02170   3.54
C01V  1  0.79581  0.74776  0.61184 11.00000  0.03456   3.50
C01W  1  0.85700  0.30559  0.53307 11.00000  0.06731   3.44
N01X  2  1.43967  0.95912  0.04820 11.00000  0.08376   3.36
C01Y  1  0.64697  0.65327  0.29346 11.00000  0.04918   3.25
C01Z  1  0.20060  0.06119  0.36145 11.00000  0.07789   3.22
C020  1  0.60355  0.46609  0.70461 11.00000  0.09972   3.21
C021  1  0.56750  0.18004  0.56055 11.00000  0.05997   3.09
C022  1 -0.01644  0.04645  0.65553 11.00000  0.13037   3.05
C023  1  0.86905  0.87051  0.17065 11.00000  0.03813   3.04
HKLF 4
END
