TITL 16_a.res in P1
REM Old TITL 16 in P1
REM SHELXT solution in P1: R1 0.377, Rweak 0.531, Alpha 0.000
REM <I/s>   0.000 for    0 systematic absences,  Orientation as input
REM Flack x =  0.499 ( 0.447 ) from    76 Parsons' quotients
REM Formula found by SHELXT:  C31 N9 O31 Cl10

CELL  0.71073   4.8400  11.4600  19.4900   90.000   83.350   90.000
ZERR   14.000   0.0010   0.0023   0.0039    0.030    0.030    0.030
LATT -1
SFAC C N O CL
UNIT 14 14 14 14
L.S. 10
BOND
LIST 6
FMAP 2
PLAN 20
CL01  4 -0.26139  0.11376  0.54472 11.00000  0.09061  17.21
CL02  4  1.48996  0.18823  0.94873 11.00000  0.08499  15.99
CL03  4 -0.02592  0.17082  0.51642 11.00000  0.08531  15.12
CL04  4  0.15341  0.21771  0.45045 11.00000  0.08108  13.93
CL05  4 -0.23775 -0.01822  0.42323 11.00000  0.09798  13.59
O006  3 -0.97865 -0.03190  0.68268 11.00000  0.04887  13.53
CL07  4  1.97865  0.20753  0.98952 11.00000  0.10863  13.21
CL08  4  0.66693  0.59154  0.35732 11.00000  0.08255  13.14
CL09  4 -0.29941  0.38221  0.59926 11.00000  0.09580  13.13
CL0A  4 -0.43385  0.07019  0.73431 11.00000  0.09780  12.78
O00B  3 -0.37478  0.11979  0.68488 11.00000  0.01891  12.16
O00C  3  1.15249  0.49995  0.78117 11.00000  0.02156  11.58
N00D  2  0.03711  0.80627  0.43053 11.00000  0.04855  11.52
O00E  3 -0.04662  0.19453  0.36017 11.00000  0.10627  11.27
CL0F  4  0.65168  0.71254  0.89751 11.00000  0.16423  11.25
O00G  3  0.38676  0.87379  0.28983 11.00000  0.04514  10.85
O00H  3  0.36470  0.71793  0.34676 11.00000  0.00981  10.70
N00I  2  0.01583  0.35772  0.53902 11.00000  0.00899  10.33
O00J  3 -0.53952 -0.05268  0.52436 11.00000  0.07458  10.10
O00K  3 -0.02629  0.68481  0.09085 11.00000  0.05191  10.08
O00L  3  1.21441  0.12680  0.85043 11.00000  0.05744  10.05
O00M  3 -0.11336  0.16032  0.28114 11.00000  0.13427   9.84
C00N  1  1.21926  0.53245  0.84482 11.00000  0.03923   9.68
O00O  3  1.66436  0.32510  0.99139 11.00000  0.07990   9.66
O00P  3  0.77743  0.65586  0.55679 11.00000  0.05798   9.59
C00Q  1 -0.35071  0.01166  0.49598 11.00000  0.04834   9.44
O00R  3  0.43687  0.24800  0.44881 11.00000  0.06251   9.07
O00S  3 -0.18513  0.25316  0.19908 11.00000  0.03063   8.89
O00T  3  0.92041  0.72596  0.70408 11.00000  0.05985   8.86
O00U  3  1.84233  0.49727  0.99792 11.00000  0.17076   8.81
O00V  3 -0.24990  0.36153  0.53873 11.00000  0.04722   8.77
O00W  3 -0.35173  0.17876  0.34927 11.00000  0.07146   8.74
O00X  3  0.55972  0.62735  0.26395 11.00000  0.05314   8.55
O00Y  3  0.46376  0.94828  0.22923 11.00000  0.10253   8.47
O00Z  3  0.30513  0.40332  0.16269 11.00000  0.05393   8.41
O010  3  0.20230  0.79675  0.58538 11.00000  0.06813   8.22
O011  3  0.49746  0.50853  0.26693 11.00000  0.10235   8.12
N012  2  0.14591  0.85176  0.34559 11.00000  0.09145   7.93
O013  3  0.80122  0.86435  0.16629 11.00000  0.04659   7.79
N014  2  0.37442  0.73597  0.65751 11.00000  0.01865   7.76
O015  3  0.22257  0.42790  0.21688 11.00000  0.02603   7.75
O016  3  0.49788  0.62730  0.45858 11.00000  0.06814   7.71
O017  3  0.56171  0.75810  0.85560 11.00000  0.07824   7.60
N018  2  1.34935  0.46531  0.89046 11.00000  0.07435   7.46
N019  2 -0.42665  0.15512  0.59135 11.00000  0.07146   7.42
O01A  3  1.75219  0.30696  0.89967 11.00000  0.06107   7.22
C01B  1  0.36457  0.92928  0.37546 11.00000  0.02135   7.17
O01C  3  0.61476  0.91201  0.10058 11.00000  0.06463   6.98
N01D  2 -0.15228  0.25122  0.46716 11.00000  0.05156   6.98
C01E  1  0.20980  0.86461  0.43983 11.00000  0.02381   6.96
C01F  1  0.50195  0.74907  0.36069 11.00000  0.02614   6.89
N01G  2 -0.81564  0.21746  0.63170 11.00000  0.03318   6.87
N01H  2  0.80791  0.63813  0.84761 11.00000  0.01443   6.80
C01I  1  0.06313  0.79683  0.06608 11.00000  0.02271   6.46
C01J  1 -0.10918  0.10151  0.20381 11.00000  0.01264   6.33
C01K  1 -0.06465  0.82560  0.48612 11.00000  0.02207   6.32
C01L  1  0.83477  0.56694  0.46612 11.00000  0.02371   6.09
C01M  1  0.18081  0.46825  0.55487 11.00000  0.04379   6.04
C01N  1  0.47284  0.85599  0.24160 11.00000  0.04737   5.91
C01O  1  0.29143  1.05268  0.04202 11.00000  0.06256   5.78
C01P  1 -0.19581 -0.00955  0.83102 11.00000  0.02904   5.68
C01Q  1 -0.24839  0.40715  0.42350 11.00000  0.05847   5.47
C01R  1  0.20170  0.30821  0.27139 11.00000  0.02621   5.32
C01S  1  1.38022  0.33444  0.87861 11.00000  0.04484   5.24
C01T  1  0.43182  0.67709  0.58081 11.00000  0.00585   5.03
C01U  1 -0.01833  0.34111  0.36008 11.00000  0.01182   5.00
C01V  1  0.52952  0.41528  0.10359 11.00000  0.03278   4.89
C01W  1  0.33890  0.93602  0.07796 11.00000  0.02691   4.83
C01X  1  0.39811  0.50972  0.42127 11.00000  0.03717   4.76
C01Y  1  0.08912  0.77772  0.49574 11.00000  0.06681   4.68
C01Z  1 -0.01236  0.19690  0.18224 11.00000  0.02957   4.58
C020  1  0.85966  0.69252  0.76067 11.00000  0.02339   4.56
C021  1  0.26207  0.62616  0.31610 11.00000  0.01762   4.19
C022  1  0.12021  0.42180  0.47925 11.00000  0.09020   4.09
C023  1 -0.76306  0.02890  0.73270 11.00000  0.00884   4.06
C024  1  1.51971  0.22184  0.85155 11.00000  0.05017   3.87
C025  1 -0.30384  0.26460  0.27267 11.00000  0.01229   3.65
O026  3  0.12985  0.84256  0.00208 11.00000  0.07763   3.52
C027  1  0.21820  0.93985  0.39128 11.00000  0.03870   3.44
O028  3  0.13128  0.76103  0.11901 11.00000  0.07856   3.24
C029  1  0.69296  0.67100  0.71542 11.00000  0.11261   3.18
HKLF 4
END
