TITL 17_a.res in P1
REM Old TITL 17 in P1
REM SHELXT solution in P1: R1 0.381, Rweak 0.483, Alpha 0.000
REM <I/s>   0.000 for    0 systematic absences,  Orientation as input
REM Flack x =  0.312 ( 0.768 ) from    69 Parsons' quotients
REM Formula found by SHELXT:  C32 N16 O25 Cl10

CELL  0.71073   4.8100  11.5000  19.3900   90.000   82.890   90.000
ZERR   14.000   0.0010   0.0023   0.0039    0.030    0.030    0.030
LATT -1
SFAC C N O CL
UNIT 14 14 14 14
L.S. 10
BOND
LIST 6
FMAP 2
PLAN 20
CL01  4  0.68542  0.40450  0.40007 11.00000  0.08404  18.97
CL02  4  1.28402  0.23971  0.19701 11.00000  0.15915  16.07
CL03  4  0.22342  0.65704  0.32176 11.00000  0.07989  15.89
CL04  4  0.10020  0.82882  0.36055 11.00000  0.10266  15.86
CL05  4 -0.11456  0.82950  0.31402 11.00000  0.10255  14.81
CL06  4  1.17598  0.23819  0.27228 11.00000  0.16363  14.70
CL07  4  0.21606  1.19410  0.37241 11.00000  0.12173  14.41
CL08  4  0.01190  0.96442  0.32191 11.00000  0.10639  13.23
CL09  4  0.76989  0.47084  0.55325 11.00000  0.08819  13.20
O00A  3  0.52628  0.47766  0.44212 11.00000  0.03796  12.30
CL0B  4  1.36423  0.73555  0.58104 11.00000  0.09527  12.28
O00C  3  0.02805  0.92027  0.23658 11.00000  0.04849  11.70
O00D  3  0.81999  0.24146  0.81156 11.00000  0.01248  11.58
O00E  3  0.02956  0.85109  0.43249 11.00000  0.11553  11.45
O00F  3 -0.13439  1.06501  0.33748 11.00000  0.02448  11.22
O00G  3  0.36882  0.03057  0.82539 11.00000  0.04532  10.18
O00H  3  0.15834  0.65242  0.44117 11.00000  0.07468   9.80
N00I  2  0.39465  0.58568  0.22343 11.00000  0.03504   9.69
O00J  3  0.90347  0.31550  0.29222 11.00000  0.06150   9.65
C00K  1  0.60026  0.76192  0.23512 11.00000  0.03688   9.60
O00L  3  0.92908  0.34016  0.61350 11.00000  0.07116   9.48
O00M  3  0.30546  0.57370  0.06792 11.00000  0.02619   9.36
O00N  3  0.83910  0.47770  0.43872 11.00000  0.03053   9.29
O00O  3  0.69827  0.36325  0.34264 11.00000  0.04004   9.13
O00P  3  0.41363  0.95638  0.33727 11.00000  0.02842   8.97
O00Q  3  1.34048 -0.06303  0.12939 11.00000  0.04545   8.94
N00R  2  0.47630  0.68070  0.26581 11.00000  0.05825   8.81
O00S  3  1.41080  0.31697  0.28914 11.00000  0.06362   8.72
O00T  3  0.58458  0.41763  0.21376 11.00000  0.04731   8.48
O00U  3  0.40830 -0.19410  0.93015 11.00000  0.02607   8.34
O00V  3  0.57189  0.80719  0.18717 11.00000  0.04132   8.16
O00W  3  1.36212  0.32437  0.13936 11.00000  0.09679   8.15
N00X  2  0.58527 -0.15211  0.85745 11.00000  0.04174   8.12
O00Y  3  0.48028  0.56888  0.89438 11.00000  0.08787   7.99
O00Z  3 -0.26175  1.06715  0.44635 11.00000  0.07288   7.92
N010  2  1.09566  0.02466  0.11076 11.00000  0.04123   7.83
O011  3  0.34628  0.19706  0.77729 11.00000  0.04097   7.70
O012  3  0.41163  0.48269  0.74824 11.00000  0.07044   7.62
O013  3  0.26116  0.24485  0.70005 11.00000  0.05638   7.38
N014  2  0.42007  0.31202  0.46613 11.00000  0.04899   7.22
N015  2  0.68754  0.56470  0.13164 11.00000  0.06775   7.11
N016  2  0.67383  0.34542  0.72598 11.00000  0.04395   7.06
N017  2  0.90723  0.36122  0.25369 11.00000  0.04367   7.02
N018  2 -0.43935  1.02151  0.51705 11.00000  0.01965   7.00
N019  2  0.29626  0.65594  0.18087 11.00000  0.03982   6.99
N01A  2  1.21512  0.49735  0.62680 11.00000  0.07202   6.97
N01B  2  0.72147  0.66114  0.80058 11.00000  0.05971   6.86
N01C  2  0.23657  0.83200  0.27004 11.00000  0.03438   6.81
N01D  2 -0.47776  0.86862  0.44977 11.00000  0.04956   6.67
N01E  2  1.11288  0.79172  0.58282 11.00000  0.09088   6.63
N01F  2  0.55473  0.25702  0.98020 11.00000  0.04027   6.56
C01G  1  0.16546  1.11825  0.43951 11.00000  0.02606   6.40
C01H  1  0.60952  0.30719  0.86214 11.00000  0.00665   6.33
C01I  1  0.19649  0.29512  0.85893 11.00000  0.02237   6.28
O01J  3  0.60835  0.69836  0.01968 11.00000  0.04443   6.27
C01K  1  1.08688  0.01899  0.07422 11.00000  0.03087   6.13
C01L  1  0.60970  0.67353  0.73075 11.00000  0.03560   6.09
C01M  1 -0.04136 -0.03669  0.92489 11.00000  0.06586   5.95
C01N  1  1.47776  0.82397  0.58965 11.00000  0.00010   5.92
C01O  1 -0.44014  1.02033  0.55647 11.00000  0.02567   5.60
C01P  1 -0.31746  1.00158  0.22932 11.00000  0.01102   5.54
C01Q  1  0.25423 -0.11738  0.90766 11.00000  0.08892   5.51
C01R  1  0.21172  0.13150  0.76619 11.00000  0.02878   5.36
C01S  1  0.73368  0.27673  0.60500 11.00000  0.02402   5.35
C01T  1  0.41169  0.47281  0.23825 11.00000  0.03471   5.16
C01U  1  0.20544  0.38948  0.98717 11.00000  0.02648   5.13
C01V  1  0.53389  0.51033  0.16086 11.00000  0.03115   5.04
C01W  1  0.48532  0.37078  0.91447 11.00000  0.07515   5.02
C01X  1  0.46205 -0.13849  0.82407 11.00000  0.04298   4.96
C01Y  1  0.18149  1.04065  0.35571 11.00000  0.01819   4.82
C01Z  1  1.06077  0.09706  0.18477 11.00000  0.02605   4.72
C020  1  1.05666  0.77488  0.68472 11.00000  0.02155   4.70
C021  1  0.67980  0.78142  0.72009 11.00000  0.05584   4.67
C022  1  0.52396  0.45826  0.33643 11.00000  0.06354   4.50
C023  1  0.23646  0.69589  0.24496 11.00000  0.05838   4.48
C024  1  0.36566  0.69141  0.36986 11.00000  0.01945   4.37
C025  1  0.29510  0.37877  0.47572 11.00000  0.01250   4.25
C026  1  0.53225  0.82914  0.32912 11.00000  0.05757   4.23
C027  1  0.90879  0.12674  0.08186 11.00000  0.00933   4.12
C028  1  0.81602 -0.11012  0.84206 11.00000  0.03010   4.04
C029  1 -0.30460  1.08718  0.57020 11.00000  0.02733   4.00
C02A  1  0.96378  0.59712  0.69309 11.00000  0.07840   3.71
C02B  1  0.88528  0.71230  0.01283 11.00000  0.01907   3.67
HKLF 4
END
