TITL 18_a.res in P1
REM Old TITL 18 in P1
REM SHELXT solution in P1: R1 0.343, Rweak 0.448, Alpha 0.000
REM <I/s>   0.000 for    0 systematic absences,  Orientation as input
REM Flack x = -0.157 ( 0.411 ) from    57 Parsons' quotients
REM Formula found by SHELXT:  C53 N11 O15 Cl2

CELL  0.71073   4.8400  11.5500  19.5400   90.000   96.995   90.000
ZERR   14.000   0.0010   0.0023   0.0039    0.030    0.030    0.030
LATT -1
SFAC C N O CL
UNIT 14 14 14 14
L.S. 10
BOND
LIST 6
FMAP 2
PLAN 20
CL01  4  0.62949 -0.07016  0.64718 11.00000  0.07996  30.44
CL02  4  0.58415 -0.12464  0.70773 11.00000  0.11317  26.07
O003  3  0.44150  0.57162  0.36522 11.00000  0.04219  10.81
O004  3  0.55098 -0.05434  0.51061 11.00000  0.04903  10.55
C005  1  0.36555  0.61155  0.91339 11.00000  0.05753  10.07
O006  3  0.32648  0.70851  0.43929 11.00000  0.10120   9.88
O007  3  0.87937  0.21936  0.23287 11.00000  0.07527   9.10
N008  2  0.90332  0.89272  0.84159 11.00000  0.03308   8.85
N009  2  0.22398  0.08596  0.52861 11.00000  0.04161   8.54
O00A  3  1.04581  0.72197  0.52388 11.00000  0.08938   8.48
O00B  3  1.30443  0.57261  0.53602 11.00000  0.07622   8.02
O00C  3 -0.38013  0.60230  0.07156 11.00000  0.11489   7.91
O00D  3  0.42401  0.47271  0.24648 11.00000  0.11119   7.88
O00E  3  0.70572 -0.06661  0.26839 11.00000  0.14575   7.77
O00F  3  0.19454  0.45932  0.65631 11.00000  0.07340   7.68
O00G  3 -0.14123  0.04119  0.78104 11.00000  0.05302   7.55
C00H  1  0.87684  0.19233  0.17287 11.00000  0.03753   7.50
N00I  2  0.07699  0.11340  0.62153 11.00000  0.06650   7.43
N00J  2 -0.08757  0.67357  0.08229 11.00000  0.12292   7.42
N00K  2  0.02304  0.16000  0.70080 11.00000  0.02921   7.18
C00L  1  0.65778 -0.09174  0.20098 11.00000  0.09142   7.00
N00M  2  1.09286  0.41450  0.38397 11.00000  0.04832   6.92
N00N  2  0.40870  0.39466  0.68941 11.00000  0.04464   6.87
N00O  2  0.62531  0.36250  0.66383 11.00000  0.05242   6.80
N00P  2  0.57282  0.00208  0.40219 11.00000  0.08560   6.78
N00Q  2  0.32971  0.75917  0.84881 11.00000  0.08117   6.74
C00R  1  0.01004  0.54310  0.77126 11.00000  0.05862   6.33
C00S  1  0.16267  0.19181  0.61954 11.00000  0.05216   6.30
O00T  3  1.40558  1.12464  0.92648 11.00000  0.06823   6.27
C00U  1  0.71069  0.50180  0.67957 11.00000  0.05142   6.26
O00V  3  0.16198  0.68729  0.92200 11.00000  0.08720   6.25
C00W  1  0.01345  0.14679  0.54653 11.00000  0.09279   6.12
C00X  1  0.16850  0.74079  0.08319 11.00000  0.09041   6.09
C00Y  1 -0.16698  0.51394  0.06034 11.00000  0.06196   6.08
O00Z  3  0.35898  0.32546  0.54034 11.00000  0.15153   5.87
C010  1  0.94947  0.80746  0.57905 11.00000  0.05790   5.85
C011  1  0.73738  0.46513  0.38883 11.00000  0.03206   5.68
C012  1  0.59167  0.92708  0.82629 11.00000  0.06173   5.63
C013  1  0.84496  0.40406  0.62530 11.00000  0.07478   5.63
C014  1  1.14380  0.63539  0.55615 11.00000  0.01735   5.63
C015  1  0.25864  0.51479  0.80129 11.00000  0.08928   5.61
C016  1  0.71985  0.80266  0.81903 11.00000  0.06670   5.60
C017  1  0.06075  0.78579  0.23546 11.00000  0.06069   5.58
C018  1  0.36575  0.43107  0.72929 11.00000  0.04614   5.36
C019  1  0.90358  0.22391  0.04733 11.00000  0.06718   5.23
C01A  1  0.45259  0.15135  0.44649 11.00000  0.12166   5.21
C01B  1  0.35437  0.02495  0.56389 11.00000  0.09912   4.93
C01C  1 -0.14894  0.69235  0.18597 11.00000  0.06733   4.91
C01D  1  0.94147  0.53940  0.66233 11.00000  0.05873   4.90
C01E  1  0.57100  0.28961  0.36476 11.00000  0.12078   4.79
N01F  2  0.81059  0.37762  0.31789 11.00000  0.05072   4.78
C01G  1  0.93086 -0.01163  0.43899 11.00000  0.05777   4.74
C01H  1  0.90900  0.53174  0.57729 11.00000  0.12098   4.70
C01I  1  0.70273 -0.00257  0.46696 11.00000  0.13436   4.65
C01J  1 -0.17373  0.04389  0.56306 11.00000  0.04354   4.64
C01K  1 -0.05320  0.19602  0.74448 11.00000  0.05463   4.61
C01L  1  0.49269  0.69212  0.85807 11.00000  0.09029   4.61
C01M  1  0.41063  0.03971  0.12056 11.00000  0.09168   4.59
C01N  1  1.11983  1.09676  0.92062 11.00000  0.15437   4.49
C01O  1  0.89247  1.03598  0.95499 11.00000  0.06756   4.36
C01P  1  1.18169  0.26593  0.39375 11.00000  0.08940   4.36
C01Q  1  0.32034  0.23648  0.66141 11.00000  0.09580   4.17
C01R  1  1.18539  0.91209  0.80444 11.00000  0.10837   4.17
C01S  1  0.71160  0.63963  0.85207 11.00000  0.04909   4.14
C01T  1  0.14859  0.56174  0.16317 11.00000  0.09991   4.06
C01U  1  0.45281  0.17873  0.34435 11.00000  0.15647   4.00
C01V  1  0.61131  0.28965  0.81839 11.00000  0.05252   3.97
C01W  1 -0.40558  0.65916  0.19570 11.00000  0.10182   3.92
C01X  1  0.37494  0.53029  0.29585 11.00000  0.05541   3.89
C01Y  1  0.62383  0.14717  0.29234 11.00000  0.06800   3.70
C01Z  1  0.99246  0.52688  0.51509 11.00000  0.01805   3.64
C020  1  0.73678  0.15499  0.09771 11.00000  0.04851   3.62
C021  1  0.68035  0.43224  0.27283 11.00000  0.04774   3.55
C022  1  0.09309  0.67343  0.82038 11.00000  0.05805   3.54
C023  1  0.74635  0.92871  0.93513 11.00000  0.08487   3.51
C024  1  0.37347  0.76615  0.32895 11.00000  0.05269   3.41
O025  3  0.82079  0.55700  0.50005 11.00000  0.10931   3.39
C026  1 -0.34835  0.75939  0.04501 11.00000  0.08038   3.10
C027  1  0.41827  0.37299  0.80376 11.00000  0.05289   3.09
C028  1  0.71557  0.49363  0.64351 11.00000  0.07473   3.04
C029  1 -0.05248  0.22750  0.66462 11.00000  0.04319   3.01
HKLF 4
END
