TITL 20_a.res in P1
REM Old TITL 20 in P1
REM SHELXT solution in P1: R1 0.344, Rweak 0.405, Alpha 0.000
REM <I/s>   0.000 for    0 systematic absences,  Orientation as input
REM Flack x = -0.406 ( 0.616 ) from   104 Parsons' quotients
REM Formula found by SHELXT:  C39 N18 O27 Cl11

CELL  0.71073   4.8200  11.5500  19.8930   90.000   96.874   90.000
ZERR   15.000   0.0010   0.0023   0.0040    0.030    0.030    0.030
LATT -1
SFAC C N O CL
UNIT 15 15 15 15
L.S. 10
BOND
LIST 6
FMAP 2
PLAN 20
CL01  4  0.37546  0.29639  0.63554 11.00000  0.09280  17.56
CL02  4 -0.15470  0.53775  0.71511 11.00000  0.10607  16.92
CL03  4  0.35004  0.78973  0.25589 11.00000  0.09041  16.51
CL04  4 -0.01075  0.70271  0.47254 11.00000  0.11818  16.13
CL05  4 -0.33939  0.83855  0.55179 11.00000  0.10857  14.88
CL06  4  1.34924  0.39687  0.42347 11.00000  0.07606  14.81
CL07  4 -0.47248  0.80050  0.60239 11.00000  0.10422  14.58
CL08  4  0.03191  0.63581  0.96502 11.00000  0.11538  13.83
CL09  4  1.06730  0.32224  0.31149 11.00000  0.07108  13.63
CL0A  4 -0.09199  0.94968  0.57624 11.00000  0.12316  12.95
CL0B  4 -0.17605  0.01109  0.84883 11.00000  0.10215  12.83
O00C  3 -0.30909  1.08293  0.46987 11.00000  0.02737  11.93
O00D  3 -0.03233  0.57034  0.54210 11.00000  0.03662  11.76
O00E  3  0.63301  0.05304  0.02159 11.00000  0.07853  11.36
O00F  3  0.10248  1.24200  0.47863 11.00000  0.03604  11.32
O00G  3  0.60913  0.72645  0.30057 11.00000  0.02962  10.80
C00H  1  1.37719  0.35516  0.22325 11.00000  0.05021  10.78
O00I  3  0.31859  0.77942  0.40200 11.00000  0.05710  10.73
N00J  2 -0.49357  0.79337  0.65601 11.00000  0.03250  10.71
O00K  3 -0.73390  0.52373  0.10305 11.00000  0.06560  10.70
N00L  2 -0.28040  1.03987  0.57900 11.00000  0.02859  10.33
C00M  1  0.00757  0.95867  0.14857 11.00000  0.01741  10.28
O00N  3 -0.33741  0.48906  0.73528 11.00000  0.04369  10.26
C00O  1  0.55224  0.88144  0.17038 11.00000  0.03629   9.86
O00P  3  0.99141  0.62817  0.37165 11.00000  0.05903   9.79
C00Q  1 -0.58512  0.59834  0.10628 11.00000  0.01530   9.71
N00R  2  0.27945  0.29536  0.71686 11.00000  0.09439   9.20
N00S  2  0.01368  0.91051  0.42083 11.00000  0.04596   9.17
O00T  3  0.91518  0.12525  0.07752 11.00000  0.05366   9.04
N00U  2  0.29855  0.24041  0.70921 11.00000  0.04633   9.03
O00V  3  0.44680  1.12504  0.32058 11.00000  0.06239   9.00
O00W  3  0.61839  0.69240  0.36663 11.00000  0.05264   8.95
N00X  2 -0.23344  1.10452  0.53418 11.00000  0.04521   8.82
N00Y  2  1.27702  0.50639  0.39164 11.00000  0.01685   8.70
N00Z  2  1.29211  0.42171  0.46719 11.00000  0.01130   8.63
O010  3  0.37284  1.06715  0.39465 11.00000  0.05942   8.58
O011  3  1.48350  0.31960  0.28198 11.00000  0.06372   8.50
O012  3  0.23743  1.18214  0.43509 11.00000  0.03918   8.42
O013  3 -0.65950  0.51071  0.88735 11.00000  0.04039   8.41
O014  3  0.15145  0.63897  0.52166 11.00000  0.05775   8.17
O015  3  0.47773  0.92988  0.11397 11.00000  0.03473   8.06
O016  3  0.36658 -0.20156  0.78542 11.00000  0.06058   8.04
N017  2 -0.02639  0.41868  0.91883 11.00000  0.03739   7.97
O018  3  1.02349  0.19454  0.00545 11.00000  0.05522   7.88
N019  2  0.14437  0.36080  0.82677 11.00000  0.08477   7.86
N01A  2  0.43990  0.20165  0.75003 11.00000  0.07231   7.76
O01B  3  0.14468  1.03679  0.33904 11.00000  0.05927   7.69
O01C  3  0.02266  0.69360  0.14723 11.00000  0.05651   7.65
N01D  2 -0.30206  0.50116  0.93470 11.00000  0.03354   7.57
O01E  3 -0.10112  0.51527  0.82029 11.00000  0.07024   7.55
O01F  3 -0.37721  0.86070  0.46836 11.00000  0.06148   7.49
N01G  2 -0.62068  0.85586  0.62902 11.00000  0.06020   7.45
N01H  2  1.36629  0.40510  0.37616 11.00000  0.03007   7.07
N01I  2 -0.20327  0.61811  0.62523 11.00000  0.06129   6.97
O01J  3  1.21423  0.41400  0.21082 11.00000  0.10925   6.85
N01K  2 -0.12911  0.96319  0.44608 11.00000  0.04918   6.76
N01L  2  1.73390  0.35316  0.16224 11.00000  0.10525   6.56
C01M  1 -0.42097  1.08170  0.57927 11.00000  0.03576   6.41
C01N  1  0.46991 -0.24200  0.85389 11.00000  0.09018   6.39
C01O  1  0.29171  0.03358  0.83287 11.00000  0.09256   6.28
C01P  1 -0.05873  1.20811  0.56253 11.00000  0.00010   6.24
C01Q  1  0.41403  0.88123  0.02967 11.00000  0.08156   6.14
C01R  1  0.33478  0.18604  0.77468 11.00000  0.07885   6.13
C01S  1 -0.34853  0.67346  0.52523 11.00000  0.01637   6.06
C01T  1  0.17494  1.02476  0.45592 11.00000  0.04458   5.98
C01U  1  1.03746  0.26973  0.06604 11.00000  0.06112   5.33
C01V  1  0.06987  0.29326  0.88987 11.00000  0.05205   5.23
C01W  1 -0.13231  1.02554  0.36725 11.00000  0.07456   5.18
O01X  3  0.22361  0.90720  0.19014 11.00000  0.05539   5.14
C01Y  1  0.43715  0.93032  0.27526 11.00000  0.01639   5.12
N01Z  2 -0.12185  1.13361  0.71228 11.00000  0.03858   5.03
C020  1 -0.45715  0.43192  0.75798 11.00000  0.06883   5.02
C021  1  0.01443  0.91103  0.11151 11.00000  0.08587   4.87
C022  1 -0.05931  0.45300  0.65432 11.00000  0.07161   4.84
C023  1  0.12732  0.27691  0.85701 11.00000  0.03907   4.62
C024  1 -0.51683  0.37457  0.94821 11.00000  0.04824   4.61
C025  1 -0.26237  0.89864  0.64145 11.00000  0.03127   4.51
C026  1  0.12329  0.42654  0.76558 11.00000  0.09082   4.43
C027  1  0.26968  0.87737  0.34417 11.00000  0.02149   4.38
C028  1 -0.30994  0.67673  0.71190 11.00000  0.03264   4.38
C029  1  1.13413  0.17295  0.14775 11.00000  0.03437   4.28
C02A  1 -0.33482  0.69529  0.15924 11.00000  0.04523   4.16
C02B  1  1.35582  0.42632  0.55782 11.00000  0.06661   4.11
C02C  1  1.51770  0.19836  0.16394 11.00000  0.05347   4.08
O02D  3  0.33271 -0.04832  0.91340 11.00000  0.15971   3.70
C02E  1 -0.22229  0.38478  0.93621 11.00000  0.02545   3.63
C02F  1 -0.18811  0.56609  0.92110 11.00000  0.09321   3.54
C02G  1 -0.18991  1.08456  0.65464 11.00000  0.03595   3.39
C02H  1 -0.63514  0.46321  0.99455 11.00000  0.02124   3.32
C02I  1  0.45507  0.14553  0.81365 11.00000  0.04356   3.27
C02J  1  1.64307  0.51992  0.43391 11.00000  0.05037   3.21
C02K  1  0.01029 -0.05195  0.94607 11.00000  0.04354   3.18
C02L  1 -0.12304  0.85912  0.02803 11.00000  0.02459   3.14
C02M  1  0.70236  0.30592  0.64581 11.00000  0.03144   3.06
C02N  1 -0.34886  0.77186  0.07943 11.00000  0.06050   3.05
HKLF 4
END
