TITL 22_a.res in P1
REM Old TITL 22 in P1
REM SHELXT solution in P1: R1 0.381, Rweak 0.525, Alpha 0.000
REM <I/s>   0.000 for    0 systematic absences,  Orientation as input
REM Flack x = -0.035 ( 0.626 ) from   123 Parsons' quotients
REM Formula found by SHELXT:  C52 N15 O12 Cl3

CELL  0.71073   4.8100  11.5300  19.6483   90.000   96.650   90.000
ZERR   14.000   0.0010   0.0023   0.0039    0.030    0.030    0.030
LATT -1
SFAC C N O CL
UNIT 14 14 14 14
L.S. 10
BOND
LIST 6
FMAP 2
PLAN 20
CL01  4  0.36193  0.07267  0.67907 11.00000  0.08139  20.88
CL02  4  0.52871  0.00939  0.65195 11.00000  0.08943  14.99
CL03  4  0.33849  0.06916  0.62061 11.00000  0.08475  13.68
N004  2  0.33484  0.49733  0.69470 11.00000  0.01763  11.78
N005  2  0.93349  0.86436  0.73870 11.00000  0.03783  10.90
C006  1  0.93779  0.19376  0.90006 11.00000  0.05781   9.20
N007  2  0.58908  0.49005  0.76009 11.00000  0.04107   8.98
O008  3  0.84958  0.86366  0.57420 11.00000  0.05859   8.88
C009  1  1.33242  0.98579  0.82870 11.00000  0.04440   8.84
O00A  3  0.79044  0.35040  0.29626 11.00000  0.11790   8.67
N00B  2  0.09935  0.74899  0.12945 11.00000  0.02548   8.64
O00C  3  1.24143  0.63639  0.77405 11.00000  0.04616   8.47
O00D  3  0.00673  0.39617  0.60435 11.00000  0.02726   8.17
N00E  2  1.04654  0.14264  0.35706 11.00000  0.02031   8.05
N00F  2  0.14737  0.45129  0.68047 11.00000  0.06373   7.98
O00G  3 -0.01600  0.34275  0.67236 11.00000  0.05658   7.94
O00H  3 -0.42251  0.37016  0.01314 11.00000  0.03917   7.91
O00I  3  0.32911  0.43833  0.49271 11.00000  0.07162   7.59
N00J  2  1.17849  0.98307  0.79064 11.00000  0.04942   7.57
N00K  2  0.96806  0.86131  0.87182 11.00000  0.06168   7.21
C00L  1 -0.33864  0.42555  0.14523 11.00000  0.03929   7.14
N00M  2  1.50425  0.99061  0.89922 11.00000  0.06417   7.05
N00N  2 -0.04115  0.52518  0.39167 11.00000  0.05679   6.92
N00O  2 -0.16751  0.48706  0.09472 11.00000  0.02495   6.89
C00P  1  0.02057  0.89819  0.21811 11.00000  0.05277   6.68
N00Q  2  0.67474  0.13986  0.79392 11.00000  0.06190   6.62
N00R  2  0.73985  0.14830  0.38425 11.00000  0.05064   6.61
O00S  3  0.52095  0.57861  0.45094 11.00000  0.06268   6.58
C00T  1  0.41861  0.37394  0.75323 11.00000  0.07435   6.44
C00U  1 -0.22517  0.73241  0.13204 11.00000  0.01872   6.41
C00V  1  0.16697  0.67302  0.28619 11.00000  0.06272   6.40
C00W  1  1.31045  0.28950  0.87730 11.00000  0.03770   6.35
C00X  1  0.88689  0.80561  0.77657 11.00000  0.04806   6.26
C00Y  1  1.24073  0.62546  0.94917 11.00000  0.06101   6.22
C00Z  1  1.00092  0.55747  0.92238 11.00000  0.07591   6.21
C010  1  0.83099  0.82294  0.67099 11.00000  0.10103   6.20
C011  1  1.04984  0.79581  0.61544 11.00000  0.03281   6.10
C012  1  0.80753  0.14799  0.51379 11.00000  0.03714   5.89
C013  1  0.88729  0.79254  0.50343 11.00000  0.06392   5.86
C014  1  0.96764  0.72959  0.87892 11.00000  0.04451   5.67
C015  1 -0.32685  0.26252  0.05003 11.00000  0.05768   5.66
C016  1  0.75340  0.30627  0.81553 11.00000  0.07033   5.60
C017  1  0.39716  0.30553  0.68247 11.00000  0.02414   5.54
O018  3  0.46195  0.08575  0.17020 11.00000  0.04678   5.50
C019  1  0.51029  0.49239  0.29914 11.00000  0.03709   5.35
C01A  1  1.41017  0.87035  0.74277 11.00000  0.03002   5.16
O01B  3  0.09150  0.93930  0.16169 11.00000  0.09182   5.12
C01C  1  0.65715  0.09750  0.58538 11.00000  0.05968   5.05
C01D  1 -0.08238  0.32744  0.16055 11.00000  0.04748   5.05
C01E  1 -0.34356  0.78786  0.19009 11.00000  0.04660   4.93
C01F  1  1.57734  0.50206  0.89671 11.00000  0.04918   4.92
C01G  1  1.25543  0.56366  0.87994 11.00000  0.02794   4.84
C01H  1  0.56328  0.57175  0.56902 11.00000  0.14756   4.83
C01I  1  0.85146  0.82047  0.94442 11.00000  0.02929   4.83
C01J  1  1.14345  0.79971  0.70088 11.00000  0.04391   4.78
O01K  3 -0.17688  0.09632  0.00353 11.00000  0.11620   4.74
O01L  3 -0.56511  0.35943  0.20344 11.00000  0.05388   4.73
C01M  1  0.66265  0.28291  0.53203 11.00000  0.03528   4.68
N01N  2  1.05475  0.20131  0.83062 11.00000  0.05721   4.67
C01O  1  0.94319  0.53255  0.80589 11.00000  0.07088   4.66
C01P  1  0.53005  0.57122  0.71702 11.00000  0.08478   4.55
C01Q  1  0.30619  0.22727  0.45306 11.00000  0.05449   4.55
C01R  1 -0.57734  0.38392  0.06445 11.00000  0.08031   4.54
C01S  1  0.25378  0.10893 -0.01234 11.00000  0.05196   4.42
C01T  1 -0.04832  0.62973  0.13181 11.00000  0.05884   4.23
C01U  1  1.27131  0.67508  0.64054 11.00000  0.08311   4.20
C01V  1 -0.25448  0.60126  0.09858 11.00000  0.03735   4.19
C01W  1  1.09030  0.75676  0.41881 11.00000  0.06301   4.04
C01X  1  0.82327  0.03371  0.31285 11.00000  0.04900   3.80
C01Y  1  0.02194  0.61542  0.22440 11.00000  0.05255   3.77
C01Z  1  1.17932  0.02312  0.45635 11.00000  0.06563   3.75
C020  1  0.21505  0.54333  0.35928 11.00000  0.04012   3.74
C021  1  0.41402  0.04517  0.23932 11.00000  0.05639   3.62
C022  1  0.28609  0.77578  0.27276 11.00000  0.04481   3.61
C023  1  0.70638  0.66367  0.48884 11.00000  0.04344   3.59
C024  1  0.92196  0.87580  1.01234 11.00000  0.03415   3.54
C025  1  1.16347  0.71321  0.59700 11.00000  0.05507   3.53
C026  1  0.59793  0.22260  0.59224 11.00000  0.04001   3.50
C027  1  0.15499  0.70336  0.17322 11.00000  0.06178   3.36
C028  1  0.81659  0.26210  0.92698 11.00000  0.07948   3.12
N029  2 -0.46361  0.33279  0.14741 11.00000  0.09717   3.04
C02A  1  0.95730  0.23615  0.32715 11.00000  0.04358   3.03
HKLF 4
END
