TITL 23_a.res in P1
REM Old TITL 23 in P1
REM SHELXT solution in P1: R1 0.374, Rweak 0.498, Alpha 0.000
REM <I/s>   0.000 for    0 systematic absences,  Orientation as input
REM Flack x =  0.111 ( 0.458 ) from   156 Parsons' quotients
REM Formula found by SHELXT:  C33 N20 O26 Cl11

CELL  0.71073   4.8000  11.5600  19.5532   90.000   96.607   90.000
ZERR   14.000   0.0010   0.0023   0.0039    0.030    0.030    0.030
LATT -1
SFAC C N O CL
UNIT 14 14 14 14
L.S. 10
BOND
LIST 6
FMAP 2
PLAN 20
O001  3  1.04981  0.68337  0.40914 11.00000  0.05906  17.00
CL02  4  1.31592  0.69138  0.71832 11.00000  0.07799  16.95
CL03  4  0.78471  0.88661  0.91986 11.00000  0.07596  16.68
CL04  4  1.38881  0.76775  0.66000 11.00000  0.07829  16.09
CL05  4  1.03585  0.59324  0.66205 11.00000  0.08648  16.08
C006  1 -0.38881  1.38774  0.79594 11.00000  0.00892  15.29
CL07  4  0.30724  0.31312  0.27260 11.00000  0.09187  14.56
CL08  4  0.71909  0.44017  0.66061 11.00000  0.10005  14.34
CL09  4  0.18647  1.23465  0.75274 11.00000  0.10965  14.15
CL0A  4  0.28456  1.39376  0.94196 11.00000  0.11340  14.13
CL0B  4  0.40040  1.27999  0.87933 11.00000  0.10772  13.84
CL0C  4  0.26689  0.06192  0.10685 11.00000  0.17537  13.55
CL0D  4  0.97275  0.82016  0.86842 11.00000  0.07899  13.16
O00E  3  0.66549  0.19652  0.63026 11.00000  0.10511  12.27
O00F  3 -0.14220  1.49003  0.90149 11.00000  0.04873  11.81
N00G  2  0.24577  1.20485  0.83186 11.00000  0.02910  11.81
O00H  3  0.22634 -0.49003  0.04301 11.00000  0.03320  11.66
O00I  3  0.70928  0.89056  0.59946 11.00000  0.03137  11.57
O00J  3  0.51126  1.00759  0.61869 11.00000  0.03305  10.71
N00K  2  0.65834 -0.10749  0.10783 11.00000  0.02262  10.69
O00L  3  0.48130 -0.02870  0.08208 11.00000  0.05109  10.52
O00M  3  0.81616  0.25708  0.11680 11.00000  0.07554  10.42
O00N  3  0.53285 -0.23233  0.08555 11.00000  0.03526  10.35
O00O  3  1.09146  0.66108  0.51789 11.00000  0.06845  10.30
C00P  1  1.31425  0.71871  0.77710 11.00000  0.02941  10.12
C00Q  1  0.09159  0.37997  0.36253 11.00000  0.01702   9.82
C00R  1  0.67205  0.97362  0.88255 11.00000  0.01877   9.73
O00S  3  1.31040  0.68947  0.84808 11.00000  0.04175   9.70
O00T  3  0.93975 -0.34842  0.17823 11.00000  0.12259   9.20
O00U  3  0.53061  1.10839  0.78893 11.00000  0.04036   9.19
O00V  3 -0.07808  0.32618  0.37093 11.00000  0.04733   8.99
O00W  3  1.30497  0.74430  0.46583 11.00000  0.08280   8.52
O00X  3  0.90168  0.96644  0.96669 11.00000  0.09161   8.30
O00Y  3  0.21543  1.18620  0.96445 11.00000  0.07127   8.01
O00Z  3  0.02344  1.18458  0.75449 11.00000  0.07522   7.94
O010  3  0.71947  1.07959  0.41875 11.00000  0.05745   7.90
O011  3  1.13794 -0.22553  0.10661 11.00000  0.05264   7.70
N012  2  1.27370  0.82856  0.67748 11.00000  0.02285   7.69
N013  2  0.94482  0.93980  0.61343 11.00000  0.05376   7.66
O014  3  0.82306  0.70241  0.33073 11.00000  0.05639   7.66
N015  2  0.94842  0.57647  0.39727 11.00000  0.03159   7.41
N016  2  0.93235  0.43276  0.48980 11.00000  0.02233   7.41
O017  3  0.58451  0.16403  0.13947 11.00000  0.04196   7.34
O018  3 -0.12857  1.32991  0.83224 11.00000  0.04770   7.33
N019  2  0.39332  1.12729  0.92954 11.00000  0.06450   7.32
N01A  2  0.68756  0.94230  0.41310 11.00000  0.05149   7.28
O01B  3  0.72891  0.30710  0.03331 11.00000  0.04461   7.22
N01C  2  1.04815  0.92151  0.36346 11.00000  0.08321   7.13
N01D  2  0.74133  0.95134  0.52062 11.00000  0.03952   7.11
N01E  2  0.18914  1.15653  0.89405 11.00000  0.07783   7.08
C01F  1  0.90921  0.21551  0.56705 11.00000  0.01322   7.03
N01G  2  0.31462  0.70558  0.30420 11.00000  0.08423   6.99
N01H  2  0.61291  1.05233  0.86546 11.00000  0.08013   6.87
N01I  2  0.16944  0.19139  0.23608 11.00000  0.02551   6.86
N01J  2  0.48670  0.21160  0.26910 11.00000  0.06008   6.76
N01K  2  0.76629  0.21294  0.20335 11.00000  0.12250   6.63
N01L  2  0.51889  0.52057  0.31982 11.00000  0.05880   6.57
N01M  2  0.77750  0.85982  0.74359 11.00000  0.08976   6.56
O01N  3  0.74376  0.50942  0.39533 11.00000  0.07568   6.48
C01O  1  0.51163  1.02057  0.20728 11.00000  0.02134   6.36
C01P  1  0.55929  0.27707  0.61980 11.00000  0.05102   6.26
C01Q  1  0.41928  0.47881  0.51513 11.00000  0.02567   6.22
C01R  1  0.64160  0.12268  0.52460 11.00000  0.06660   6.12
C01S  1  0.88242  0.90911  0.67697 11.00000  0.00549   5.94
C01T  1  0.63667  0.91092  0.56110 11.00000  0.05415   5.76
C01U  1  0.13867  1.44361  0.86655 11.00000  0.01632   5.48
C01V  1  0.40096 -0.38491  0.06018 11.00000  0.05729   5.45
C01W  1  0.65754  0.44345  0.27394 11.00000  0.05377   4.99
C01X  1  1.22107  0.87575  0.65171 11.00000  0.02508   4.88
N01Y  2  1.03906  0.12223  0.54751 11.00000  0.04254   4.85
C01Z  1  1.03719  0.73611  0.67422 11.00000  0.00010   4.84
C020  1  0.97718  0.79297  0.57877 11.00000  0.00616   4.76
N021  2  1.01310  0.51249  0.43511 11.00000  0.02709   4.74
C022  1  1.29589  0.80217  0.72078 11.00000  0.01955   4.60
C023  1  0.89446 -0.35613  0.09968 11.00000  0.07036   4.57
C024  1  0.74778  0.50766  0.54993 11.00000  0.03130   4.55
C025  1  0.86917  0.98323  0.80462 11.00000  0.01849   4.54
C026  1  0.24437  0.89727  0.25121 11.00000  0.01542   4.52
C027  1  0.77913  1.00210  0.27451 11.00000  0.02657   4.19
C028  1  0.84359  0.29409  0.62983 11.00000  0.00549   4.13
C029  1  0.83389  0.45282  0.20425 11.00000  0.02430   4.05
C02A  1  0.87809 -0.16072  0.07977 11.00000  0.06304   3.88
C02B  1  0.99960  0.44380  0.70991 11.00000  0.01453   3.63
C02C  1  0.27842  0.29212  0.36715 11.00000  0.07690   3.50
C02D  1  0.89342 -0.19031  0.17332 11.00000  0.04950   3.47
C02E  1  0.77385  0.99099  0.32955 11.00000  0.02738   3.47
C02F  1  0.42287  1.00243  0.81136 11.00000  0.02796   3.33
O02G  3  0.97404  0.34475  0.16322 11.00000  0.04404   3.26
C02H  1  0.54380  0.38836  0.20140 11.00000  0.03813   3.25
C02I  1  1.10827  0.13585  0.64147 11.00000  0.04368   3.21
HKLF 4
END
