TITL 24_a.res in P1
REM Old TITL 24 in P1
REM SHELXT solution in P1: R1 0.447, Rweak 0.268, Alpha 0.000
REM <I/s>   0.000 for    0 systematic absences,  Orientation as input
REM Flack x =  0.372 ( 0.440 ) from    14 Parsons' quotients
REM Formula found by SHELXT:  C19 N16 O8 Cl4

CELL  0.71073   4.8400  11.5700  19.8800   90.000   83.180   90.000
ZERR   15.000   0.0010   0.0023   0.0040    0.030    0.030    0.030
LATT -1
SFAC C N O CL
UNIT 15 15 15 15
L.S. 10
BOND
LIST 6
FMAP 2
PLAN 20
CL01  4  0.75198  0.54993  0.56182 11.00000  0.07790  17.17
CL02  4  0.58067  0.52545  0.70417 11.00000  0.08862  16.74
CL03  4  0.92456  0.62263  0.51744 11.00000  0.10094  15.78
N004  2  1.08162  0.65263  0.55009 11.00000  0.02385  12.29
N005  2  0.59257  0.47535  0.60930 11.00000  0.00010  11.89
C006  1  1.31635  0.86300  0.32006 11.00000  0.01733  10.48
N007  2  0.36086  0.38570  0.50039 11.00000  0.04783  10.28
C008  1  0.80865  0.61274  0.68233 11.00000  0.02264  10.10
CL09  4 -0.39472  0.04069  0.51302 11.00000  0.18777   9.90
O00A  3  1.16203  0.71568  0.41811 11.00000  0.02162   9.74
O00B  3 -0.01995  0.22150  0.77120 11.00000  0.01933   9.70
O00C  3  1.26887  0.86531  0.38067 11.00000  0.03346   9.58
N00D  2  0.43726  0.43198  0.64994 11.00000  0.01263   9.19
N00E  2  1.09990  0.72880  0.45715 11.00000  0.00010   9.10
N00F  2  0.39095  0.43656  0.71831 11.00000  0.03086   8.81
N00G  2  0.72545  0.55104  0.66712 11.00000  0.00458   8.78
O00H  3  0.08733  0.59183  0.26027 11.00000  0.10818   8.66
O00I  3  1.42355  0.93124  0.32312 11.00000  0.02668   8.20
N00J  2  0.89908  0.68707  0.59721 11.00000  0.01844   8.05
O00K  3 -0.03717  0.25533  0.48590 11.00000  0.06433   8.01
N00L  2  0.86482  0.49782  0.87782 11.00000  0.10150   7.30
C00M  1  0.12336  0.28535  0.43726 11.00000  0.03109   7.17
N00N  2 -0.24251  0.15364  0.45737 11.00000  0.08652   7.13
N00O  2 -0.20329  0.32495  0.71565 11.00000  0.00010   7.11
N00P  2  0.43791  0.46832  0.17985 11.00000  0.13758   6.67
O00Q  3  1.08868  0.78171  0.77040 11.00000  0.11048   6.43
C00R  1  0.42031  0.36295  0.46676 11.00000  0.05574   6.12
C00S  1  0.11952  0.25457  0.73733 11.00000  0.00010   5.82
C00T  1  0.82288  0.79685  0.76237 11.00000  0.04932   5.40
C00U  1  0.70653  0.35767  0.87637 11.00000  0.05973   5.40
C00V  1 -0.03780  0.00577  0.76032 11.00000  0.02915   5.34
C00W  1  0.30043  0.42087  0.53923 11.00000  0.04706   5.33
C00X  1  0.63087  0.31382  0.61216 11.00000  0.05933   5.22
C00Y  1  0.28761  0.41405  0.66556 11.00000  0.04478   5.13
O00Z  3 -0.49961  0.00471  0.81253 11.00000  0.13407   4.92
N010  2  1.07337  0.70443  0.67045 11.00000  0.09150   4.71
N011  2  1.41835  0.82383  0.62042 11.00000  0.10930   4.71
N012  2  0.20017  0.54884  0.12218 11.00000  0.11493   4.64
C013  1 -0.07127  0.46874  0.33687 11.00000  0.03272   4.25
C014  1  0.06767  0.24938  0.35143 11.00000  0.08752   4.23
N015  2  0.29270  0.32962  0.40607 11.00000  0.05932   4.12
C016  1  0.21049  0.33430  0.66451 11.00000  0.00711   3.99
C017  1 -0.37536  0.09322  0.84168 11.00000  0.02376   3.97
C018  1  1.49961  0.99529  0.23887 11.00000  0.01948   3.87
C019  1  0.65809  0.55743  0.81501 11.00000  0.10163   3.64
C01A  1  0.87048  0.38757  0.86232 11.00000  0.04064   3.42
C01B  1 -0.20023  0.17840  0.68287 11.00000  0.04137   3.17
HKLF 4
END
