TITL 26_a.res in P1
REM Old TITL 26 in P1
REM SHELXT solution in P1: R1 0.497, Rweak 0.430, Alpha 0.000
REM <I/s>   0.000 for    0 systematic absences,  Orientation as input
REM Formula found by SHELXT:  C34 N12 O9

CELL  0.71073   4.8600  11.6000  19.8500   90.000   83.670   90.000
ZERR   15.000   0.0010   0.0023   0.0040    0.030    0.030    0.030
LATT -1
SFAC C N O CL
UNIT 15 15 15 15
L.S. 10
BOND
LIST 6
FMAP 2
PLAN 20
N001  2  0.79173  0.51265  0.27354 11.00000  0.03611  11.05
O002  3  0.36390  0.33478  0.33670 11.00000  0.11071  10.11
N003  2  0.71651  0.49976  0.34986 11.00000  0.04476   9.81
O004  3 -0.42529  0.91555  0.40993 11.00000  0.01803   8.92
O005  3 -0.00341  0.62767  0.54338 11.00000  0.06261   8.09
N006  2  0.31910  0.66674  0.32959 11.00000  0.04645   8.02
N007  2 -0.06189  1.02930  0.31034 11.00000  0.02167   8.01
O008  3  0.25308  0.76726  0.22833 11.00000  0.05789   7.97
O009  3  0.07761  0.75013  0.43577 11.00000  0.07938   7.75
N00A  2  0.39169  0.69484  0.24858 11.00000  0.02131   7.62
O00B  3  0.49461  0.21254  0.66268 11.00000  0.08714   7.52
N00C  2 -0.19071  1.04238  0.33329 11.00000  0.01446   7.32
C00D  1  0.51640  0.39113  0.33765 11.00000  0.10934   7.19
C00E  1  0.52266  0.74537  0.31705 11.00000  0.01630   7.09
N00F  2  0.91711  0.44685  0.28145 11.00000  0.00010   6.85
N00G  2 -0.33390  1.08970  0.27319 11.00000  0.00837   6.78
N00H  2  0.27565  0.34074  0.38056 11.00000  0.07424   6.51
C00I  1  0.70041  0.52699  0.41376 11.00000  0.12980   6.47
C00J  1  0.26274  0.24836  0.51936 11.00000  0.06717   6.28
C00K  1  0.18220  0.91825  0.25276 11.00000  0.02987   6.16
C00L  1  0.64836  0.51882  0.38670 11.00000  0.09138   6.16
C00M  1  0.98825  0.45907  0.22602 11.00000  0.01566   5.90
C00N  1 -0.50181  0.99335  0.41999 11.00000  0.03296   5.81
C00O  1  0.05952  0.87740  0.33112 11.00000  0.05977   5.52
C00P  1  0.22177  0.70655  0.50677 11.00000  0.04772   5.31
C00Q  1  0.36499  0.20823  0.70662 11.00000  0.04114   5.30
C00R  1  0.58937  0.77651  0.22292 11.00000  0.06314   5.24
C00S  1  0.21495  0.73077  0.39391 11.00000  0.01803   4.91
C00T  1 -0.45817  1.12123  0.25805 11.00000  0.00779   4.91
N00U  2  0.01468  1.13599  0.36223 11.00000  0.00874   4.85
C00V  1  0.69507  0.97010  0.16178 11.00000  0.04726   4.80
C00W  1  1.18687  0.29449  0.19270 11.00000  0.03840   4.76
C00X  1 -0.15555  0.79911  0.49474 11.00000  0.03784   4.75
O00Y  3  0.05491  0.00843  0.96771 11.00000  0.12622   4.69
C00Z  1 -0.23329 -0.13599  0.86254 11.00000  0.12633   4.67
C010  1 -0.14686  0.79110  0.38672 11.00000  0.06927   4.39
C011  1 -0.21810  0.85438  0.29778 11.00000  0.04019   4.23
C012  1  1.50181  0.60482  0.03229 11.00000  0.12754   4.23
C013  1  0.53392  0.58577  0.35809 11.00000  0.14306   4.23
O014  3  0.16315  0.53980  0.87189 11.00000  0.11779   4.19
C015  1 -0.03048 -0.00376  0.89402 11.00000  0.10140   4.14
C016  1  0.39418  0.83863  0.29858 11.00000  0.01835   4.10
C017  1  1.09713  0.62091  0.10555 11.00000  0.07826   4.00
C018  1  0.20152  0.26872  0.64133 11.00000  0.13994   4.00
C019  1  0.07619  0.53587  0.79484 11.00000  0.13861   3.88
C01A  1  0.11440  1.12851  0.32639 11.00000  0.00099   3.82
C01B  1 -0.02577  1.04300  0.45283 11.00000  0.08215   3.45
O01C  3  0.77729  0.81217  0.16985 11.00000  0.09381   3.43
C01D  1  1.10302  0.23466  0.09673 11.00000  0.09865   3.36
C01E  1 -0.34137  1.11103  0.21622 11.00000  0.01252   3.34
N01F  2 -0.02646 -0.02376  0.67432 11.00000  0.08077   3.19
C01G  1  0.28834  0.61768  0.76446 11.00000  0.10574   3.19
C01H  1  0.62827  0.28782  0.75669 11.00000  0.09883   3.16
N01I  2  0.34941  0.46001  0.68751 11.00000  0.16343   3.08
C01J  1  0.23322  0.16194  0.78784 11.00000  0.09470   3.03
HKLF 4
END
