TITL 28_a.res in P1
REM Old TITL 28 in P1
REM SHELXT solution in P1: R1 0.436, Rweak 0.449, Alpha 0.000
REM <I/s>   0.000 for    0 systematic absences,  Orientation as input
REM Flack x = -9.990 ( 9.990 ) from     2 Parsons' quotients
REM Formula found by SHELXT:  C49 N8 O9

CELL  0.71073   4.8200  11.6700  19.4625   90.000   97.023   90.000
ZERR   14.000   0.0010   0.0023   0.0039    0.030    0.030    0.030
LATT -1
SFAC C N O CL
UNIT 14 14 14 14
L.S. 10
BOND
LIST 6
FMAP 2
PLAN 20
N001  2 -0.52821  0.68700  0.34194 11.00000  0.02503   9.75
C002  1 -0.24265  0.27942  0.37015 11.00000  0.02749   9.66
C003  1 -0.35083  0.81364  0.55651 11.00000  0.07969   9.51
O004  3  0.06870  0.49381  0.53282 11.00000  0.02047   8.30
N005  2 -0.35390  0.87743  0.37675 11.00000  0.05539   8.24
O006  3 -0.09775  0.92647  0.52524 11.00000  0.07659   8.20
N007  2 -0.14854  0.01473  0.78958 11.00000  0.05765   8.19
O008  3 -0.61622  0.78712  0.50279 11.00000  0.13432   7.85
C009  1 -0.53053  0.79742  0.43067 11.00000  0.02513   7.35
C00A  1 -0.14562  0.54893  0.28971 11.00000  0.04389   7.05
C00B  1 -0.23608  0.85365  0.32622 11.00000  0.00377   7.03
N00C  2 -0.68423  0.75304  0.40078 11.00000  0.01892   7.01
N00D  2 -0.02181  0.45230  0.17768 11.00000  0.06560   7.00
N00E  2 -0.44570  0.60821  0.25412 11.00000  0.09036   6.91
C00F  1  0.64256  0.14460  0.15323 11.00000  0.05584   6.76
C00G  1 -0.48759  0.71274  0.44163 11.00000  0.00010   6.69
C00H  1 -0.71348  1.05331  0.32593 11.00000  0.07260   6.31
C00I  1  0.02165  0.95335  0.44807 11.00000  0.02650   6.31
C00J  1 -0.38181  0.10519  0.50270 11.00000  0.16028   6.16
C00K  1 -0.04874  0.34238  0.33265 11.00000  0.05231   6.07
C00L  1  0.26488  0.47993  0.55146 11.00000  0.01893   5.98
C00M  1 -0.28365  0.01064  0.81918 11.00000  0.03617   5.81
O00N  3 -0.57186  0.20792  0.65765 11.00000  0.11971   5.76
C00O  1 -0.44228  0.24170  0.57403 11.00000  0.04470   5.72
C00P  1  0.13185  0.34708  0.55599 11.00000  0.01847   5.71
O00Q  3  0.89264  0.30907  0.78404 11.00000  0.06433   5.58
C00R  1  0.73107  0.53470  0.73039 11.00000  0.04098   5.38
C00S  1  0.08134  0.40216  0.48421 11.00000  0.03313   5.34
C00T  1 -0.53079  0.71213  0.24455 11.00000  0.05187   5.26
C00U  1 -0.35219  0.62297  0.36946 11.00000  0.03782   5.24
C00V  1 -0.21411  0.79684  0.60493 11.00000  0.02309   5.11
C00W  1  0.97295  0.28001  0.74885 11.00000  0.03644   5.10
C00X  1 -0.33203 -0.05331  0.89135 11.00000  0.04013   5.01
C00Y  1  0.26419  0.41990  0.34764 11.00000  0.02840   5.00
O00Z  3 -0.20218  0.25950  0.48411 11.00000  0.18580   4.98
C010  1  0.29342  0.17909  0.13919 11.00000  0.06191   4.98
C011  1 -0.19053  0.80605  0.40609 11.00000  0.02381   4.96
C012  1  0.15017  0.01408  0.83168 11.00000  0.06676   4.81
C013  1  0.17942  0.08445  0.19736 11.00000  0.00652   4.75
C014  1 -0.37606  0.69238  0.40609 11.00000  0.05197   4.75
C015  1  0.08819  0.63789  0.90730 11.00000  0.03352   4.71
C016  1 -0.77096  0.17635  0.46064 11.00000  0.07165   4.67
C017  1  0.39857  0.61576  0.72715 11.00000  0.03783   4.59
C018  1 -0.25436  0.82563  0.51887 11.00000  0.03377   4.54
C019  1  0.31597  0.16881  0.07579 11.00000  0.04466   4.25
C01A  1 -0.28659  1.01292  0.34433 11.00000  0.06618   4.23
C01B  1 -0.24144  0.42025  0.42804 11.00000  0.03792   4.20
C01C  1  0.01361  0.68158  0.93325 11.00000  0.05693   4.13
C01D  1 -0.02254  0.53720  0.05011 11.00000  0.07158   4.08
C01E  1  0.11408  0.45311  0.34631 11.00000  0.03387   4.03
C01F  1 -0.43557  0.53829  0.11810 11.00000  0.06702   3.94
C01G  1  0.02750  0.11111  0.20326 11.00000  0.07010   3.89
O01H  3  0.14900  0.74032  0.82147 11.00000  0.10940   3.82
C01I  1 -0.60957  0.16034  0.59079 11.00000  0.07916   3.80
C01J  1  0.24362  0.64883  0.64495 11.00000  0.07855   3.80
C01K  1 -0.36277  0.02934  0.73270 11.00000  0.04807   3.79
C01L  1 -0.57702  0.83852  0.34404 11.00000  0.02491   3.79
N01M  2  1.79607  0.31428  0.94989 11.00000  0.04227   3.77
O01N  3  0.82257  0.13757  0.09669 11.00000  0.10059   3.74
C01O  1 -0.32514  0.58635  0.17591 11.00000  0.06949   3.71
C01P  1  1.31834  0.39307  0.82435 11.00000  0.09197   3.71
O01Q  3 -0.09602  0.89637  0.28303 11.00000  0.02024   3.67
C01R  1 -0.05678  0.23702  0.20912 11.00000  0.15852   3.64
C01S  1 -0.79607  0.05779  0.56895 11.00000  0.04255   3.52
N01T  2  0.05155  0.36009  0.28547 11.00000  0.02811   3.35
C01U  1 -0.66029  0.83934  0.21477 11.00000  0.04588   3.34
HKLF 4
END
