TITL 29_a.res in P1
REM Old TITL 29 in P1
REM SHELXT solution in P1: R1 0.398, Rweak 0.364, Alpha 0.000
REM <I/s>   0.000 for    0 systematic absences,  Orientation as input
REM Flack x =  0.361 ( 1.776 ) from     4 Parsons' quotients
REM Formula found by SHELXT:  C35 N17 O27 Cl8

CELL  0.71073   4.8100  11.6300  19.5061   90.000   96.796   90.000
ZERR   14.000   0.0010   0.0023   0.0039    0.030    0.030    0.030
LATT -1
SFAC C N O CL
UNIT 14 14 14 14
L.S. 10
BOND
LIST 6
FMAP 2
PLAN 20
CL01  4  0.02496  0.91824  0.41360 11.00000  0.07209  17.23
CL02  4  0.22072  0.88062  0.46225 11.00000  0.10062  16.56
CL03  4  0.08510  0.84709  0.51743 11.00000  0.10421  16.39
CL04  4  0.12881  0.38711  0.67945 11.00000  0.08434  14.93
CL05  4  0.44393  0.94884  0.57916 11.00000  0.08313  14.33
CL06  4  0.57310  0.68288  0.39791 11.00000  0.09758  13.76
CL07  4  0.27422  0.90097  0.57470 11.00000  0.12013  13.60
CL08  4  0.63074  1.08454  0.39713 11.00000  0.10817  13.09
O009  3  0.32018  0.43839  0.38503 11.00000  0.04998  12.34
O00A  3 -0.18978  1.00294  0.52381 11.00000  0.04457  12.17
O00B  3  0.04452  0.44885  0.04479 11.00000  0.06926  11.27
O00C  3  0.81567  0.57789  0.52478 11.00000  0.03884  10.99
O00D  3 -0.20090  0.65351  0.64495 11.00000  0.01785  10.64
O00E  3  0.91251  1.12926  0.18425 11.00000  0.02952  10.63
N00F  2  0.42694  0.65067  0.23627 11.00000  0.02975  10.58
O00G  3  0.21896  0.25133  0.56901 11.00000  0.03412  10.51
N00H  2  0.57293  1.24401  0.24181 11.00000  0.02069  10.19
O00I  3  0.33116  0.35529  0.48734 11.00000  0.02491  10.17
O00J  3  0.32388  1.08893  0.25117 11.00000  0.05893  10.10
N00K  2  0.34491  0.76660  0.20232 11.00000  0.02083   9.88
O00L  3  0.21930  0.43300  0.41811 11.00000  0.06208   9.83
N00M  2  0.36291  0.71484  0.16736 11.00000  0.00483   9.81
O00N  3  0.84172  0.76253  0.29106 11.00000  0.04176   9.71
C00O  1  0.29115  0.51759  0.87762 11.00000  0.03676   9.55
O00P  3  0.54234  0.15563  0.65894 11.00000  0.01804   9.27
O00Q  3  0.33544  0.76422  0.35633 11.00000  0.04608   9.16
N00R  2  0.62467  0.75356  0.26643 11.00000  0.06278   9.07
N00S  2 -0.03171  0.99860  0.47797 11.00000  0.00688   8.97
O00T  3  0.24327  0.55463  0.42539 11.00000  0.08331   8.73
O00U  3  0.33994  0.56850  0.12292 11.00000  0.06250   8.56
O00V  3  0.27060  0.45888  0.63391 11.00000  0.08848   8.44
O00W  3  0.30918  0.35719  0.91309 11.00000  0.12815   8.32
O00X  3  0.54758  1.07377  0.29963 11.00000  0.04419   8.30
N00Y  2  0.17651  0.29260  0.49277 11.00000  0.02480   8.28
O00Z  3  0.63895  0.55432  0.72359 11.00000  0.07355   8.15
N010  2  0.42187  0.44190  0.76614 11.00000  0.09010   8.01
O011  3  0.37589  0.61301  0.34774 11.00000  0.04227   7.85
C012  1  0.51920  1.03465  0.42484 11.00000  0.00831   7.83
O013  3  1.15759 -0.24766  0.82237 11.00000  0.13593   7.75
O014  3  0.03349  0.77731  0.62154 11.00000  0.15076   7.63
O015  3  0.77161  0.19454  0.80470 11.00000  0.09017   7.57
N016  2  0.21783  0.64671  0.20903 11.00000  0.02052   7.44
N017  2  1.06608  1.20533  0.36097 11.00000  0.11847   7.39
N018  2  0.91148  1.08689  0.26994 11.00000  0.00010   7.31
N019  2  0.55019  0.73187  0.45003 11.00000  0.04922   7.20
N01A  2  0.35128  0.34901  0.31878 11.00000  0.04909   7.19
C01B  1  0.70497  0.67959  0.51531 11.00000  0.00010   7.19
N01C  2  0.64449 -0.21268  0.86019 11.00000  0.02726   7.11
N01D  2  0.84264 -0.13796  0.91034 11.00000  0.03445   6.91
O01E  3 -0.02236  0.27131  0.45898 11.00000  0.08824   6.86
N01F  2  0.38120  0.97610  0.49433 11.00000  0.01147   6.62
N01G  2  0.50157  0.93723  0.07603 11.00000  0.11615   6.60
C01H  1 -0.20562  0.46596  0.20367 11.00000  0.01952   6.40
C01I  1  0.53429  0.36283  0.68716 11.00000  0.09841   6.18
C01J  1  0.98626  0.25935  0.73997 11.00000  0.03220   6.16
C01K  1  0.13506  0.62227  0.60448 11.00000  0.00746   6.06
C01L  1  0.04473  0.57194  0.23253 11.00000  0.01918   6.03
C01M  1  0.59356 -0.14946  0.98905 11.00000  0.03231   6.02
C01N  1 -0.11359  0.48603  0.63050 11.00000  0.05482   5.78
O01O  3  0.36340  0.48038  0.85475 11.00000  0.21242   5.73
C01P  1  0.68175  0.89794  0.65565 11.00000  0.02963   5.72
C01Q  1  1.10233  0.18874  0.69652 11.00000  0.05269   5.52
C01R  1  0.48138  0.36797  0.62242 11.00000  0.03589   5.51
C01S  1  0.82818 -0.27639  0.79944 11.00000  0.13077   5.13
C01T  1  0.62901  0.15415  0.61954 11.00000  0.00010   5.07
C01U  1  0.76635  1.16783  0.32213 11.00000  0.02527   5.02
C01V  1  0.04636  0.43217  0.01095 11.00000  0.05611   4.90
O01W  3  0.68687  0.49135  0.33302 11.00000  0.07388   4.72
C01X  1  0.69837  1.20946  0.10036 11.00000  0.03081   4.70
C01Y  1  0.56002  0.40005  0.97069 11.00000  0.04951   4.68
C01Z  1  1.07828  1.19479  0.20003 11.00000  0.07350   4.60
C020  1  1.15131  0.00051  0.82138 11.00000  0.05760   4.20
C021  1  0.89805  0.60346  0.32420 11.00000  0.02774   4.19
O022  3  0.99437  1.09609  0.05120 11.00000  0.08135   4.11
C023  1  0.68802  1.06525  0.04272 11.00000  0.01580   3.96
C024  1  0.56821  1.27639  0.15954 11.00000  0.07741   3.89
C025  1  1.20255  0.24854  0.78622 11.00000  0.03694   3.83
C026  1  0.10932  0.51096  0.18193 11.00000  0.06312   3.80
C027  1  0.76060  1.03139  0.30157 11.00000  0.00036   3.65
C028  1  0.75586  1.01107  0.19672 11.00000  0.04874   3.60
C029  1  1.20562 -0.02353  0.75965 11.00000  0.03574   3.57
C02A  1  0.92748 -0.10251  0.87022 11.00000  0.03276   3.28
C02B  1  0.40191  0.78736  0.68681 11.00000  0.01066   3.23
C02C  1  0.73817  0.98150  0.14819 11.00000  0.05379   3.23
C02D  1  0.91869  0.13545  0.82001 11.00000  0.01999   3.22
C02E  1  0.78980  0.25217  0.70546 11.00000  0.05853   3.14
C02F  1  0.65073  1.21516  0.36207 11.00000  0.04582   3.12
HKLF 4
END
