TITL 3_a.res in P1
REM Old TITL 3 in P1
REM SHELXT solution in P1: R1 0.344, Rweak 0.117, Alpha 0.000
REM <I/s>   0.000 for    0 systematic absences,  Orientation as input
REM Flack x =  0.261 ( 1.156 ) from    22 Parsons' quotients
REM Formula found by SHELXT:  C10 N4 O11 Cl6

CELL  0.71073   4.7800  11.6000  19.1698   90.000   95.101   90.000
ZERR   14.000   0.0010   0.0023   0.0038    0.030    0.030    0.030
LATT -1
SFAC C N O CL
UNIT 14 14 14 14
L.S. 10
BOND
LIST 6
FMAP 2
PLAN 20
CL01  4  1.08681  0.67228  0.17320 11.00000  0.05587  20.20
CL02  4  0.99460  0.58403  0.26466 11.00000  0.04815  17.75
CL03  4 -0.25896  0.52594  0.86636 11.00000  0.04673  14.17
CL04  4  1.10796  0.76308  0.09226 11.00000  0.05897  13.54
CL05  4  0.62897  0.73388  0.24883 11.00000  0.10056  11.13
CL06  4  0.58546  0.08667  0.89616 11.00000  0.05468  11.06
O007  3  0.76550  0.63977  0.35533 11.00000  0.03534   9.76
O008  3  0.14104  0.25401  0.68847 11.00000  0.03557   8.87
O009  3  0.58504  0.88151  0.33392 11.00000  0.00010   8.41
O00A  3 -0.14056  0.34291  0.83891 11.00000  0.00603   8.32
O00B  3  0.92322  0.06793  0.96335 11.00000  0.03632   8.20
O00C  3 -0.26611  0.68933  0.81038 11.00000  0.01176   8.06
O00D  3  0.09216  0.46659  0.68989 11.00000  0.02082   7.84
O00E  3  0.47318  0.34537  0.43187 11.00000  0.01890   7.52
O00F  3  0.05678  0.72200  0.60523 11.00000  0.10448   6.86
N00G  2  0.63837  1.02433  0.22469 11.00000  0.00198   6.76
N00H  2  0.00832  0.69007  0.94246 11.00000  0.00036   6.40
C00I  1  1.24754  0.26820  0.08181 11.00000  0.00848   6.08
N00J  2  1.34011  0.40982  0.18179 11.00000  0.09244   5.93
C00K  1  0.07259 -0.05320  0.74771 11.00000  0.02758   5.81
C00L  1  0.02731  0.53983  0.64362 11.00000  0.00010   5.64
N00M  2 -0.12329  0.23858  0.53780 11.00000  0.00092   5.63
C00N  1  0.25552  0.01184  0.85256 11.00000  0.00010   5.57
O00O  3  0.62011  0.66152  0.44907 11.00000  0.02835   5.34
C00P  1  0.74543  0.53087  0.46793 11.00000  0.00581   5.22
C00Q  1  0.75581  0.31826  0.03665 11.00000  0.01812   5.07
O00R  3  0.28358  0.09075  0.78032 11.00000  0.03053   4.87
C00S  1  0.78788  1.05320  0.29942 11.00000  0.00010   4.68
C00T  1 -0.34011  0.70005  0.70570 11.00000  0.00060   4.66
C00U  1  0.24220  0.40920  0.55996 11.00000  0.01294   4.15
C00V  1  1.13171  0.60320  0.35085 11.00000  0.00010   3.64
HKLF 4
END
