TITL 4_a.res in P1
REM Old TITL 4 in P1
REM SHELXT solution in P1: R1 0.340, Rweak 0.327, Alpha 0.000
REM <I/s>   0.000 for    0 systematic absences,  Orientation as input
REM Flack x =  0.150 ( 0.387 ) from     6 Parsons' quotients
REM Formula found by SHELXT:  C29 N23 O23 Cl7 Br2

CELL  0.71073   4.7500  11.5500  19.1928   90.000   96.290   90.000
ZERR   14.000   0.0009   0.0023   0.0038    0.030    0.030    0.030
LATT -1
SFAC C N O CL BR
UNIT 14 14 14 14 0
L.S. 10
BOND
LIST 6
FMAP 2
PLAN 20
BR01  5  0.08790  0.52178  0.57310 11.00000  0.08710  37.46
BR02  5  0.83070  0.44446  0.45464 11.00000  0.06156  37.07
CL03  4  0.42890  0.72077  0.53003 11.00000  0.09265  20.68
CL04  4  0.69788  0.76659  0.31578 11.00000  0.05519  17.17
CL05  4  0.86636  0.49570  0.39480 11.00000  0.05245  16.84
O006  3  0.39499  0.50101  0.13009 11.00000  0.01712  14.75
C007  1  0.61713  0.42248  0.04623 11.00000  0.01463  14.07
CL08  4  0.75730  0.37639  0.84621 11.00000  0.15657  13.64
CL09  4  0.51077  0.66164  0.74880 11.00000  0.06920  13.07
CL0A  4  0.43769  0.34461  0.72081 11.00000  0.11630  12.79
N00B  2  0.22707  0.76430  0.59363 11.00000  0.04694  12.36
N00C  2  0.80151  0.35685  0.57559 11.00000  0.02663  12.34
O00D  3 -0.34861  0.19683  0.91113 11.00000  0.00576  12.04
O00E  3  0.64896  0.29105  0.44151 11.00000  0.01635  11.75
N00F  2  0.36585  0.42110  0.60849 11.00000  0.00010  11.67
O00G  3  0.41481  0.62782  0.46704 11.00000  0.02563  11.00
N00H  2  0.33412  0.59718  0.67332 11.00000  0.00010  10.74
CL0I  4  0.83694  0.68130  0.98287 11.00000  0.11035  10.74
O00J  3  0.31165  0.17723  0.60867 11.00000  0.00482  10.53
O00K  3  0.62323  0.19974  0.52107 11.00000  0.03839  10.05
O00L  3  1.07887  0.49752  0.34221 11.00000  0.02556   9.65
O00M  3  0.59537  0.79671  0.64531 11.00000  0.04986   9.49
C00N  1  0.18829  0.57302  0.09231 11.00000  0.00010   9.42
O00O  3  0.44143  0.87131  0.52396 11.00000  0.02651   9.00
N00P  2  0.31942  0.39618  0.67252 11.00000  0.00434   8.91
O00Q  3 -0.07337  0.18953  0.86190 11.00000  0.00290   8.89
O00R  3  0.94233  0.77854  0.25655 11.00000  0.07824   8.82
O00S  3  0.87481  0.25075  0.52905 11.00000  0.00167   8.75
N00T  2  0.66432  0.51094  0.38734 11.00000  0.01771   8.69
O00U  3  0.80569  0.39400  0.07802 11.00000  0.03905   8.66
N00V  2  1.13332  0.54241  0.25276 11.00000  0.00010   8.57
O00W  3  0.19122  1.04786  0.43267 11.00000  0.02678   8.53
N00X  2  0.60134  0.33059  0.65884 11.00000  0.00010   8.24
O00Y  3  0.40818  0.92808  0.40253 11.00000  0.03090   8.19
O00Z  3  0.60600  0.91447  0.08440 11.00000  0.03070   8.00
N010  2  0.71239  0.53248  0.40701 11.00000  0.01019   7.96
O011  3  0.67556  0.81030  0.25777 11.00000  0.01797   7.88
N012  2  0.76537  0.45886  0.63152 11.00000  0.00010   7.85
N013  2  0.80558  0.76418  0.87106 11.00000  0.00010   7.76
N014  2  0.38789  0.66190  0.61301 11.00000  0.00412   7.67
O015  3  0.27516  0.66374  0.40630 11.00000  0.01028   7.57
O016  3 -0.14079  0.07975  0.96725 11.00000  0.01223   7.56
O017  3 -0.27686  0.06123  0.80679 11.00000  0.02062   7.50
O018  3  0.64389  0.75095  0.12174 11.00000  0.00825   7.44
O019  3  0.08643  0.05898  0.81715 11.00000  0.06737   7.42
N01A  2  0.57286  0.63305  0.40648 11.00000  0.01000   7.20
N01B  2  0.55790  0.54100  0.75312 11.00000  0.00010   7.16
N01C  2  0.43713 -0.04786  0.90806 11.00000  0.01440   7.14
N01D  2  0.07797  0.89344  0.68704 11.00000  0.01358   7.03
N01E  2  0.17504  0.32124  0.90074 11.00000  0.00890   6.98
N01F  2  0.45760  0.59312  0.04182 11.00000  0.00010   6.77
N01G  2  0.34550  0.84997  0.49519 11.00000  0.01613   6.71
N01H  2  0.24284  0.24232  0.18151 11.00000  0.01773   6.71
N01I  2  0.33900  1.01814  0.50960 11.00000  0.00010   6.55
O01J  3 -0.07327  0.99574  0.30802 11.00000  0.03700   6.40
C01K  1  0.53700  0.29501  0.01713 11.00000  0.03587   6.36
C01L  1  0.67751  0.64166  0.86181 11.00000  0.00010   6.36
C01M  1  0.69248  0.36185  0.55491 11.00000  0.00112   6.30
C01N  1 -0.08216  0.78706  0.57330 11.00000  0.01931   6.29
C01O  1  0.98987  0.68186  0.22715 11.00000  0.00924   6.11
C01P  1 -0.16901  0.19852  0.75568 11.00000  0.00010   5.92
N01Q  2  0.16643  0.55409  0.69991 11.00000  0.00010   5.89
C01R  1  1.04372  0.89965  0.11465 11.00000  0.00010   5.67
C01S  1  0.51528  0.92596  0.17914 11.00000  0.00010   5.53
C01T  1  0.35442  0.26304  0.60603 11.00000  0.00010   5.19
C01U  1  0.59285  0.72391  0.82284 11.00000  0.00010   4.95
C01V  1 -0.31850  0.05371  0.72239 11.00000  0.00010   4.65
C01W  1  0.53515  0.85250  0.39790 11.00000  0.01172   4.40
C01X  1  0.90934  0.58002  0.17748 11.00000  0.00010   4.24
C01Y  1  0.91131  0.64949  0.84753 11.00000  0.00458   4.16
N01Z  2  0.44679  0.35159  0.31319 11.00000  0.00812   4.14
C020  1  0.38400  0.42770  0.83966 11.00000  0.00010   4.10
C021  1  0.78106  0.72115  0.70783 11.00000  0.03026   4.09
C022  1  0.97633  0.41040  0.78166 11.00000  0.00010   4.07
C023  1  0.18117  0.99717  0.28716 11.00000  0.00523   3.89
C024  1 -0.06984  0.32581  0.95075 11.00000  0.00421   3.68
C025  1  0.22517  0.26438  0.83295 11.00000  0.02029   3.68
C026  1  0.51330  0.81124  0.05035 11.00000  0.02707   3.66
C027  1  1.17809  0.63288  0.25743 11.00000  0.03337   3.65
C028  1  1.34861  0.73889  0.20637 11.00000  0.00010   3.56
C029  1  1.05392  0.66087  0.77142 11.00000  0.01814   3.53
C02A  1  0.78737  0.52064  0.19664 11.00000  0.00010   3.46
C02B  1  0.07236  0.14898  0.69295 11.00000  0.00010   3.44
C02C  1  0.38639  0.12298  0.06190 11.00000  0.01923   3.42
HKLF 4
END
