TITL 5_a.res in P1
REM Old TITL 5 in P1
REM SHELXT solution in P1: R1 0.354, Rweak 0.179, Alpha 0.000
REM <I/s>   0.000 for    0 systematic absences,  Orientation as input
REM Flack x = -0.157 ( 1.291 ) from     6 Parsons' quotients
REM Formula found by SHELXT:  C27 N12 O17 Cl12

CELL  0.71073   4.7800  11.4000  19.5532   90.000   96.939   90.000
ZERR   14.000   0.0010   0.0023   0.0039    0.030    0.030    0.030
LATT -1
SFAC C N O CL
UNIT 14 14 14 14
L.S. 10
BOND
LIST 6
FMAP 2
PLAN 20
CL01  4  0.62201  0.79325  0.10467 11.00000  0.06878  18.90
CL02  4  0.61477  0.83930  0.25853 11.00000  0.08282  18.30
CL03  4 -0.16713  1.13801  0.12231 11.00000  0.05832  17.46
CL04  4  0.55465  0.32008  0.41988 11.00000  0.04914  17.31
CL05  4  0.04357  0.60529  0.49932 11.00000  0.09799  16.39
CL06  4  0.07816  0.42810  0.17883 11.00000  0.09345  14.67
CL07  4  0.24390  0.76070  0.32656 11.00000  0.04743  13.67
CL08  4  0.28004  0.97630  0.24319 11.00000  0.11756  13.60
CL09  4 -0.08398  0.51064  0.22956 11.00000  0.03911  13.44
CL0A  4  0.24870  0.73432  0.38408 11.00000  0.04332  13.02
O00B  3  0.51937  0.69240  0.23336 11.00000  0.02315  12.35
O00C  3  0.45557  0.82378  0.30202 11.00000  0.00415  12.01
O00D  3 -0.48978  0.71609  0.50765 11.00000  0.02813  11.29
CL0E  4 -0.01157  0.65860 -0.00235 11.00000  0.12371  11.29
O00F  3  0.96083  0.00797  0.52411 11.00000  0.00046  10.19
CL0G  4 -0.36902  0.82745  0.66144 11.00000  0.27368  10.07
O00H  3 -0.13242  0.61196  0.13526 11.00000  0.00641   9.85
O00I  3  1.53432  0.12083  0.98243 11.00000  0.05300   9.66
O00J  3 -0.26926  0.91474  0.83901 11.00000  0.09967   9.11
O00K  3 -0.06261  0.89700  0.13517 11.00000  0.05418   8.77
C00L  1 -0.04689  0.59758  0.59590 11.00000  0.01449   8.67
O00M  3  1.35847  0.42745  0.82055 11.00000  0.03850   8.60
O00N  3  0.81734  0.11583  0.39104 11.00000  0.02985   8.53
C00O  1  0.19669  0.89068  0.12416 11.00000  0.00142   8.24
C00P  1 -0.28502  0.52995  0.59271 11.00000  0.02001   8.13
N00Q  2 -0.28076  0.50166  0.22793 11.00000  0.00010   8.08
O00R  3  1.50853  0.34148  0.69917 11.00000  0.00487   8.05
O00S  3  0.78466  0.34692  0.51786 11.00000  0.03502   7.74
N00T  2  0.13792  0.48554  0.19670 11.00000  0.00010   7.71
O00U  3 -0.23656  0.34211  0.25631 11.00000  0.00593   7.67
N00V  2  0.08157  0.67662  0.31276 11.00000  0.00010   7.67
O00W  3  1.29841  0.21507  0.61757 11.00000  0.08353   7.59
N00X  2 -0.29662  0.65349  0.52674 11.00000  0.04952   7.42
N00Y  2  0.25626  0.65331  0.23352 11.00000  0.00697   7.28
N00Z  2 -0.53432  0.70679  0.74509 11.00000  0.03362   6.71
N010  2  0.04575  0.47503  0.27655 11.00000  0.00010   6.70
N011  2  0.27119  0.61127  0.42859 11.00000  0.04964   6.69
N012  2  0.40583  0.32675  0.32665 11.00000  0.02144   6.53
C013  1  0.07299  0.70969  0.22754 11.00000  0.01610   6.52
C014  1  0.71101  0.28112  0.46168 11.00000  0.06263   6.46
N015  2  0.00214  0.47272  0.63796 11.00000  0.11358   6.28
C016  1  1.18096  0.34270  0.51718 11.00000  0.00010   6.21
O017  3  0.15405  0.73848  0.18196 11.00000  0.00010   6.02
C018  1  1.19286 -0.01175  0.97838 11.00000  0.00505   6.01
C019  1  1.05022  0.12862  0.56691 11.00000  0.00010   5.87
C01A  1  0.57790  0.74210  0.17234 11.00000  0.00010   5.80
C01B  1 -0.15948  0.65463  0.76849 11.00000  0.06448   5.63
C01C  1  0.41135  0.89932  0.18164 11.00000  0.00010   5.52
N01D  2  0.85874  0.09604  0.69127 11.00000  0.02733   5.50
O01E  3 -0.39987  0.54659  0.65448 11.00000  0.11651   5.34
C01F  1  1.15354  0.27979  0.77377 11.00000  0.00010   5.22
O01G  3  0.99139 -0.13801  0.49543 11.00000  0.04755   4.99
N01H  2  0.94601  0.24889  0.52317 11.00000  0.00834   4.86
C01I  1  1.34681  0.43948  0.52378 11.00000  0.00010   4.81
C01J  1 -0.22942  0.39359  0.32240 11.00000  0.00010   4.80
C01K  1  0.09019  0.66344  0.83507 11.00000  0.01179   4.71
C01L  1  1.35406 -0.11235  0.97679 11.00000  0.00774   4.65
C01M  1  1.03394  0.15059  0.48722 11.00000  0.02551   4.63
C01N  1  0.34750  0.39242  0.30931 11.00000  0.00699   4.39
C01O  1  1.11299  0.28383  0.92873 11.00000  0.02063   4.22
C01P  1  0.27167  0.55300  0.33984 11.00000  0.03226   4.00
C01Q  1  1.24332  0.11550  1.00235 11.00000  0.01221   3.93
C01R  1  0.16714  1.01915  0.13549 11.00000  0.01481   3.90
C01S  1  0.64471 -0.11319  0.48129 11.00000  0.00172   3.89
C01T  1  0.07779  0.60181  0.35327 11.00000  0.00010   3.56
C01U  1  1.09460  0.22556  0.85537 11.00000  0.00675   3.48
C01V  1  1.45354  0.38694  0.57127 11.00000  0.02469   3.31
C01W  1 -0.51687  0.80511  0.84039 11.00000  0.00533   3.08
HKLF 4
END
