TITL 6_a.res in P-1
REM Old TITL 6 in P1
REM SHELXT solution in P-1: R1 0.323, Rweak 0.106, Alpha 0.179
REM <I/s>   0.000 for    0 systematic absences,  Orientation as input
REM Formula found by SHELXT:  C N O Cl3

CELL  0.71073   4.9500  11.2500  20.0800   90.000   85.260   90.000
ZERR   15.000   0.0010   0.0022   0.0040    0.030    0.030    0.030
LATT  1
SFAC C N O CL
UNIT 15 15 15 15
L.S. 10
BOND
LIST 6
FMAP 2
PLAN 20
CL01  4  0.15291  0.56918  0.47263 11.00000  0.03633  18.19
CL02  4  0.36959  0.60321  0.37690 11.00000  0.26486  15.92
CL03  4  0.21599  0.59595  0.43093 11.00000  0.06096  13.42
O004  3  0.13213  0.54207  0.54042 11.00000  0.06253  11.44
N005  2  0.59686  0.84773  0.21439 11.00000  0.08941   6.66
C006  1  0.34433  0.65229  0.54042 11.00000  0.07269   5.40
HKLF 4
END
