TITL 7_a.res in P1
REM Old TITL 7 in P1
REM SHELXT solution in P1: R1 0.302, Rweak 0.289, Alpha 0.000
REM <I/s>   0.000 for    0 systematic absences,  Orientation as input
REM Flack x = -0.163 ( 0.633 ) from    91 Parsons' quotients
REM Formula found by SHELXT:  C33 N15 O11 Cl3

CELL  0.71073   4.8400  11.5200  19.4400   90.000   83.360   90.000
ZERR   14.000   0.0010   0.0023   0.0039    0.030    0.030    0.030
LATT -1
SFAC C N O CL
UNIT 14 14 14 14
L.S. 10
BOND
LIST 6
FMAP 2
PLAN 20
CL01  4  1.28127  0.77971  0.33989 11.00000  0.04045  26.22
CL02  4  0.41997  0.41006  0.49759 11.00000  0.07963  20.07
CL03  4  0.51685  0.46104  0.42465 11.00000  0.04594  19.30
O004  3  0.25684  0.33768  0.51943 11.00000  0.00010  11.20
O005  3  0.00695  0.24067  0.60923 11.00000  0.01453   9.82
O006  3  1.15022  0.17473  0.26584 11.00000  0.03108   9.66
N007  2  1.27595  0.88634  0.46928 11.00000  0.02750   9.56
N008  2  1.01576  0.64588  0.25823 11.00000  0.00632   9.53
O009  3  1.00103  0.21236  0.29963 11.00000  0.12074   9.50
O00A  3 -0.64479 -0.11388  0.98544 11.00000  0.05518   8.68
C00B  1  1.34126  0.63000  0.20583 11.00000  0.04965   8.42
O00C  3 -0.08335  0.21356  0.55918 11.00000  0.06646   8.17
O00D  3  0.78572  0.67964  0.27829 11.00000  0.06239   8.14
O00E  3  0.40115  0.59669  0.74398 11.00000  0.00081   8.08
N00F  2  0.78790  0.55647  0.39434 11.00000  0.01365   7.95
O00G  3  0.76814  0.13656  0.38842 11.00000  0.04211   7.75
N00H  2  0.11227  0.41991  0.52822 11.00000  0.00010   7.32
N00I  2  0.24397  0.45644  0.69551 11.00000  0.03793   7.26
N00J  2  0.00677  0.55277  0.78097 11.00000  0.04194   7.24
N00K  2  0.53326  0.29896  0.38212 11.00000  0.01876   7.19
N00L  2 -0.14819  0.12363  0.67420 11.00000  0.07441   7.18
N00M  2 -0.13410  0.80035  0.61999 11.00000  0.01025   6.91
C00N  1  0.37286  0.20331  0.09945 11.00000  0.01371   6.79
N00O  2  0.61240  0.51649  0.54732 11.00000  0.02124   6.78
N00P  2  0.04127  0.74877  0.71954 11.00000  0.00897   6.73
N00Q  2  1.47207  0.88867  0.47137 11.00000  0.04510   6.63
N00R  2  0.92116 -0.02542  0.16966 11.00000  0.00010   6.62
N00S  2  1.31034  0.54897  0.11843 11.00000  0.04759   6.62
C00T  1  0.91126  0.62449  0.32498 11.00000  0.00975   6.46
C00U  1  1.64479  1.00191  0.59790 11.00000  0.00240   6.27
C00V  1  0.76277  0.45719  0.12438 11.00000  0.02786   6.25
C00W  1 -0.19973  0.09119  0.74530 11.00000  0.01203   6.06
O00X  3  0.62703  0.30968  0.05976 11.00000  0.05182   6.04
C00Y  1  1.58669  0.94748  0.52627 11.00000  0.06085   5.90
C00Z  1  0.14672  0.08012  0.65075 11.00000  0.00470   5.72
C010  1  1.20537  0.02557  0.37238 11.00000  0.02706   5.65
C011  1 -0.34846  0.11485  0.94550 11.00000  0.03821   5.62
C012  1  1.18589  0.78048  0.47490 11.00000  0.00442   5.47
C013  1  1.07159  0.64884  0.01456 11.00000  0.03102   5.25
C014  1  1.21684  0.49099  0.29702 11.00000  0.02438   5.19
C015  1  1.51731  1.11388  0.51339 11.00000  0.05558   5.10
C016  1  1.35392  0.74068  0.52475 11.00000  0.05036   4.96
C017  1  1.27257  0.95406  0.53775 11.00000  0.00259   4.96
C018  1  0.98284  0.09287  0.29326 11.00000  0.03307   4.89
C019  1  0.46566  0.68317  0.84959 11.00000  0.00505   4.84
C01A  1  0.98327  0.56933  0.50695 11.00000  0.07538   4.80
C01B  1  0.73759  0.48148  0.27683 11.00000  0.02676   4.78
C01C  1  0.14464  0.29517  0.86583 11.00000  0.03109   4.75
C01D  1  0.00150  0.37395  0.92079 11.00000  0.03702   4.74
C01E  1  0.72662  0.56508  0.46505 11.00000  0.04951   4.72
C01F  1 -0.29570  0.22820  0.59999 11.00000  0.01336   4.71
N01G  2  1.25135  0.69750  0.20046 11.00000  0.04843   4.71
C01H  1  0.99722 -0.02657  0.31533 11.00000  0.02348   4.56
C01I  1 -0.59604  0.05001  0.75159 11.00000  0.03490   4.48
C01J  1  1.28571  0.82368  0.41896 11.00000  0.00010   4.28
C01K  1  0.93122  0.58378  0.08723 11.00000  0.01221   4.24
C01L  1  0.06705  0.46674  0.83400 11.00000  0.01507   4.20
C01M  1  0.54427  0.24130  0.14510 11.00000  0.00715   4.17
C01N  1 -0.26407  0.05927  0.79989 11.00000  0.01122   3.51
C01O  1  0.15640  0.54240  0.63760 11.00000  0.02497   3.50
C01P  1  1.01713  0.66175  0.42777 11.00000  0.03027   3.39
O01Q  3  0.18296  0.25083  0.80059 11.00000  0.01572   3.08
HKLF 4
END
