TITL temp01_expF_1_4_expS_0_9_temp01_a.res in Imm2
REM Old TITL 1 in I222
REM SHELXT solution in Imm2: R1 0.754, Rweak 0.179, Alpha 0.033
REM <I/s>   0.000 for    0 systematic absences,  Orientation as input
REM Flack x = -9.990 ( 1.053 ) from   429 Parsons' quotients
REM Formula found by SHELXT:  C36 N28 O13 Cl3

CELL  0.71073   9.4370  15.1530  30.5090   90.000   90.000   90.000
ZERR   53.000   0.0019   0.0030   0.0061    0.000    0.000    0.000
LATT -2
SYMM -X, -Y, Z
SYMM X, -Y, Z
SYMM -X, Y, Z
SFAC H C N O ZR CL
UNIT 0 0 0 0 0 0
L.S. 10
BOND
LIST 6
FMAP 2
PLAN 20
CL01  6  0.30430  0.50000  0.37133 10.50000  0.09727  19.47
C002  2  0.25474  0.50000  0.49810 10.50000  0.02534  12.77
CL03  6  0.00000  0.50000  0.40899 10.25000  0.08531  12.63
O004  4  0.18017  1.00000  0.54098 10.50000  0.05316  11.98
O005  4  0.50000  0.70462  0.41757 10.50000  0.10334  11.66
O006  4  0.35612  0.50000  0.49793 10.50000  0.04805  10.99
O007  4  0.50000  0.52886  0.36023 10.50000  0.07760  10.81
O008  4  0.06343  0.50000  0.49326 10.50000  0.03612  10.05
C009  2  0.00000  0.50000  0.30107 10.25000  0.03070   9.77
N00A  3  0.10780  0.50000  0.41669 10.50000  0.00010   9.63
N00B  3  0.11511  0.50000  0.29557 10.50000  0.07753   9.09
C00C  2  0.00000  1.00000  0.47050 10.25000  0.01561   9.01
O00D  4  0.50000  0.50000  0.30711 10.25000  0.02638   8.32
O00E  4  0.00000  0.37505  0.26851 10.50000  0.12679   8.14
C00F  2  0.50000  1.00000  0.59364 10.25000  0.03747   7.65
N00G  3  0.36254  1.00000  0.58065 10.50000  0.01785   7.63
N00H  3  0.66025  1.00000  0.63641 10.50000  0.03278   7.12
N00I  3  0.00000  0.61087  0.44742 10.50000  0.00243   6.91
N00J  3  0.70011  0.68119  0.34941 11.00000  0.04535   6.71
C00K  2  0.50000  0.50000  0.40320 10.25000  0.00161   6.39
C00L  2  1.00000  1.04177  0.67720 10.50000  0.03933   6.35
N00M  3  0.50000  0.87448  0.43280 10.50000  0.10864   5.88
N00N  3  0.00000  0.17490  0.28897 10.50000  0.07683   5.85
C00O  2  0.50000  0.78997  0.36627 10.50000  0.02092   5.46
N00P  3  1.00000  1.28334  0.70017 10.50000  0.02232   5.46
C00Q  2  0.55129  1.00000  0.63729 10.50000  0.03076   5.43
C00R  2  0.00000  0.81051  0.45984 10.50000  0.01084   5.17
C00S  2  0.50000  0.50000  0.51505 10.25000  0.07661   5.07
C00T  2  0.00000  0.92485  0.53524 10.50000  0.01143   4.80
C00U  2  0.50000  0.87218  0.59167 10.50000  0.08349   4.53
C00V  2  0.31573  0.61183  0.43226 11.00000  0.02820   4.50
N00W  3  1.11620  1.13584  0.73149 11.00000  0.05396   4.27
N00X  3 -0.29819  0.00000  0.29363 10.50000  0.01189   4.22
N00Y  3  0.12922  1.00000  0.46967 10.50000  0.08356   4.18
C00Z  2  0.77894  0.91230  0.60987 11.00000  0.00924   3.91
C010  2  0.82482  1.00000  0.64595 10.50000  0.00373   3.89
C011  2  0.24332  0.70526  0.47795 11.00000  0.07913   3.70
C012  2  1.00000  1.00000  0.61403 10.25000  0.01563   3.38
C013  2  0.50000  0.68415  0.31784 10.50000  0.08088   3.10
HKLF 4
END
