TITL temp01_expF_1_0_expS_1_3_temp01_a.res in Imm2
REM Old TITL 1 in I222
REM SHELXT solution in Imm2: R1 0.639, Rweak 0.411, Alpha 0.230
REM <I/s>   0.000 for    0 systematic absences,  Orientation as input
REM Flack x = -9.990 ( 9.990 ) from   139 Parsons' quotients
REM Formula found by SHELXT:  C54 N25 O22

CELL  0.71073   9.4370  15.1530  30.5090   90.000   90.000   90.000
ZERR   53.000   0.0019   0.0030   0.0061    0.000    0.000    0.000
LATT -2
SYMM -X, -Y, Z
SYMM X, -Y, Z
SYMM -X, Y, Z
SFAC H C N O ZR
UNIT 0 0 0 0 0
L.S. 10
BOND
LIST 6
FMAP 2
PLAN 20
O001  4  1.00000  1.00000  0.56185 10.25000  0.26917  14.90
C002  2  1.16009  1.00000  0.62787 10.50000  0.05094  14.14
C003  2  1.00000  0.84768  0.52852 10.50000  0.03674  14.04
O004  4  0.35991  0.50000  0.69714 10.50000  0.06801  12.25
O005  4  0.50000  1.00000  0.41032 10.25000  0.17747  11.98
O006  4  0.50000  0.50000  0.31075 10.25000  0.00010  10.11
O007  4  0.71460  1.00000  0.53461 10.50000  0.22345  10.08
C008  2  0.96106  0.50000  0.24289 10.50000  0.00010   9.79
O009  4  1.00000  0.70382  0.47705 10.50000  0.03296   9.54
N00A  3  0.50000  0.95923  0.51095 10.50000  0.03793   8.95
C00B  2  0.91308  0.50000  0.27924 10.50000  0.11689   8.56
O00C  4  0.77818  1.00000  0.46037 10.50000  0.06454   8.32
O00D  4  0.50000  0.64569  0.68368 10.50000  0.17800   8.22
N00E  3  0.55049  1.00000  0.54149 10.50000  0.02800   7.69
O00F  4  0.50000  0.50000  0.47122 10.25000  0.11479   7.58
O00G  4  0.78678  0.82278  0.58301 11.00000  0.05468   7.41
O00H  4  0.87078  0.85393  0.52227 11.00000  0.05906   7.41
N00I  3  0.68148  0.90811  0.55968 11.00000  0.04851   6.87
N00J  3  0.70054  0.50000  0.31645 10.50000  0.00010   6.63
C00K  2  1.00000  0.75923  0.47586 11.00000  0.07252   6.39
N00L  3  0.50000  0.77678  0.61296 10.50000  0.04046   5.67
C00M  2  0.50000  0.75849  0.36136 10.50000  0.08967   5.64
N00N  3  1.00000  0.50000  0.38722 10.25000  0.06032   5.48
N00O  3  0.77803  0.75988  0.48119 11.00000  0.00601   5.43
C00P  2  0.00000  0.56040  0.64579 10.50000  0.08978   5.17
C00Q  2  0.71324  0.70063  0.41373 11.00000  0.01155   4.70
C00R  2  0.22248  0.50000  0.70107 10.50000  0.09138   4.48
C00S  2  0.50000  0.59149  0.40426 10.50000  0.01607   4.43
C00T  2  0.10617  0.61725  0.66656 11.00000  0.06436   4.27
N00U  3  0.35630  0.61319  0.67997 11.00000  0.07344   4.25
C00V  2  0.50000  0.50000  0.75711 10.25000  0.00010   3.95
C00W  2  0.85848  1.00000  0.38045 10.50000  0.00252   3.92
C00X  2  0.25354  0.63709  0.66211 11.00000  0.02476   3.91
C00Y  2  0.71469  1.00000  0.48997 10.50000  0.00010   3.89
C00Z  2  0.50000  0.81592  0.40531 10.50000  0.00374   3.81
N010  3  0.00000  0.80199  0.66626 10.50000  0.05568   3.74
C011  2  0.10629  0.50000  0.73610 11.00000  0.15131   3.58
N012  3  1.20340  1.00000  0.68546 10.50000  0.07856   3.55
C013  2  0.44322  0.85463  0.36319 11.00000  0.05209   3.28
C014  2  0.50000  1.00000  0.33149 10.25000  0.02294   3.12
C015  2  1.00000  0.73793  0.56866 10.50000  0.05069   3.04
C016  2  0.69516  0.60856  0.34480 11.00000  0.07832   3.01
HKLF 4
END
