TITL temp01_expF_1_0_expS_1_5_temp01_a.res in Imm2
REM Old TITL 1 in I222
REM SHELXT solution in Imm2: R1 0.660, Rweak 0.440, Alpha 0.155
REM <I/s>   0.000 for    0 systematic absences,  Orientation as input
REM Flack x = -2.284 ( 2.796 ) from    37 Parsons' quotients
REM Formula found by SHELXT:  C77 N27 O39 Zr

CELL  0.71073   9.4370  15.1530  30.5090   90.000   90.000   90.000
ZERR   53.000   0.0019   0.0030   0.0061    0.000    0.000    0.000
LATT -2
SYMM -X, -Y, Z
SYMM X, -Y, Z
SYMM -X, Y, Z
SFAC H C N O ZR
UNIT 0 0 0 0 0
L.S. 10
BOND
LIST 6
FMAP 2
PLAN 20
ZR01  5  0.50000  0.50000  0.37087 10.25000  0.06609  25.84
O002  4  0.79230  0.50000  0.42435 10.50000  0.00010  23.47
O003  4  1.00000  0.67936  0.47060 10.50000  0.04719  23.22
O004  4  0.70148  0.50000  0.38686 10.50000  0.04277  22.16
O005  4  1.00000  0.50000  0.45896 10.25000  0.00415  19.15
O006  4  1.00000  0.50000  0.33915 10.25000  0.05231  18.68
N007  3  1.00000  0.50000  0.24145 10.50000  0.09909  18.14
O008  4  0.82135  0.50000  0.52724 10.50000  0.00010  14.47
O009  4  0.00000  0.00000  0.73398 10.25000  0.07819  14.32
O00A  4  0.00000  0.00000  0.53998 10.25000  0.05508  14.32
O00B  4  0.78156  0.50000  0.24126 10.50000  0.00010  14.05
O00C  4  0.50000  0.50000  0.69543 10.25000  0.02458  12.62
N00D  3  1.00000  0.57667  0.25669 10.50000  0.01219  12.45
O00E  4  0.50000  0.00000  0.64546 10.25000  0.01588  11.38
O00F  4  0.90642  0.65820  0.47337 11.00000  0.04279  10.95
O00G  4  0.88226  0.57999  0.46346 11.00000  0.07091  10.26
O00H  4  0.50000  0.09889  0.58194 10.50000  0.00904  10.16
O00I  4  0.50000  0.00000  0.37646 10.25000  0.18529   9.95
N00J  3  1.00000  0.66657  0.35933 10.50000  0.00010   8.66
C00K  2  1.13016  0.79317  0.53334 11.00000  0.00010   8.64
O00L  4  0.50000  0.58217  0.79180 10.50000  0.03819   8.51
O00M  4  0.93675  0.58556  0.39633 11.00000  0.00010   7.98
N00N  3  0.64448  0.50000  0.75568 10.50000  0.01053   7.94
O00O  4  1.20592  0.72458  0.51122 11.00000  0.03477   7.90
N00P  3  0.50000  0.39150  0.43365 10.50000  0.00010   7.90
O00Q  4  0.14497  0.00000  0.59224 10.50000  0.18188   7.40
C00R  2  0.50000  0.50000  0.78568 10.25000  0.00086   7.21
N00S  3  0.50000  0.32114  0.56689 10.50000  0.00010   7.18
N00T  3  1.17271  0.80389  0.29126 11.00000  0.04427   6.84
N00U  3  0.50000  0.50000  0.56747 10.25000  0.00509   6.53
C00V  2  0.34652  0.22361  0.58208 11.00000  0.00250   6.29
C00W  2  0.50000  0.26927  0.59018 10.50000  0.02009   6.01
C00X  2  0.00000  0.00000  0.64981 10.25000  0.01859   5.97
C00Y  2  1.00000  0.50000  0.62337 10.25000  0.09858   5.93
C00Z  2  1.00000  0.71557  0.58530 10.50000  0.00010   5.81
C010  2  0.39925  0.28909  0.33614 11.00000  0.00010   5.52
C011  2  0.75623  0.41901  0.65998 11.00000  0.03881   5.51
C012  2  0.87476  0.47990  0.61706 11.00000  0.00010   5.43
C013  2  0.50000  0.22024  0.52340 10.50000  0.02792   5.40
C014  2  0.34074  0.00000  0.63143 10.50000  0.11419   5.08
C015  2  1.00000  0.86607  0.48586 10.50000  0.00065   4.97
C016  2  0.22030  0.00000  0.59702 10.50000  0.00121   4.89
C017  2  0.50000  0.15681  0.61768 10.50000  0.00010   4.82
C018  2  0.39858  0.36329  0.43002 11.00000  0.00010   4.62
N019  3  1.13740  0.68552  0.20820 11.00000  0.07709   4.57
N01A  3  1.00000  0.77595  0.50565 10.50000  0.09976   4.31
C01B  2  1.00000  0.50000  0.77290 10.25000  0.08647   4.23
C01C  2  0.81078  0.69385  0.39209 11.00000  0.00010   4.16
C01D  2  0.50000  0.14262  0.44875 10.50000  0.05977   4.05
C01E  2  0.78794  0.85223  0.39418 11.00000  0.01315   4.04
C01F  2  0.50000  0.09603  0.39052 10.50000  0.05795   4.02
C01G  2  1.00000  0.61059  0.63657 10.50000  0.00010   4.02
C01H  2  0.50000  0.28854  0.47289 10.50000  0.00010   3.62
C01I  2  1.00000  0.72109  0.30260 10.50000  0.05197   3.58
N01J  3  0.43423  0.31930  0.46728 11.00000  0.07406   3.54
C01K  2  0.50000  0.26526  0.40278 10.50000  0.00010   3.45
C01L  2  0.50000  0.40607  0.67097 10.50000  0.00010   3.44
C01M  2  1.16904  0.70319  0.55822 11.00000  0.01320   3.42
C01N  2  0.00000  0.00000  0.65013 10.25000  0.01234   3.13
C01O  2  1.00000  0.85989  0.58445 10.50000  0.00210   3.13
C01P  2  0.72401  0.43629  0.72842 11.00000  0.00010   3.06
C01Q  2  0.60358  0.50000  0.45942 10.50000  0.00684   3.05
HKLF 4
END
