TITL temp01_expF_1_4_expS_1_0_temp01_a.res in Imm2
REM Old TITL 1 in I222
REM SHELXT solution in Imm2: R1 0.763, Rweak 0.280, Alpha 0.253
REM <I/s>   0.000 for    0 systematic absences,  Orientation as input
REM Flack x = -9.990 ( 1.563 ) from   363 Parsons' quotients
REM Formula found by SHELXT:  C46 N22 O27 Cl12

CELL  0.71073   9.4370  15.1530  30.5090   90.000   90.000   90.000
ZERR   53.000   0.0019   0.0030   0.0061    0.000    0.000    0.000
LATT -2
SYMM -X, -Y, Z
SYMM X, -Y, Z
SYMM -X, Y, Z
SFAC H C N O ZR CL
UNIT 0 0 0 0 0 0
L.S. 10
BOND
LIST 6
FMAP 2
PLAN 20
CL01  6  0.50000  0.00000  0.43629 10.25000  0.08763  20.05
CL02  6  0.37106  0.00000  0.43716 10.50000  0.04387  18.43
CL03  6  0.50000  0.50000  0.49739 10.25000  0.02401  17.91
CL04  6  0.00000  0.00000  0.43281 10.25000  0.03211  14.19
CL05  6  0.00000  0.38831  0.58823 10.50000  0.06244  12.75
CL06  6  0.17938  0.00000  0.39511 10.50000  0.06171  12.64
CL07  6  0.09787  0.50000  0.59467 10.50000  0.03665  12.61
O008  4  0.50000  0.66532  0.62474 10.50000  0.02803  12.42
CL09  6  0.00000  0.00000  0.31356 10.25000  0.05949  12.22
O00A  4  0.32220  0.50000  0.66844 10.50000  0.01802  11.70
O00B  4  0.50000  0.50000  0.58853 10.25000  0.04659  11.10
O00C  4  0.28485  0.50000  0.56996 10.50000  0.07585  11.05
C00D  2  0.00000  0.21434  0.52651 10.50000  0.00010  10.24
N00E  3  0.50000  0.58196  0.68031 10.50000  0.04736   9.55
O00F  4  0.22062 -0.15499  0.38201 11.00000  0.02935   9.39
O00G  4  0.00000  0.16655  0.45641 10.50000  0.04267   9.22
O00H  4  0.31126  0.60707  0.62293 11.00000  0.04553   8.79
N00I  3  0.00000  0.50000  0.58804 10.25000  0.01780   8.63
O00J  4  0.60074  0.79575  0.66837 11.00000  0.03557   8.06
C00K  2  0.13694  0.22482  0.53623 11.00000  0.01367   7.62
N00L  3  0.26277  0.22519  0.52536 11.00000  0.05229   6.97
C00M  2  0.66491  0.00000  0.24133 10.50000  0.04816   6.44
C00N  2  0.50000  0.37415  0.50495 10.50000  0.03016   6.42
C00O  2  0.50000  0.75032  0.67540 10.50000  0.00640   6.23
N00P  3  0.50000 -0.32019  0.29060 10.50000  0.00844   6.19
C00Q  2  0.00000  0.37980  0.45298 10.50000  0.08324   6.15
C00R  2  0.50000  0.00000  0.28368 10.25000  0.00010   5.79
C00S  2  0.50000  0.00000  0.22598 10.25000  0.05365   5.68
N00T  3  0.00000  0.50000  0.38432 10.25000  0.00010   5.66
O00U  4  0.16748  0.42081  0.51934 11.00000  0.02989   5.57
N00V  3  0.50000 -0.50000  0.29566 10.25000  0.01408   5.50
C00W  2  0.21749  0.28870  0.56043 11.00000  0.05211   5.28
C00X  2  0.45136  0.38575  0.45712 11.00000  0.01471   5.27
C00Y  2  0.50000  0.88781  0.63683 10.50000  0.00010   5.23
N00Z  3  0.25799  0.00000  0.51691 10.50000  0.03121   4.97
C010  2  0.29044  0.39975  0.51001 11.00000  0.00274   4.81
C011  2  0.50000 -0.12716  0.27313 10.50000  0.05207   4.62
C012  2  0.03688  0.50000  0.45202 10.50000  0.02464   4.57
C013  2  0.20022  0.00000  0.34641 10.50000  0.00791   4.08
N014  3  0.50000  1.00000  0.71057 10.25000  0.00744   3.83
C015  2  0.50000 -0.13015  0.24670 10.50000  0.00010   3.67
C016  2  0.65615 -0.18113  0.25867 11.00000  0.00862   3.65
C017  2  0.50000  1.06360  0.78972 10.50000  0.00010   3.47
N018  3  0.00000  0.32473  0.38776 10.50000  0.03024   3.39
N019  3  0.61251 -0.12535  0.25070 11.00000  0.02261   3.35
O01A  4  0.40504  0.00000  0.32462 10.50000  0.02270   3.20
C01B  2  0.50000  0.43537  0.51437 10.50000  0.06039   3.17
N01C  3  0.35509 -0.50000  0.21028 10.50000  0.02020   3.16
HKLF 4
END
