TITL temp01_expF_1_5_expS_1_4_temp01_a.res in Imm2
REM Old TITL 1 in I222
REM SHELXT solution in Imm2: R1 0.796, Rweak 0.375, Alpha 0.015
REM <I/s>   0.000 for    0 systematic absences,  Orientation as input
REM Flack x = -2.559 ( 0.785 ) from    93 Parsons' quotients
REM Formula found by SHELXT:  C48 N19 O33 Zr4

CELL  0.71073   9.4370  15.1530  30.5090   90.000   90.000   90.000
ZERR   53.000   0.0019   0.0030   0.0061    0.000    0.000    0.000
LATT -2
SYMM -X, -Y, Z
SYMM X, -Y, Z
SYMM -X, Y, Z
SFAC H C N O ZR
UNIT 0 0 0 0 0
L.S. 10
BOND
LIST 6
FMAP 2
PLAN 20
ZR01  5  0.94759  0.50000  0.55592 10.50000  0.16581  26.30
ZR02  5  0.81876  0.50000  0.55783 10.50000  0.18535  25.64
O003  4  0.50000  0.50000  0.52338 10.25000  0.04417  18.14
O004  4  0.50000  1.00000  0.69834 10.50000  0.16242  14.69
C005  2  0.86073  0.50000  0.40099 10.50000  0.07236  13.88
O006  4  0.00000  0.36027  0.61772 10.50000  0.05624  12.59
O007  4  0.50000  1.09389  0.76956 10.50000  0.21421  11.54
O008  4  0.73168  0.50000  0.46121 10.50000  0.11508  11.08
O009  4  0.50000  0.50000  0.41619 10.25000  0.05637  10.93
O00A  4  1.00000  1.00000  0.58694 10.25000  0.04822  10.11
O00B  4  0.50000  0.36711  0.46663 10.50000  0.07020  10.06
O00C  4  0.43257  0.00000  0.40202 10.50000  0.06218   9.66
O00D  4  0.50000  1.00000  0.76380 10.25000  0.16054   9.09
O00E  4  1.00000  0.66457  0.41879 10.50000  0.05184   8.26
O00F  4  0.66367  0.40677  0.52460 11.00000  0.08648   8.08
O00G  4  0.81918  0.32111  0.33327 11.00000  0.10611   8.01
C00H  2  0.59606  0.50000  0.29614 10.50000  0.07383   8.01
O00I  4  0.68829  0.34478  0.46964 11.00000  0.05945   7.71
O00J  4  0.85121  0.50000  0.32903 10.50000  0.12787   7.57
O00K  4  0.50000  0.00000  0.49068 10.25000  0.08195   7.40
N00L  3  0.50000  0.50000  0.73542 10.25000  0.06081   7.36
N00M  3  0.50000  0.04343  0.40880 10.50000  0.08985   7.10
N00N  3  0.50000  0.23108  0.33589 10.50000  0.04108   6.94
N00O  3  0.50000  0.32957  0.52554 10.50000  0.07421   6.91
N00P  3  1.00000  0.90833  0.63669 10.50000  0.04577   6.72
C00Q  2  0.17802  0.50000  0.68024 10.50000  0.03506   5.88
C00R  2  0.50000  0.18167  0.28032 10.50000  0.09961   5.69
C00S  2  0.50000  0.35380  0.30259 10.50000  0.03351   5.63
C00T  2  0.50000  0.93622  0.67950 10.50000  0.09014   5.48
N00U  3  0.00000  0.21951  0.55466 10.50000  0.07579   4.83
C00V  2  0.56028  0.80672  0.70838 11.00000  0.02492   4.80
C00W  2  0.50000  0.67222  0.70468 10.50000  0.01174   4.78
N00X  3  0.54997  0.63259  0.64854 11.00000  0.08674   4.28
C00Y  2  0.50000  0.54568  0.59299 10.50000  0.02587   4.02
C00Z  2  0.29635  0.21606  0.54627 11.00000  0.03096   4.00
C010  2  0.50000  0.58144  0.65010 10.50000  0.05328   3.93
C011  2  0.00000  0.12129  0.37608 10.50000  0.01338   3.80
N012  3  0.24590  0.00000  0.49175 10.50000  0.10618   3.77
C013  2  0.50000  0.76340  0.63377 10.50000  0.02516   3.69
N014  3  0.71863  0.50000  0.76972 10.50000  0.11360   3.54
C015  2  0.32354  0.13577  0.33745 11.00000  0.07789   3.39
C016  2  0.17009  0.44043  0.67638 11.00000  0.04070   3.13
C017  2  0.74012  0.80869  0.65452 11.00000  0.07310   3.11
C018  2  0.50000  0.29715  0.41009 10.50000  0.05182   3.09
C019  2  0.36620  0.50000  0.64872 10.50000  0.01588   3.04
C01A  2  0.50000  0.25410  0.23028 10.50000  0.06225   3.01
HKLF 4
END
