TITL temp01_expF_1_3_expS_0_7_temp01_a.res in Imm2
REM Old TITL 1 in I222
REM SHELXT solution in Imm2: R1 0.668, Rweak 0.087, Alpha 0.264
REM <I/s>   0.000 for    0 systematic absences,  Orientation as input
REM Flack x = -1.577 ( 1.406 ) from   568 Parsons' quotients
REM Formula found by SHELXT:  C61 N26 O21 Cl12

CELL  0.71073   9.4370  15.1530  30.5090   90.000   90.000   90.000
ZERR   53.000   0.0019   0.0030   0.0061    0.000    0.000    0.000
LATT -2
SYMM -X, -Y, Z
SYMM X, -Y, Z
SYMM -X, Y, Z
SFAC H C N O ZR CL
UNIT 0 0 0 0 0 0
L.S. 10
BOND
LIST 6
FMAP 2
PLAN 20
CL01  6  0.50000  1.00000  0.59489 10.25000  0.10901  22.84
CL02  6  0.37315  1.00000  0.59445 10.50000  0.07880  21.84
CL03  6  0.39513  1.00000  0.25230 10.50000  0.08993  17.90
CL04  6  0.00000  1.00000  0.48670 10.25000  0.08379  17.10
CL05  6  0.16599  1.00000  0.55834 10.50000  0.15381  14.73
CL06  6  0.50000  1.00000  0.25137 10.25000  0.09286  14.72
O007  4  0.50000  0.73536  0.42962 10.50000  0.10361  13.86
CL08  6  0.00000  1.00000  0.59939 10.25000  0.08540  13.44
CL09  6  0.28318  1.00000  0.25183 10.50000  0.12484  13.14
N00A  3  0.50000  0.95136  0.43689 10.50000  0.08263  11.04
O00B  4  0.50000  0.85264  0.38388 10.50000  0.02836  10.79
O00C  4  0.00000  0.89648  0.67529 10.50000  0.09049   9.85
O00D  4  0.33366  0.50000  0.36810 10.50000  0.04684   9.74
O00E  4  0.22273  0.82337  0.53597 11.00000  0.10573   9.54
O00F  4  0.25330  1.00000  0.44615 10.50000  0.10188   9.43
N00G  3  0.00000  0.84030  0.28573 10.50000  0.02180   9.43
O00H  4  0.18112  1.00000  0.66936 10.50000  0.06768   9.10
N00I  3  0.10395  0.93864  0.56075 11.00000  0.07135   9.09
N00J  3  0.50000  1.00000  0.44460 10.50000  0.13490   8.18
O00K  4  0.00000  1.00000  0.29591 10.25000  0.08316   8.09
O00L  4 -0.20670  0.84511  0.66013 11.00000  0.10767   7.33
N00M  3  0.42178  0.82710  0.38777 11.00000  0.03524   7.10
N00N  3  0.00000  0.86812  0.34789 10.50000  0.16317   7.05
N00O  3  0.50000  0.50000  0.42420 10.25000  0.07472   6.81
N00P  3  0.00000  0.85225  0.60583 10.50000  0.04642   6.66
N00Q  3  0.25275  0.91331  0.50176 11.00000  0.05463   6.61
C00R  2  0.00000  1.00000  0.72182 10.25000  0.07814   6.33
C00S  2  0.05077  0.82059  0.34615 11.00000  0.06871   6.02
C00T  2  0.50000  0.59881  0.37119 10.50000  0.05700   5.27
C00U  2  0.65717  0.60786  0.43297 11.00000  0.17252   5.21
C00V  2  0.50000  0.82124  0.20129 10.50000  0.06549   4.98
C00W  2  0.27175  0.81701  0.42809 11.00000  0.06189   4.97
C00X  2  0.36176  0.86004  0.29053 11.00000  0.07770   4.95
C00Y  2  0.73226  0.50000  0.49745 10.50000  0.04135   4.92
C00Z  2  0.32391  0.91811  0.19997 11.00000  0.04081   4.85
C010  2  0.17564  1.00000  0.72804 10.50000  0.01683   4.81
C011  2  0.34876  0.72603  0.36150 11.00000  0.04896   4.79
N012  3  0.50000  0.69651  0.55595 10.50000  0.08759   4.63
C013  2  1.00000  0.50000  0.54733 10.25000  0.02917   4.57
C014  2  0.28527  0.74396  0.51433 11.00000  0.05510   4.52
C015  2  0.06001  0.88292  0.28307 11.00000  0.03737   4.43
C016  2  0.20708  0.81595  0.32613 11.00000  0.10831   4.27
C017  2  0.00000  0.86534  0.50408 10.50000  0.03306   4.24
C018  2  0.50000  1.00000  0.47814 10.25000  0.08090   4.24
C019  2  0.81723  0.57964  0.52207 11.00000  0.12680   4.22
C01A  2  0.44424  0.80985  0.49264 11.00000  0.04292   3.68
C01B  2  0.42926  1.00000  0.72578 10.50000  0.16236   3.42
N01C  3  0.50000  1.00000  0.80003 10.25000  0.05877   3.28
C01D  2  0.50000  0.73180  0.31342 10.50000  0.04637   3.10
HKLF 4
END
