TITL temp01_expF_1_3_expS_0_8_temp01_a.res in Imm2
REM Old TITL 1 in I222
REM SHELXT solution in Imm2: R1 0.670, Rweak 0.064, Alpha 0.154
REM <I/s>   0.000 for    0 systematic absences,  Orientation as input
REM Flack x = -9.990 ( 3.093 ) from   475 Parsons' quotients
REM Formula found by SHELXT:  C44 N25 O23 Cl16

CELL  0.71073   9.4370  15.1530  30.5090   90.000   90.000   90.000
ZERR   53.000   0.0019   0.0030   0.0061    0.000    0.000    0.000
LATT -2
SYMM -X, -Y, Z
SYMM X, -Y, Z
SYMM -X, Y, Z
SFAC H C N O ZR CL
UNIT 0 0 0 0 0 0
L.S. 10
BOND
LIST 6
FMAP 2
PLAN 20
CL01  6  0.50000  0.65204  0.47404 10.50000  0.10379  18.40
CL02  6  0.50000  0.50000  0.48414 10.25000  0.08953  17.05
CL03  6  0.56562  1.00000  0.70041 10.50000  0.07950  15.46
CL04  6  0.81391  1.00000  0.69828 10.50000  0.07406  15.10
CL05  6  0.69184  1.00000  0.69950 10.50000  0.11454  14.98
CL06  6  0.00000  0.50000  0.37505 10.25000  0.14317  14.82
CL07  6  0.30349  0.50000  0.52583 10.50000  0.10541  14.10
CL08  6  0.32579  0.50000  0.41689 10.50000  0.12705  13.54
C009  2  0.56664  0.50000  0.60691 10.50000  0.00560  12.74
O00A  4  1.00000  1.00000  0.76365 10.25000  0.02581  12.45
CL0B  6  0.00000  0.59482  0.51034 10.50000  0.10373  12.20
O00C  4  0.11795  0.50000  0.36915 10.50000  0.07744  10.76
O00D  4  0.50000  0.75528  0.44195 10.50000  0.02358  10.74
O00E  4  0.88077  1.00000  0.76406 10.50000  0.09024  10.64
O00F  4  1.00000  1.00000  0.30220 10.25000  0.09558  10.48
O00G  4  0.67314  0.73244  0.43039 11.00000  0.04071   9.59
N00H  3  0.63314  0.77581  0.43642 11.00000  0.04704   9.58
O00I  4  0.93360  1.00000  0.69591 10.50000  0.07553   9.40
O00J  4  1.00000  0.80573  0.30236 10.50000  0.15703   8.91
O00K  4  1.00000  1.00000  0.43904 10.25000  0.01184   8.14
O00L  4  0.24009  0.67672  0.54716 11.00000  0.13106   7.81
N00M  3  0.29500  0.59925  0.48320 11.00000  0.08826   7.38
N00N  3  0.00000  0.73761  0.55337 10.50000  0.04589   7.12
O00O  4  0.50000  0.69227  0.63745 10.50000  0.04657   6.96
N00P  3  0.13458  0.83380  0.56736 11.00000  0.06614   6.64
N00Q  3  0.50000  0.57371  0.55035 10.50000  0.03320   6.55
C00R  2  0.43648  0.55340  0.42667 11.00000  0.03737   6.01
N00S  3  0.83431  1.00000  0.23594 10.50000  0.04331   5.51
C00T  2  0.78029  1.00000  0.35157 10.50000  0.03893   5.14
C00U  2  0.50000  0.85649  0.64542 10.50000  0.01042   5.08
C00V  2  0.50000  0.50000  0.37138 10.25000  0.00252   5.02
C00W  2  0.50000  0.67126  0.59829 10.50000  0.01539   4.98
C00X  2  0.94670  0.72706  0.31724 11.00000  0.09586   4.82
C00Y  2  0.85572  0.89007  0.32848 11.00000  0.05030   4.82
N00Z  3  0.14778  1.00000  0.60527 10.50000  0.04578   4.45
C010  2  0.50000  0.89881  0.66388 10.50000  0.02544   4.20
C011  2  0.00000  0.50000  0.59645 10.25000  0.01883   4.11
N012  3  0.00000  0.83730  0.64194 10.50000  0.10607   4.07
C013  2  0.21169  0.39855  0.36783 11.00000  0.03559   4.06
C014  2  0.78405  0.77897  0.36122 11.00000  0.06005   3.89
N015  3  0.00000  0.50000  0.69778 10.25000  0.04488   3.87
C016  2  0.61494  0.81651  0.64810 11.00000  0.06043   3.54
N017  3  0.00000  0.64089  0.72934 10.50000  0.12875   3.41
C018  2  0.11393  0.65190  0.58959 11.00000  0.01141   3.29
C019  2  1.00000  0.88137  0.36981 10.50000  0.02474   3.20
C01A  2  0.00000  0.63089  0.60266 10.50000  0.04362   3.01
HKLF 4
END
