TITL temp01_expF_1_3_expS_1_3_temp01_a.res in Imm2
REM Old TITL 1 in I222
REM SHELXT solution in Imm2: R1 0.741, Rweak 0.654, Alpha 0.228
REM <I/s>   0.000 for    0 systematic absences,  Orientation a'=c, b'=a, c'=b
REM Flack x = -1.712 ( 0.890 ) from   180 Parsons' quotients
REM Formula found by SHELXT:  C58 N20 O51 Zr2

CELL  0.71073  30.5090   9.4370  15.1530   90.000   90.000   90.000
ZERR   53.000   0.0061   0.0019   0.0030    0.000    0.000    0.000
LATT -2
SYMM -X, -Y, Z
SYMM X, -Y, Z
SYMM -X, Y, Z
SFAC H C N O ZR
UNIT 0 0 0 0 0
L.S. 10
BOND
LIST 6
FMAP 2
PLAN 20
ZR01  5  0.51216  0.43102  0.45375 10.50000  0.05103  27.50
O002  4  0.50000  0.24912  0.48019 10.50000  0.02417  23.50
O003  4  0.50000  0.20249  0.44082 10.50000  0.03596  19.42
O004  4  0.50000  0.00000  0.34504 10.25000  0.00010  19.14
O005  4  0.32211  0.50000  0.78449 10.50000  0.04203  12.89
O006  4  0.44013  0.00000  0.66051 10.50000  0.02391  12.25
O007  4  0.33000  0.50000  0.56509 10.50000  0.07867  11.71
O008  4  0.32396  0.50000  0.44769 10.50000  0.02334  11.49
O009  4  0.39614  0.00000  0.36541 10.50000  0.04454  10.58
O00A  4  0.45622 -0.18940  0.15331 11.00000  0.03238  10.23
C00B  2  0.24391  0.00000  0.58820 10.50000  0.04065   9.46
O00C  4  0.44454  0.12734  0.53209 11.00000  0.02246   9.30
O00D  4  0.41404  0.21713  0.33921 11.00000  0.01743   9.24
O00E  4  0.43037  0.00000  0.44304 10.50000  0.01282   8.90
O00F  4  0.37065  0.00000  0.49635 10.50000  0.07205   8.89
O00G  4  0.37937  0.00000  0.72401 10.50000  0.01733   8.35
O00H  4  0.32389  0.58062  0.74080 11.00000  0.06890   8.32
N00I  3  0.43283  0.05656  0.61012 11.00000  0.02983   8.31
O00J  4  0.28758  0.35177  0.62277 11.00000  0.03129   8.16
O00K  4  0.34533  0.00000  0.93912 10.50000  0.06213   7.94
O00L  4  0.53987  0.50000  0.61915 10.50000  0.06007   7.85
O00M  4  0.37620  0.27878  0.63502 11.00000  0.02046   7.73
N00N  3  0.24206  0.00000  0.44299 10.50000  0.01458   7.29
N00O  3  0.43154  0.00000  0.51338 10.50000  0.01169   7.21
N00P  3  0.38768  0.50000  0.15043 10.50000  0.00010   6.84
N00Q  3  0.50000  0.50000  0.14809 10.25000  0.00010   6.33
C00R  2  0.41840 -0.19013  0.75256 11.00000  0.03387   5.84
N00S  3  0.24806  0.20323  0.56866 11.00000  0.06510   5.44
C00T  2  0.45564  0.24254  0.35198 11.00000  0.02054   5.40
C00U  2  0.36050  0.41083  0.54697 11.00000  0.02441   5.36
N00V  3  0.50000  0.00000  0.97312 10.25000  0.03958   5.16
C00W  2  0.50000  0.00000  0.17671 10.50000  0.02324   5.13
C00X  2  0.37916  0.45423  0.35563 11.00000  0.00037   4.89
C00Y  2  0.19429 -0.09841  0.47015 11.00000  0.03320   4.62
C00Z  2  0.40211  0.00000  1.00117 10.50000  0.03103   4.59
C010  2  0.42069  0.13490  0.97205 11.00000  0.00354   4.46
N011  3  0.54298  0.50000  0.79562 10.50000  0.00010   4.42
C012  2  0.41993  0.00000  0.75904 10.50000  0.02909   4.36
C013  2  0.23118  0.00000  0.50074 10.50000  0.05057   4.17
C014  2  0.38859  0.23830  0.45341 11.00000  0.00010   4.07
C015  2  0.50000  0.12766  0.64709 10.50000  0.00010   3.98
C016  2  0.30048  0.50000  0.22966 10.50000  0.00958   3.84
C017  2  0.29223  0.50000  0.63708 10.50000  0.00251   3.79
O018  4  0.43051  0.00000  0.83578 10.50000  0.02273   3.74
C019  2  0.30294  0.79845  0.74703 11.00000  0.00010   3.74
N01A  3  0.43683  0.50000 -0.00117 10.50000  0.00253   3.54
C01B  2  0.32069  0.39229  0.13302 11.00000  0.00010   3.32
C01C  2  0.28439  0.50000  0.59080 10.50000  0.00044   3.28
C01D  2  0.27347  0.39380  0.35493 11.00000  0.01679   3.18
HKLF 4
END
