TITL temp01_expF_1_5_expS_0_9_temp01_a.res in Imm2
REM Old TITL 1 in I222
REM SHELXT solution in Imm2: R1 0.818, Rweak 0.138, Alpha 0.183
REM <I/s>   0.000 for    0 systematic absences,  Orientation as input
REM Flack x = -9.990 ( 2.782 ) from   408 Parsons' quotients
REM Formula found by SHELXT:  C35 N6 O25 Cl18

CELL  0.71073   9.4370  15.1530  30.5090   90.000   90.000   90.000
ZERR   53.000   0.0019   0.0030   0.0061    0.000    0.000    0.000
LATT -2
SYMM -X, -Y, Z
SYMM X, -Y, Z
SYMM -X, Y, Z
SFAC H C N O ZR CL
UNIT 0 0 0 0 0 0
L.S. 10
BOND
LIST 6
FMAP 2
PLAN 20
CL01  6  0.50000  0.50000  0.52483 10.25000  0.08064  17.13
CL02  6  0.90091  0.50000  0.52803 10.50000  0.09275  15.35
CL03  6  0.50000  0.50000  0.42626 10.25000  0.08684  14.75
CL04  6 -0.43246  0.00000  0.39093 10.50000  0.06381  14.23
CL05  6  0.00000  0.00000  0.26569 10.25000  0.02925  14.09
CL06  6  1.00000  1.00000  0.70817 10.25000  0.03223  13.49
CL07  6 -0.32669  0.00000  0.38797 10.50000  0.06677  13.38
CL08  6  1.00000  0.67228  0.66422 10.50000  0.07013  13.16
CL09  6  0.31406  0.50000  0.59890 10.50000  0.05468  12.74
O00A  4  0.50000  0.65021  0.54562 10.50000  0.03191  12.11
CL0B  6  0.74870  0.67844  0.46913 11.00000  0.09179  11.08
O00C  4  0.72524  0.50000  0.47670 10.50000  0.00410  10.72
O00D  4  0.87910  0.59697  0.50339 11.00000  0.02016  10.65
O00E  4  1.00000  0.61285  0.49329 10.50000  0.06384  10.38
N00F  3  0.88287  0.65572  0.66716 11.00000  0.02369   9.24
O00G  4  1.00000  0.78819  0.70658 10.50000  0.02261   9.20
O00H  4  0.00000  0.50000  0.32389 10.25000  0.03618   9.14
O00I  4  0.88078  0.50000  0.73431 10.50000  0.09146   8.46
C00J  2  0.50000  1.00000  0.70682 10.25000  0.05421   8.06
O00K  4  0.61158  1.00000  0.70425 10.50000  0.09074   7.69
O00L  4  1.00000  0.50000  0.61425 10.25000  0.13953   7.58
O00M  4  0.57859  0.75365  0.58487 11.00000  0.01324   7.49
O00N  4  0.00000  0.00000  0.38266 10.25000  0.06218   7.39
O00O  4  0.50000  0.32052  0.39914 10.50000  0.03940   7.35
C00P  2  0.68386  0.72531  0.58062 11.00000  0.03006   7.24
N00Q  3  0.50000  0.44448  0.46501 10.50000  0.04699   6.76
C00R  2  0.41771  0.39792  0.41123 11.00000  0.03762   6.37
C00S  2  0.95310  0.50000  0.72801 10.50000  0.02514   6.13
C00T  2  0.77782  1.00000  0.67691 10.50000  0.05569   5.81
C00U  2  0.67867  0.62518  0.53930 11.00000  0.00665   5.72
C00V  2 -0.15622  0.19751  0.30796 11.00000  0.02211   5.62
C00W  2  0.75520  0.77709  0.64670 11.00000  0.08489   4.96
C00X  2  0.50000  0.60268  0.61020 10.50000  0.03134   4.91
C00Y  2  0.17651  0.36386  0.32349 11.00000  0.04764   3.62
C00Z  2  0.00000  0.27060  0.31045 10.50000  0.02306   3.56
C010  2  0.00000  0.11534  0.30863 10.50000  0.00010   3.55
HKLF 4
END
