TITL temp01_expF_1_3_expS_1_0_temp01_a.res in Imm2
REM Old TITL 1 in I222
REM SHELXT solution in Imm2: R1 0.720, Rweak 0.093, Alpha 0.035
REM <I/s>   0.000 for    0 systematic absences,  Orientation as input
REM Flack x = -9.990 ( 2.354 ) from   375 Parsons' quotients
REM Formula found by SHELXT:  C40 N17 O34 Cl24

CELL  0.71073   9.4370  15.1530  30.5090   90.000   90.000   90.000
ZERR   53.000   0.0019   0.0030   0.0061    0.000    0.000    0.000
LATT -2
SYMM -X, -Y, Z
SYMM X, -Y, Z
SYMM -X, Y, Z
SFAC H C N O ZR CL
UNIT 0 0 0 0 0 0
L.S. 10
BOND
LIST 6
FMAP 2
PLAN 20
CL01  6  0.41665  0.50000  0.22308 10.50000  0.03178  23.76
CL02  6  0.29310  0.50000  0.22604 10.50000  0.08054  22.88
CL03  6  0.00000  0.00000  0.54863 10.25000  0.04213  22.13
CL04  6  0.33362  0.00000  0.50945 10.50000  0.04588  21.20
CL05  6  0.50000  0.00000  0.43362 10.25000  0.03157  18.83
CL06  6  0.16655  0.50000  0.22755 10.50000  0.02754  18.43
CL07  6  0.50000  0.14827  0.44884 10.50000  0.05473  18.14
CL08  6  0.50000  0.00000  0.60513 10.25000  0.11805  17.44
CL09  6  0.00000  0.50000  0.28545 10.25000  0.00725  16.75
CL0A  6  0.13893  0.00000  0.54453 10.50000  0.08185  16.39
CL0B  6  0.00000  0.50000  0.22603 10.25000  0.08379  15.87
CL0C  6  0.50000  0.18299  0.57846 10.50000  0.05508  15.42
CL0D  6  0.50000  0.50000  0.37901 10.25000  0.04144  14.81
CL0E  6  0.67452  0.00000  0.62717 10.50000  0.04148  12.73
O00F  4  0.00000  0.33949  0.28884 10.50000  0.02854  11.93
O00G  4  0.21943  0.16478  0.49732 11.00000  0.02775  11.50
CL0H  6  0.18658  0.50000  0.69160 10.50000  0.07697  10.92
O00I  4  0.26036  0.00000  0.38730 10.50000  0.03959  10.39
O00J  4  0.08414  0.39129  0.28807 11.00000  0.02495   9.90
O00K  4  0.00000  0.19900  0.32621 10.50000  0.05892   9.52
O00L  4  0.29890  0.09969  0.45956 11.00000  0.03467   9.21
O00M  4  0.50000  0.56554  0.26728 10.50000  0.00010   9.20
C00N  2  0.50000  0.50000  0.61880 10.25000  0.00010   8.37
O00O  4  0.00000  0.39709  0.69839 10.50000  0.00889   8.33
O00P  4  0.00000  0.16374  0.67844 10.50000  0.02433   8.26
O00Q  4 -0.10577  0.00000  0.46114 10.50000  0.00018   8.10
O00R  4 -0.19915  0.30803  0.69917 11.00000  0.04060   7.78
N00S  3  0.50000  0.56813  0.37671 10.50000  0.05642   7.12
N00T  3  0.00000  0.50000  0.63185 10.25000  0.02649   7.07
N00U  3  0.12809  0.50000  0.29536 10.50000  0.01017   7.04
N00V  3  0.50000  0.02110  0.50918 10.50000  0.04430   6.81
N00W  3  0.00000  0.13278  0.48494 10.50000  0.00010   6.81
N00X  3  0.58518  0.09379  0.65158 11.00000  0.00962   6.79
C00Y  2  0.00000  0.50000  0.50344 10.25000  0.03042   6.50
C00Z  2  0.00000  0.50000  0.77692 10.25000  0.00945   6.44
N010  3  0.50000  0.39618  0.61604 10.50000  0.00973   5.78
C011  2  0.00000  0.14819  0.42075 10.50000  0.00192   5.71
C012  2  0.00000  0.50000  0.76894 10.25000  0.10155   5.50
C013  2  0.33754  0.22650  0.36314 11.00000  0.04140   5.49
C014  2  0.50000  0.24405  0.51795 10.50000  0.00702   4.95
C015  2  0.70760  0.23337  0.58862 11.00000  0.02858   4.90
C016  2  0.13787  0.13030  0.50424 11.00000  0.00010   4.87
O017  4 -0.13243  0.50000  0.48979 10.50000  0.09343   4.80
C018  2  0.13150  0.20886  0.33486 11.00000  0.05142   4.70
C019  2  0.00000  0.40061  0.57407 10.50000  0.03266   4.59
O01A  4  0.00000  0.22727  0.53941 10.50000  0.01272   4.53
C01B  2  0.16024  0.55098  0.35689 11.00000  0.05291   3.62
C01C  2  0.00000  0.23962  0.50176 10.50000  0.00010   3.37
C01D  2 -0.06563  0.19480  0.27818 11.00000  0.02514   3.33
C01E  2  0.50000  0.09783  0.39793 10.50000  0.00270   3.14
C01F  2  0.00000  0.10519  0.60418 10.50000  0.01993   3.13
N01G  3  0.00000  0.04422  0.33566 10.50000  0.03842   3.07
HKLF 4
END
