TITL temp01_expF_1_1_expS_0_5_temp01_a.res in Imm2
REM Old TITL 1 in I222
REM SHELXT solution in Imm2: R1 0.835, Rweak 0.374, Alpha 0.206
REM <I/s>   0.000 for    0 systematic absences,  Orientation as input
REM Flack x =  0.499 ( 0.228 ) from   691 Parsons' quotients
REM Formula found by SHELXT:  C44 N17 O24 Cl11

CELL  0.71073   9.4370  15.1530  30.5090   90.000   90.000   90.000
ZERR   53.000   0.0019   0.0030   0.0061    0.000    0.000    0.000
LATT -2
SYMM -X, -Y, Z
SYMM X, -Y, Z
SYMM -X, Y, Z
SFAC H C N O ZR CL
UNIT 0 0 0 0 0 0
L.S. 10
BOND
LIST 6
FMAP 2
PLAN 20
CL01  6  0.00000  0.00000  0.24185 10.25000  0.06573  17.51
CL02  6  0.00000  0.16346  0.43732 10.50000  0.02406  13.97
CL03  6  0.00000  0.00000  0.45626 10.25000  0.20556  13.84
O004  4  0.73103  0.50000  0.53908 10.50000  0.00264  13.80
CL05  6  0.22431  0.00000  0.39278 10.50000  0.05746  13.43
CL06  6  0.50000  0.00000  0.34660 10.25000  0.06024  13.33
C007  2  0.50000  0.50000  0.52630 10.50000  0.00541  13.29
CL08  6 -0.15779  0.00000  0.22032 10.50000  0.04274  12.87
CL09  6  0.50000  0.33049  0.60599 10.50000  0.18893  11.62
C00A  2  0.50000  0.00000  0.55697 10.50000  0.20795   9.74
O00B  4  0.43086  0.00000  0.35852 10.50000  0.02781   9.43
C00C  2  0.50000  0.00000  0.57193 10.25000  0.13087   9.18
C00D  2 -0.07642  0.19879  0.36034 11.00000  0.10291   9.10
O00E  4 -0.50000  0.00000  0.78297 10.25000  0.07954   8.88
O00F  4  0.50000  0.31073  0.39204 10.50000  0.20501   8.28
O00G  4 -0.17367  0.00000  0.51416 10.50000  0.06331   8.28
N00H  3 -0.11629  0.00000  0.72107 10.50000  0.13414   8.24
O00I  4  0.00000  0.00000  0.21703 10.50000  0.07123   8.24
O00J  4  0.16626  0.19551  0.52271 11.00000  0.06748   7.50
N00K  3 -0.04277  0.22173  0.36371 11.00000  0.06031   7.28
N00L  3  0.44691  0.16590  0.55177 11.00000  0.08678   6.91
C00M  2  0.24899  0.25491  0.60081 11.00000  0.18213   6.87
N00N  3  0.00000  0.09749  0.70008 10.50000  0.11140   6.71
C00O  2  0.00000  0.37929  0.65642 10.50000  0.00010   6.46
C00P  2  0.06682  0.31449  0.56203 11.00000  0.16925   6.32
O00Q  4  0.33557  0.28050  0.45462 11.00000  0.05099   6.11
C00R  2  0.50000  0.17034  0.55373 10.50000  0.11018   5.90
N00S  3  0.00000  0.14839  0.64490 10.50000  0.13943   5.45
C00T  2  0.00000  0.00000  0.29996 10.25000  0.09987   5.40
C00U  2  0.00000  0.32998  0.65376 10.50000  0.03325   5.36
C00V  2  0.00000  0.21240  0.29658 10.50000  0.00334   5.35
C00W  2  0.59691  0.00000  0.63700 10.50000  0.19721   5.31
C00X  2  0.00000  0.00000  0.43333 11.00000  0.27277   5.19
C00Y  2  0.50000  0.50000  0.44454 10.50000  0.08127   4.47
O00Z  4  0.00000  0.00000  0.46870 10.25000  0.13148   4.47
C010  2  0.00000  0.00000  0.34129 10.50000  0.16352   4.46
C011  2  0.00000  0.00000  0.63168 10.50000  0.12239   4.41
N012  3  1.00000  0.50000  0.48199 10.50000  0.03660   4.25
O013  4  0.44209  0.10150  0.50355 11.00000  0.01148   4.14
C014  2  0.00000  0.05924  0.51740 10.50000  0.14063   4.09
N015  3  0.00000  0.00000  0.72083 10.25000  0.05271   3.53
C016  2  0.35272  0.26663  0.29591 11.00000  0.02815   3.39
HKLF 4
END
