TITL temp01_expF_0_9_expS_1_1_temp01_a.res in Imm2
REM Old TITL 1 in I222
REM SHELXT solution in Imm2: R1 0.605, Rweak 0.348, Alpha 0.296
REM <I/s>   0.000 for    0 systematic absences,  Orientation as input
REM Flack x =  0.369 ( 0.771 ) from   252 Parsons' quotients
REM Formula found by SHELXT:  C56 N28 O23 Cl21

CELL  0.71073   9.4370  15.1530  30.5090   90.000   90.000   90.000
ZERR   53.000   0.0019   0.0030   0.0061    0.000    0.000    0.000
LATT -2
SYMM -X, -Y, Z
SYMM X, -Y, Z
SYMM -X, Y, Z
SFAC H C N O ZR CL
UNIT 0 0 0 0 0 0
L.S. 10
BOND
LIST 6
FMAP 2
PLAN 20
CL01  6  0.81638  0.00000  0.34326 10.50000  0.04431  23.63
CL02  6  0.50000  0.00000  0.39202 10.25000  0.19920  20.70
CL03  6  0.64472  0.00000  0.39284 10.50000  0.04895  18.00
CL04  6  1.00000  0.10583  0.46996 10.50000  0.04876  17.10
CL05  6  0.80792  0.00000  0.45384 10.50000  0.05883  16.97
CL06  6  1.00000  0.00000  0.42276 10.25000  0.19493  16.45
CL07  6  0.79164  0.17357  0.46716 11.00000  0.04519  15.18
CL08  6  0.50000  0.00000  0.53386 10.25000  0.00794  12.58
CL09  6  1.00000  0.16456  0.28843 10.50000  0.01465  12.53
O00A  4  0.90337  0.50000  0.55283 10.50000  0.00010  11.37
O00B  4  1.00000  0.50000  0.62740 10.25000  0.11614  11.03
O00C  4  0.50000  0.13265  0.39647 10.50000  0.00010  10.43
CL0D  6  0.93936  0.00000  0.54454 10.50000  0.01028  10.36
O00E  4  1.00000  0.08709  0.37834 10.50000  0.16844  10.15
CL0F  6  0.88967  0.50000  0.41568 10.50000  0.09179   9.73
N00G  3  0.82780  0.11568  0.44793 11.00000  0.02350   9.70
O00H  4  1.00000  0.17551  0.59177 10.50000  0.06788   8.77
O00I  4  0.50000  0.26643  0.67981 10.50000  0.13282   8.66
N00J  3  1.00000  0.20652  0.28669 10.50000  0.02833   7.99
C00K  2  0.74416  0.00000  0.47058 10.50000  0.00010   7.90
O00L  4  0.22797  0.00000  0.66085 10.50000  0.05620   7.42
N00M  3  0.90131  0.03384  0.37317 11.00000  0.03131   7.12
N00N  3  0.74459  0.50000  0.30448 10.50000  0.00010   7.05
N00O  3  0.86632  0.06465  0.41311 11.00000  0.01909   6.96
N00P  3  0.58434  0.41918  0.55344 11.00000  0.01834   6.95
C00Q  2  0.69216  0.50000  0.51389 10.50000  0.03074   6.92
N00R  3  0.50000  0.17696  0.51773 10.50000  0.01986   6.72
N00S  3  0.50000  0.00000  0.68434 10.25000  0.02356   6.43
C00T  2  0.50000  0.39214  0.55154 10.50000  0.00540   6.25
C00U  2  0.81747  0.24214  0.38517 11.00000  0.06203   6.24
C00V  2  0.78175  0.30357  0.25600 11.00000  0.02762   6.06
N00W  3  0.90970  0.17243  0.28445 11.00000  0.00010   5.95
C00X  2  0.50000  0.29252  0.58070 10.50000  0.00010   5.94
C00Y  2  0.70141  0.17248  0.35240 11.00000  0.01143   5.47
C00Z  2  0.58984  0.50000  0.33157 10.50000  0.00010   5.45
C010  2  0.77993  0.57785  0.49585 11.00000  0.00010   5.42
O011  4  0.64136  0.42912  0.62122 11.00000  0.00023   5.18
C012  2  0.50000  0.15690  0.33239 10.50000  0.00010   5.06
C013  2  0.82974  0.00000  0.40718 11.00000  0.08025   4.68
C014  2  0.50000  0.41499  0.35428 10.50000  0.00010   4.42
O015  4  0.50000  0.20281  0.33602 10.50000  0.05002   4.05
C016  2  1.00000  0.64323  0.70033 10.50000  0.00010   4.02
O017  4  0.71397  0.10724  0.53207 11.00000  0.06146   3.86
C018  2  0.50000  0.21501  0.68078 10.50000  0.11415   3.54
C019  2  0.50000  0.00000  0.44939 10.50000  0.06454   3.51
C01A  2  0.50000  0.30482  0.38441 10.50000  0.03047   3.49
C01B  2  0.00000  0.00000  0.66420 10.50000  0.14452   3.42
N01C  3  0.50000  0.50000  0.72369 10.25000  0.02048   3.42
C01D  2  0.72264  0.50000  0.65391 10.50000  0.00127   3.41
C01E  2  0.84035  0.50000  0.73189 10.50000  0.05744   3.34
C01F  2  1.00000  0.53152  0.74400 10.50000  0.02213   3.23
C01G  2  0.67381  0.21596  0.57249 11.00000  0.02326   3.04
C01H  2  1.00000  0.30065  0.42991 10.50000  0.06423   3.03
HKLF 4
END
