TITL temp01_expF_1_4_expS_1_5_temp01_a.res in Imm2
REM Old TITL 1 in I222
REM SHELXT solution in Imm2: R1 0.754, Rweak 0.294, Alpha 0.216
REM <I/s>   0.000 for    0 systematic absences,  Orientation as input
REM Flack x = -0.461 ( 1.729 ) from    52 Parsons' quotients
REM Formula found by SHELXT:  C36 N24 O20 Cl9

CELL  0.71073   9.4370  15.1530  30.5090   90.000   90.000   90.000
ZERR   53.000   0.0019   0.0030   0.0061    0.000    0.000    0.000
LATT -2
SYMM -X, -Y, Z
SYMM X, -Y, Z
SYMM -X, Y, Z
SFAC H C N O ZR CL
UNIT 0 0 0 0 0 0
L.S. 10
BOND
LIST 6
FMAP 2
PLAN 20
CL01  6  0.00000  0.00000  0.38053 10.25000  0.20724  16.49
CL02  6  1.00000  0.50000  0.56924 10.25000  0.23473  15.61
CL03  6  0.12228  0.00000  0.38842 10.50000  0.14588  14.89
CL04  6  1.00000  0.35101  0.56589 10.50000  0.14130  13.92
CL05  6  0.50000  0.38681  0.54071 10.50000  0.19320  13.32
CL06  6  0.50000  0.00000  0.37813 10.25000  0.17782  12.42
O007  4  0.60645  0.50000  0.57248 10.50000  0.15601  12.37
O008  4  0.81724  0.50000  0.62262 10.50000  0.10726  12.28
O009  4  1.00000  0.50000  0.41799 10.25000  0.18251  11.76
C00A  2  0.50000  0.00000  0.26408 10.25000  0.01776   9.95
O00B  4  0.72692  0.50000  0.49125 10.50000  0.10420   9.40
N00C  3  0.38925  0.00000  0.45486 10.50000  0.07933   9.35
C00D  2  1.00000  0.24069  0.63674 10.50000  0.02246   9.18
O00E  4  1.13348  0.41335  0.56942 11.00000  0.14815   8.55
O00F  4  0.88919  0.20556  0.63721 11.00000  0.15577   8.53
O00G  4  0.19003  0.00000  0.45630 10.50000  0.07191   8.40
C00H  2  0.50000  0.21830  0.47568 10.50000  0.08305   8.06
O00I  4  1.00000  0.55553  0.62503 10.50000  0.15965   7.56
O00J  4  0.50000  0.50000  0.69742 10.25000  0.01462   7.50
N00K  3  0.68282  0.16604  0.30900 11.00000  0.09814   7.16
N00L  3  0.66053  0.00000  0.28025 10.50000  0.12124   7.12
C00M  2  1.07478  0.37822  0.41217 11.00000  0.03973   6.68
N00N  3  0.96047  0.23415  0.46247 11.00000  0.16963   6.67
C00O  2  0.63046  0.22716  0.48850 11.00000  0.07583   6.15
N00P  3  1.00000  0.33684  0.41261 10.50000  0.08017   5.68
N00Q  3  0.79939  0.21085  0.46377 11.00000  0.12982   5.60
N00R  3  0.50000  0.17327  0.40013 10.50000  0.02092   5.33
N00S  3  0.50000  0.75297  0.72571 10.50000  0.04248   5.23
C00T  2  0.36733  0.00000  0.35923 10.50000  0.10276   4.78
C00U  2  1.35065  0.50000  0.40117 10.50000  0.12053   4.45
C00V  2  1.00000  0.37937  0.50026 10.50000  0.02665   4.41
C00W  2  1.00000  0.18744  0.45437 10.50000  0.06273   4.25
C00X  2  1.50000  0.62720  0.41638 10.50000  0.03317   3.96
C00Y  2  1.14095  0.42024  0.40844 11.00000  0.02641   3.96
N00Z  3  0.85948  0.00000  0.57553 10.50000  0.08405   3.84
C010  2  0.50000  0.00000  0.45539 10.25000  0.10451   3.76
C011  2  0.50000  0.08096  0.32093 10.50000  0.05121   3.67
C012  2  1.00000  0.09075  0.73592 10.50000  0.00018   3.09
C013  2  0.75132  0.07682  0.65712 11.00000  0.04985   3.01
HKLF 4
END
