TITL temp01_expF_1_2_expS_1_1_temp01_a.res in Imm2
REM Old TITL 1 in I222
REM SHELXT solution in Imm2: R1 0.686, Rweak 0.113, Alpha 0.062
REM <I/s>   0.000 for    0 systematic absences,  Orientation as input
REM Flack x = -3.849 ( 1.116 ) from   390 Parsons' quotients
REM Formula found by SHELXT:  C48 N17 O18 Cl14

CELL  0.71073   9.4370  15.1530  30.5090   90.000   90.000   90.000
ZERR   53.000   0.0019   0.0030   0.0061    0.000    0.000    0.000
LATT -2
SYMM -X, -Y, Z
SYMM X, -Y, Z
SYMM -X, Y, Z
SFAC H C N O ZR CL
UNIT 0 0 0 0 0 0
L.S. 10
BOND
LIST 6
FMAP 2
PLAN 20
CL01  6  0.12766  0.00000  0.30914 10.50000  0.02993  18.93
CL02  6  0.00000  0.00000  0.50711 10.25000  0.00010  17.71
CL03  6  0.25696  0.00000  0.31020 10.50000  0.00662  17.40
CL04  6  0.50000  0.00000  0.40200 10.25000  0.02917  16.44
CL05  6  0.38138  0.00000  0.39225 10.50000  0.05381  14.68
CL06  6  0.17871  0.00000  0.44405 10.50000  0.05792  14.40
C007  2  0.50000  0.84142  0.61779 10.50000  0.00010  12.65
N008  3  0.00000  0.00000  0.29533 10.25000  0.00719  10.83
N009  3  1.00000  1.00000  0.71685 10.25000  0.00010  10.62
O00A  4  0.00000  0.00000  0.41704 10.25000  0.04389  10.16
CL0B  6  0.21029  0.16144  0.45782 11.00000  0.08603  10.16
O00C  4  0.62442  1.00000  0.73942 10.50000  0.02019  10.06
O00D  4  0.72295  1.00000  0.57244 10.50000  0.02959   9.48
O00E  4  0.50000  0.71718  0.55746 10.50000  0.01526   8.87
O00F  4  0.00000 -0.17896  0.39733 10.50000  0.00010   8.47
N00G  3  0.70594  1.00000  0.57062 10.50000  0.06674   8.47
O00H  4  0.50000  0.50000  0.34657 10.25000  0.01356   8.16
O00I  4  0.00000  0.09744  0.31101 10.50000  0.07358   8.06
O00J  4  0.62908  0.82643  0.61342 11.00000  0.02208   7.98
O00K  4  0.16995  0.50000  0.53436 10.50000  0.08931   7.31
N00L  3  0.00000  0.42865  0.53979 10.50000  0.00010   7.08
N00M  3  0.42758  0.00000  0.32072 10.50000  0.06901   6.82
N00N  3  0.00000  0.21654  0.51336 10.50000  0.01935   6.60
C00O  2  0.50000  0.50000  0.59126 10.25000  0.00010   6.45
C00P  2  0.87416  1.02281  0.70226 11.00000  0.00010   6.12
C00Q  2  0.50000  1.00000  0.69853 10.25000  0.05855   5.75
C00R  2  0.67363  0.50000  0.62022 10.50000  0.05219   5.66
C00S  2  0.50000  0.65425  0.60781 10.50000  0.04963   5.51
C00T  2  0.50000  0.86773  0.75621 10.50000  0.00010   5.46
C00U  2  1.00000  1.15305  0.69734 10.50000  0.04927   5.10
C00V  2  0.00000  0.09640  0.47464 10.50000  0.08514   4.98
C00W  2  0.29701  0.00000  0.37527 10.50000  0.05716   4.94
C00X  2  0.00000  0.30357  0.47295 10.50000  0.00644   4.82
C00Y  2  0.50000  0.10987  0.37163 10.50000  0.05046   4.80
C00Z  2  0.35107  0.08877  0.34613 11.00000  0.02877   4.61
C010  2  1.00000  1.15626  0.63575 10.50000  0.00010   4.60
C011  2  0.71814  1.00000  0.67942 10.50000  0.04281   4.50
C012  2  0.18464 -0.08287  0.37695 11.00000  0.01457   4.41
C013  2  0.71328  0.67349  0.64149 11.00000  0.00455   4.27
C014  2  0.28862  0.50000  0.52788 10.50000  0.00745   3.95
N015  3  0.50000  0.50000  0.69748 10.25000  0.00010   3.65
N016  3  0.77819  0.84895  0.78347 11.00000  0.03020   3.23
C017  2  0.50000 -0.05878  0.21653 10.50000  0.00010   3.21
C018  2  0.14132  0.43423  0.49895 11.00000  0.06182   3.17
N019  3  0.16915  0.50000  0.39243 10.50000  0.00724   3.17
HKLF 4
END
