TITL temp01_expF_1_4_expS_0_8_temp01_a.res in Imm2
REM Old TITL 1 in I222
REM SHELXT solution in Imm2: R1 0.770, Rweak 0.394, Alpha 0.171
REM <I/s>   0.000 for    0 systematic absences,  Orientation as input
REM Flack x = -9.990 ( 9.990 ) from   476 Parsons' quotients
REM Formula found by SHELXT:  C40 N9 O19

CELL  0.71073   9.4370  15.1530  30.5090   90.000   90.000   90.000
ZERR   53.000   0.0019   0.0030   0.0061    0.000    0.000    0.000
LATT -2
SYMM -X, -Y, Z
SYMM X, -Y, Z
SYMM -X, Y, Z
SFAC H C N O ZR
UNIT 0 0 0 0 0
L.S. 10
BOND
LIST 6
FMAP 2
PLAN 20
O001  4  0.83525  0.50000  0.67287 10.50000  0.08550  12.12
O002  4  1.00000  0.50000  0.67286 10.25000  0.07473  11.33
C003  2  0.04515  0.50000  0.31236 10.50000  0.09366  11.05
O004  4  0.50000  0.50000  0.34252 10.25000  0.03326  10.23
O005  4  0.30156  0.50000  0.41672 10.50000  0.02947   9.99
N006  3  0.50000  0.50000  0.63121 10.25000  0.05177   9.07
O007  4  0.00000  0.35003  0.47260 10.50000  0.08422   8.58
O008  4  0.63139  0.50000  0.62857 10.50000  0.09021   8.42
O009  4  0.32190  0.34645  0.40486 11.00000  0.02758   8.05
O00A  4  0.29927  0.50000  0.30786 10.50000  0.06642   7.48
O00B  4  0.50000  0.50000  0.45867 10.25000  0.02004   7.20
C00C  2  0.50000  0.50000  0.77298 10.25000  0.02559   6.94
N00D  3  0.00000  0.20451  0.51340 10.50000  0.08974   6.56
C00E  2  0.50000  0.28301  0.36580 10.50000  0.10762   6.25
O00F  4  0.67457  0.50000  0.75830 10.50000  0.08987   5.98
C00G  2  0.00000  0.50000  0.46984 10.25000  0.16052   5.97
C00H  2  0.44394  0.36992  0.40884 11.00000  0.01117   5.70
C00I  2  0.19367  0.50000  0.52242 10.50000  0.02068   5.60
N00J  3  0.32466  0.32102  0.27935 11.00000  0.03367   4.50
C00K  2  0.00000  0.00000  0.52455 10.25000  0.00726   4.49
C00L  2  0.50000  0.33963  0.47398 10.50000  0.02753   4.19
C00M  2  0.50000  0.38699  0.57645 10.50000  0.00557   4.11
C00N  2  1.00000  0.61771  0.69344 10.50000  0.05945   4.02
N00O  3  0.50000  0.31956  0.22702 10.50000  0.13488   3.90
C00P  2  0.61570  0.37493  0.58680 11.00000  0.06693   3.82
C00Q  2  0.50000  0.50000  0.68148 10.25000  0.03678   3.71
C00R  2  0.22984  0.40623  0.44781 11.00000  0.03019   3.63
C00S  2 -0.10664  0.11618  0.50856 11.00000  0.04257   3.51
C00T  2  0.50000  0.70755  0.69250 10.50000  0.04625   3.09
C00U  2  0.00000  0.38576  0.53702 10.50000  0.04842   3.07
C00V  2  0.62017  0.61200  0.70325 11.00000  0.08093   3.04
HKLF 4
END
