TITL temp01_expF_1_3_expS_0_9_temp01_a.res in Imm2
REM Old TITL 1 in I222
REM SHELXT solution in Imm2: R1 0.760, Rweak 0.259, Alpha 0.053
REM <I/s>   0.000 for    0 systematic absences,  Orientation as input
REM Flack x = -9.990 ( 0.359 ) from   429 Parsons' quotients
REM Formula found by SHELXT:  C36 N17 O13 Cl10

CELL  0.71073   9.4370  15.1530  30.5090   90.000   90.000   90.000
ZERR   53.000   0.0019   0.0030   0.0061    0.000    0.000    0.000
LATT -2
SYMM -X, -Y, Z
SYMM X, -Y, Z
SYMM -X, Y, Z
SFAC H C N O ZR CL
UNIT 0 0 0 0 0 0
L.S. 10
BOND
LIST 6
FMAP 2
PLAN 20
CL01  6  0.00000  0.33789  0.63805 10.50000  0.08583  15.52
O002  4  0.00000  0.50000  0.58442 10.25000  0.17243  13.95
CL03  6  0.00000  0.50000  0.41716 10.50000  0.02342  13.79
CL04  6  0.50000  0.50000  0.55043 10.25000  0.02788  12.96
CL05  6  0.19347  0.50000  0.68560 10.50000  0.08150  12.36
O006  4  0.11643  0.50000  0.41891 10.50000  0.02841  11.82
CL07  6  0.50000  0.50000  0.40697 10.25000  0.05034  11.72
CL08  6  0.00000  0.50000  0.51132 10.25000  0.04734  10.69
O009  4  0.34858  0.50000  0.40963 10.50000  0.00336  10.66
CL0A  6  0.50000  0.50000  0.72401 10.25000  0.08760  10.12
C00B  2  0.37601  0.50000  0.62059 10.50000  0.15414   9.19
O00C  4  0.50000  0.36112  0.61256 10.50000  0.02711   8.88
O00D  4  0.22989  0.50000  0.60679 10.50000  0.04093   8.84
N00E  3  0.00000  0.09277  0.47028 10.50000  0.06685   8.80
C00F  2  0.22666  0.50000  0.53852 10.50000  0.03092   8.71
O00G  4  0.50000  0.50000  0.60902 10.25000  0.05810   8.53
O00H  4  1.00000  0.50000  0.29581 10.25000  0.01810   8.31
C00I  2  0.00000  0.00000  0.44016 10.25000  0.02894   8.22
O00J  4  1.00000  0.68749  0.34693 10.50000  0.01922   8.05
N00K  3  0.19954  0.00000  0.45426 10.50000  0.00010   8.05
C00L  2  0.50000  0.39479  0.70238 10.50000  0.08495   6.48
C00M  2  1.00000  0.66514  0.30357 10.50000  0.02956   5.89
C00N  2  0.50000  0.17136  0.51123 10.50000  0.05898   5.78
C00O  2  0.38441  0.42606  0.61465 11.00000  0.04127   5.77
C00P  2  0.10729  0.36658  0.62656 11.00000  0.00010   5.71
C00Q  2  0.50000  0.00000  0.45457 10.25000  0.03973   5.47
C00R  2 -0.13807  0.24306  0.67186 11.00000  0.00421   5.47
C00S  2  0.21128  0.36357  0.56548 11.00000  0.06187   5.44
C00T  2  0.00000  0.60683  0.73446 10.50000  0.02471   5.13
C00U  2  0.50000  0.50000  0.29903 10.25000  0.00013   4.85
N00V  3  0.33252  0.50000  0.33546 10.50000  0.00852   4.83
N00W  3  0.00000  0.27746  0.47530 10.50000  0.07381   4.75
N00X  3  0.50000  0.50000  0.24532 10.25000  0.04907   4.47
N00Y  3  1.00000  0.83890  0.29797 11.00000  0.09123   4.33
C00Z  2  0.75615  0.50000  0.25243 10.50000  0.01425   4.11
C010  2  0.50000  0.00000  0.59821 10.25000  0.09017   3.69
C011  2  0.50000  0.00000  0.59749 10.50000  0.11769   3.36
N012  3 -0.21179  0.19901  0.75468 11.00000  0.05523   3.22
HKLF 4
END
