TITL temp01_expF_1_4_expS_0_5_temp01_a.res in Imm2
REM Old TITL 1 in I222
REM SHELXT solution in Imm2: R1 0.778, Rweak 0.218, Alpha 0.048
REM <I/s>   0.000 for    0 systematic absences,  Orientation as input
REM Flack x = -9.764 ( 0.339 ) from   651 Parsons' quotients
REM Formula found by SHELXT:  C36 N10 O38 Zr

CELL  0.71073   9.4370  15.1530  30.5090   90.000   90.000   90.000
ZERR   53.000   0.0019   0.0030   0.0061    0.000    0.000    0.000
LATT -2
SYMM -X, -Y, Z
SYMM X, -Y, Z
SYMM -X, Y, Z
SFAC H C N O ZR
UNIT 0 0 0 0 0
L.S. 10
BOND
LIST 6
FMAP 2
PLAN 20
ZR01  5  0.50000  0.50000  0.25281 10.25000  0.11576  25.08
O002  4  0.62062  0.50000  0.25728 10.50000  0.04782  20.14
O003  4  0.34213  0.50000  0.62733 10.50000  0.08756  12.18
O004  4  0.86117  0.50000  0.39082 10.50000  0.07470  12.08
O005  4  0.79628  0.50000  0.25586 10.50000  0.07235  11.69
O006  4  0.14150  0.50000  0.54165 10.50000  0.11978  11.51
O007  4  0.50000  0.50000  0.66208 10.25000  0.06424  11.29
O008  4  0.00000  0.50000  0.54024 10.25000  0.04232  10.78
O009  4  1.00000  0.32966  0.33415 10.50000  0.06087  10.78
O00A  4  0.24545  0.50000  0.73214 10.50000  0.06842   9.91
O00B  4  0.50000  0.50000  0.54477 10.25000  0.05471   9.76
O00C  4  0.50000  0.60365  0.31784 10.50000  0.08825   9.48
C00D  2  0.50000  0.50000  0.43429 10.25000  0.13055   9.43
O00E  4  0.00000  0.69577  0.65432 10.50000  0.15488   8.40
O00F  4  0.50000  0.81416  0.48836 10.50000  0.05268   8.30
O00G  4  0.50000  0.69365  0.70247 10.50000  0.12016   8.27
O00H  4  1.00000  0.50000  0.19208 10.25000  0.10091   8.04
N00I  3  1.00000  0.50000  0.39605 10.25000  0.03486   7.72
O00J  4  0.69233  0.68763  0.59182 11.00000  0.09232   7.38
O00K  4  0.66777  1.00000  0.54655 10.50000  0.06798   7.29
O00L  4  0.32406  0.69472  0.47663 11.00000  0.16678   7.10
C00M  2  0.00000  0.52908  0.70560 10.50000  0.07291   6.69
C00N  2  0.50000  0.71439  0.55983 10.50000  0.04037   6.06
C00O  2  0.50000  0.59560  0.61492 10.50000  0.04305   6.01
C00P  2  0.68678  0.50000  0.28712 10.50000  0.02590   5.90
N00Q  3  0.40204  0.50000  0.43280 10.50000  0.06112   5.88
C00R  2  0.68654  0.59326  0.36898 11.00000  0.03903   5.56
C00S  2  1.00000  0.44090  0.34217 10.50000  0.01933   5.28
C00T  2  0.35938  0.50000  0.51433 10.50000  0.06593   5.27
C00U  2  0.69158  1.00000  0.43700 10.50000  0.04327   4.94
C00V  2  0.50000  0.81905  0.61502 10.50000  0.07593   4.91
N00W  3  0.50000  0.32457  0.22373 10.50000  0.04654   4.61
C00X  2  0.50000  1.00000  0.59832 10.25000  0.07930   4.50
N00Y  3  0.00000  0.85525  0.52854 10.50000  0.04832   4.42
N00Z  3  0.00000  0.65107  0.80792 10.50000  0.07867   4.33
C010  2  0.50000  1.00000  0.49659 10.25000  0.03079   4.24
O011  4  1.00000  0.23079  0.38713 10.50000  0.12823   4.21
C012  2  0.67876  0.85923  0.48716 11.00000  0.06852   4.17
C013  2  1.00000  0.13558  0.36287 10.50000  0.01768   3.66
C014  2  0.00000  0.59493  0.59106 10.50000  0.07253   3.64
C015  2  0.00000  0.67803  0.55197 10.50000  0.01989   3.63
C016  2  0.50000  0.50000  0.35658 10.25000  0.00726   3.41
C017  2  0.00000  0.95865  0.51065 10.50000  0.16063   3.06
N018  3  0.00000  1.00000  0.53390 10.25000  0.10620   3.06
HKLF 4
END
