TITL temp01_expF_0_6_expS_1_2_temp01_a.res in Imm2
REM Old TITL 1 in I222
REM SHELXT solution in Imm2: R1 0.625, Rweak 0.301, Alpha 0.298
REM <I/s>   0.000 for    0 systematic absences,  Orientation as input
REM Flack x = -0.838 ( 0.201 ) from   329 Parsons' quotients
REM Formula found by SHELXT:  C66 N12 O21 Cl16

CELL  0.71073   9.4370  15.1530  30.5090   90.000   90.000   90.000
ZERR   53.000   0.0019   0.0030   0.0061    0.000    0.000    0.000
LATT -2
SYMM -X, -Y, Z
SYMM X, -Y, Z
SYMM -X, Y, Z
SFAC H C N O ZR CL
UNIT 0 0 0 0 0 0
L.S. 10
BOND
LIST 6
FMAP 2
PLAN 20
CL01  6  1.06718  1.00000  0.66417 10.50000  0.04194  17.36
CL02  6  1.19446  1.00000  0.66463 10.50000  0.03317  17.35
CL03  6  0.80866  0.50000  0.48040 10.50000  0.04811  15.49
CL04  6  0.85777  0.50000  0.37877 10.50000  0.02188  14.33
CL05  6  0.67503  0.50000  0.47804 10.50000  0.00137  13.96
CL06  6  0.50000  0.44525  0.34719 10.50000  0.04903  13.23
O007  4  0.73253  0.50000  0.36279 10.50000  0.00048  12.09
N008  3  0.50000  0.50000  0.45983 10.25000  0.00715  12.08
O009  4  0.86127  0.50000  0.43966 10.50000  0.00211  11.97
CL0A  6  1.00000  0.34765  0.44136 10.50000  0.03527  11.31
O00B  4  0.69811  0.41650  0.41277 11.00000  0.00456  11.29
O00C  4  0.61259  0.50000  0.45102 10.50000  0.00128  11.25
CL0D  6  1.00000  0.39836  0.26529 10.50000  0.09288  11.01
O00E  4  0.89774  0.00000  0.33323 10.50000  0.00615  10.99
O00F  4  1.00000  0.50000  0.41011 10.25000  0.11617  10.72
O00G  4  1.00000  0.55847  0.77156 10.50000  0.01671   8.51
N00H  3  1.00000  0.50000  0.45549 10.25000  0.02327   8.08
O00I  4  0.88932  0.50000  0.30993 10.50000  0.00010   7.85
O00J  4  0.00000  0.06230  0.50982 10.50000  0.02879   7.44
C00K  2  0.50000  0.09587  0.41422 10.50000  0.00573   7.44
C00L  2  0.43942  0.00000  0.41482 10.50000  0.03541   6.81
N00M  3  1.15109  0.59378  0.65042 11.00000  0.00010   6.57
N00N  3  0.50000  0.21704  0.32089 10.50000  0.00010   6.53
C00O  2  0.50000  0.31890  0.40934 10.50000  0.00186   6.16
C00P  2  1.00000  0.19189  0.41326 10.50000  0.02053   6.05
C00Q  2  0.50000  0.59508  0.47889 10.50000  0.01713   5.93
C00R  2  0.50000  0.11721  0.56261 10.50000  0.06017   5.86
C00S  2  1.00000  0.58041  0.63675 10.50000  0.02691   5.68
C00T  2  1.00000  0.07649  0.38558 10.50000  0.00118   5.62
C00U  2  1.00000  0.83375  0.61305 10.50000  0.00492   5.59
C00V  2  1.00000  0.14498  0.29309 10.50000  0.00010   5.58
C00W  2  0.50000  0.00000  0.36202 10.50000  0.07165   5.51
C00X  2  0.13633  0.00000  0.49714 10.50000  0.08401   5.50
O00Y  4  0.50000  0.15496  0.41698 10.50000  0.03045   5.31
C00Z  2  1.00000  0.62157  0.57194 10.50000  0.00010   5.30
C010  2  1.06729  0.50000  0.71425 10.50000  0.00010   5.17
C011  2  0.00000  0.00000  0.48138 10.25000  0.00010   5.13
C012  2  0.50000  0.50000  0.59679 10.25000  0.00010   5.11
C013  2  0.50000  0.46473  0.57596 10.50000  0.01069   4.67
C014  2  0.94822  0.50000  0.53054 10.50000  0.03877   4.52
N015  3  1.00000  0.65065  0.58981 10.50000  0.00010   4.19
C016  2  1.00000  0.76453  0.73055 10.50000  0.02630   4.05
C017  2  1.14774  0.91670  0.62568 11.00000  0.00010   4.00
C018  2  1.00000  0.80879  0.65284 10.50000  0.00010   3.95
C019  2  1.00000  0.29277  0.31324 10.50000  0.00010   3.92
C01A  2  1.00000  0.50000  0.70257 10.25000  0.00010   3.90
C01B  2  0.88784  0.25989  0.22844 11.00000  0.00010   3.84
N01C  3  0.32256  0.00000  0.42270 10.50000  0.07567   3.80
C01D  2  0.50000  0.06347  0.47785 11.00000  0.18186   3.78
C01E  2  0.73695  0.00000  0.32264 10.50000  0.02569   3.53
C01F  2  0.50000  0.17399  0.58688 10.50000  0.02652   3.28
C01G  2  0.60003  0.50000  0.56533 10.50000  0.00010   3.17
C01H  2  0.44991  0.13703  0.35268 11.00000  0.00010   3.11
C01I  2  1.00000  0.50000  0.31888 10.25000  0.01203   3.02
C01J  2  1.00000  0.65484  0.68776 10.50000  0.00010   3.00
HKLF 4
END
