TITL temp01_expF_1_4_expS_0_6_temp01_a.res in Imm2
REM Old TITL 1 in I222
REM SHELXT solution in Imm2: R1 0.759, Rweak 0.009, Alpha 0.139
REM <I/s>   0.000 for    0 systematic absences,  Orientation as input
REM Flack x = -9.990 ( 0.716 ) from   612 Parsons' quotients
REM Formula found by SHELXT:  C25 N5 O12 Cl5

CELL  0.71073   9.4370  15.1530  30.5090   90.000   90.000   90.000
ZERR   53.000   0.0019   0.0030   0.0061    0.000    0.000    0.000
LATT -2
SYMM -X, -Y, Z
SYMM X, -Y, Z
SYMM -X, Y, Z
SFAC H C N O ZR CL
UNIT 0 0 0 0 0 0
L.S. 10
BOND
LIST 6
FMAP 2
PLAN 20
CL01  6  0.06174  1.00000  0.58041 10.50000  0.07360  17.15
CL02  6  0.15072  0.50000  0.37126 10.50000  0.09156  14.95
CL03  6  0.30401  1.00000  0.54189 10.50000  0.11126  14.95
CL04  6  0.50000  0.50000  0.42599 10.25000  0.10504  14.03
CL05  6  0.50000  0.67584  0.22198 10.50000  0.14582  12.39
CL06  6  0.00000  0.50000  0.37834 10.25000  0.09289  12.19
O007  4  0.39276  0.50000  0.42674 10.50000  0.07470  12.16
O008  4  0.74940  1.00000  0.66292 10.50000  0.04524  11.50
O009  4  0.50000  1.00000  0.55537 10.25000  0.18683  11.04
O00A  4  0.00000  0.33869  0.32487 10.50000  0.09837  11.02
C00B  2  0.10372  0.32244  0.32209 11.00000  0.02509  10.58
O00C  4  0.50000  1.00000  0.48690 10.25000  0.09833   9.49
O00D  4  0.32863  0.50000  0.28307 10.50000  0.08818   8.74
O00E  4  0.50000  0.81115  0.47859 10.50000  0.07887   8.40
O00F  4  0.50000  0.91826  0.53726 10.50000  0.08042   7.93
O00G  4  0.00000  0.86315  0.57184 10.50000  0.11455   7.85
O00H  4  0.00000  0.00000  0.38917 10.25000  0.09606   7.52
O00I  4  0.50000  0.50000  0.24400 10.25000  0.02423   7.37
O00J  4  0.50000  0.62396  0.28746 10.50000  0.03957   7.21
O00K  4  0.21827  0.37043  0.31425 11.00000  0.10077   7.08
N00L  3  0.50000  0.84531  0.59904 10.50000  0.05580   7.01
N00M  3  0.50000  0.65252  0.44960 10.50000  0.13723   6.83
N00N  3  0.75136  0.80512  0.66415 11.00000  0.15044   6.56
C00O  2  0.75185  0.79098  0.53834 11.00000  0.09884   6.04
C00P  2  1.00000  0.50000  0.77802 10.25000  0.03585   5.80
C00Q  2  0.00000  0.18122  0.37451 10.50000  0.03785   5.79
C00R  2  0.50000  1.00000  0.71613 10.25000  0.02694   5.47
C00S  2  0.50000  0.94591  0.66456 10.50000  0.02916   5.34
C00T  2  1.00000  0.39227  0.75887 10.50000  0.07861   5.25
C00U  2  0.75202  0.69789  0.45924 11.00000  0.05216   5.23
C00V  2  1.00000  0.73577  0.46925 10.50000  0.09790   5.23
C00W  2  0.72986  0.88517  0.59675 11.00000  0.09817   5.16
C00X  2  0.76849  0.50000  0.61452 10.50000  0.01539   4.44
C00Y  2  0.33821  0.90280  0.47191 11.00000  0.06614   4.02
C00Z  2  0.00000  0.00000  0.28751 10.50000  0.08644   3.90
C010  2  0.16962  0.50000  0.48693 10.50000  0.04575   3.89
C011  2  0.61071  0.71440  0.66151 11.00000  0.06877   3.53
C012  2  0.79988  0.50000  0.73582 10.50000  0.05832   3.45
C013  2  0.70334  0.59924  0.68478 11.00000  0.04906   3.36
C014  2  0.50000  0.82582  0.72513 10.50000  0.05781   3.27
N015  3  0.39525  1.00000  0.40219 10.50000  0.04126   3.21
C016  2  0.50000  0.70503  0.68014 10.50000  0.02207   3.03
HKLF 4
END
