TITL temp01_expF_1_5_expS_0_5_temp01_a.res in Imm2
REM Old TITL 1 in I222
REM SHELXT solution in Imm2: R1 0.811, Rweak 0.347, Alpha 0.008
REM <I/s>   0.000 for    0 systematic absences,  Orientation as input
REM Flack x = -9.990 ( 1.426 ) from   622 Parsons' quotients
REM Formula found by SHELXT:  C42 N12 O25 Cl12

CELL  0.71073   9.4370  15.1530  30.5090   90.000   90.000   90.000
ZERR   53.000   0.0019   0.0030   0.0061    0.000    0.000    0.000
LATT -2
SYMM -X, -Y, Z
SYMM X, -Y, Z
SYMM -X, Y, Z
SFAC H C N O ZR CL
UNIT 0 0 0 0 0 0
L.S. 10
BOND
LIST 6
FMAP 2
PLAN 20
CL01  6  0.50000  0.00000  0.35653 10.25000  0.06166  21.02
CL02  6  0.37243  0.00000  0.35735 10.50000  0.10310  20.65
CL03  6  0.50000  0.50000  0.61856 10.25000  0.16315  16.29
O004  4  0.00000  0.00000  0.32232 10.25000  0.06688  14.86
CL05  6  0.06102  0.50000  0.50796 10.50000  0.10879  14.75
O006  4  0.32129  0.50000  0.54818 10.50000  0.06114  13.79
CL07  6  0.66291  0.50000  0.42939 10.50000  0.11019  13.52
CL08  6  0.50000  0.39869  0.42257 10.50000  0.11793  13.13
O009  4 -0.14148  0.50000  0.71197 10.50000  0.13321  11.09
O00A  4  0.50000  0.29919  0.48552 10.50000  0.11010  10.50
N00B  3 -0.27680  0.50000  0.70951 10.50000  0.11318   9.85
CL0C  6  0.00000  0.82195  0.67076 10.50000  0.13575   9.65
C00D  2  0.00000 -0.16623  0.27732 10.50000  0.06298   9.57
O00E  4  0.50000  0.18377  0.41169 10.50000  0.12310   9.18
O00F  4  0.00000  0.62282  0.64384 10.50000  0.09221   9.02
O00G  4  0.08822 -0.16083  0.27140 11.00000  0.11635   8.24
O00H  4  0.25628  0.65394  0.56701 11.00000  0.10233   7.84
O00I  4  0.13109  1.00000  0.72468 10.50000  0.12015   7.67
C00J  2 -0.41475  0.50000  0.72440 10.50000  0.05305   7.51
C00K  2  0.24067  0.60818  0.58460 11.00000  0.04975   7.30
O00L  4  0.74855  0.30738  0.43638 11.00000  0.19245   7.24
N00M  3  0.65742  0.39522  0.47429 11.00000  0.10398   7.04
N00N  3  0.34348  1.00000  0.66983 10.50000  0.07321   6.86
N00O  3  0.50000  0.50000  0.50398 10.25000  0.05456   6.58
C00P  2  0.00000 -0.21496  0.32397 10.50000  0.09160   6.38
C00Q  2  0.22676 -0.05240  0.31629 11.00000  0.01196   6.35
C00R  2  0.50000  0.34672  0.61306 10.50000  0.05799   6.03
C00S  2  0.50000  0.30906  0.64743 10.50000  0.04828   5.73
C00T  2  0.00000 -0.44327  0.29894 10.50000  0.06090   5.67
C00U  2  0.00000  1.00000  0.67854 10.25000  0.02900   5.10
C00V  2  0.00000  0.86149  0.53778 10.50000  0.17946   5.08
C00W  2  0.50000  0.55963  0.55085 10.50000  0.05940   4.96
C00X  2  0.50000  1.00000  0.66446 10.25000  0.00931   4.87
C00Y  2  1.00000  0.30734  0.46727 10.50000  0.08903   4.69
N00Z  3  0.00000  1.00000  0.45562 10.25000  0.12614   4.50
C010  2  0.19141  0.75796  0.59639 11.00000  0.09626   4.44
C011  2  0.10873  0.50000  0.60324 10.50000  0.09544   4.26
C012  2  0.50000  0.27317  0.36332 10.50000  0.05119   3.86
N013  3  0.00000  0.65413  0.72860 10.50000  0.14572   3.73
C014  2  0.33178  0.13491  0.41501 11.00000  0.04939   3.70
C015  2  0.50000  0.89363  0.65310 10.50000  0.06245   3.59
HKLF 4
END
