TITL temp01_expF_1_5_expS_1_2_temp01_a.res in Imm2
REM Old TITL 1 in I222
REM SHELXT solution in Imm2: R1 0.852, Rweak 0.122, Alpha 0.280
REM <I/s>   0.000 for    0 systematic absences,  Orientation as input
REM Flack x =  0.282 ( 0.458 ) from   248 Parsons' quotients
REM Formula found by SHELXT:  C53 N14 O40 Zr

CELL  0.71073   9.4370  15.1530  30.5090   90.000   90.000   90.000
ZERR   53.000   0.0019   0.0030   0.0061    0.000    0.000    0.000
LATT -2
SYMM -X, -Y, Z
SYMM X, -Y, Z
SYMM -X, Y, Z
SFAC H C N O ZR
UNIT 0 0 0 0 0
L.S. 10
BOND
LIST 6
FMAP 2
PLAN 20
ZR01  5 -0.50000  0.50000  0.69691 10.25000  0.03402  24.79
O002  4 -0.36724  0.50000  0.70258 10.50000  0.00010  23.20
O003  4 -0.30763  0.50000  0.70174 10.50000  0.08564  19.83
O004  4 -0.50000  0.50000  0.53623 10.25000  0.04892  17.45
O005  4  1.00000  0.30203  0.65794 10.50000  0.05231  12.96
O006  4  0.59977  0.50000  0.34923 10.50000  0.04905  12.64
O007  4 -0.23964  0.50000  0.59271 10.50000  0.02238  12.36
O008  4  0.00000  0.50000  0.64835 10.25000  0.00112  12.20
O009  4  0.50000  0.37271  0.33715 10.50000  0.04448  10.34
O00A  4  0.33911  0.37256  0.41651 11.00000  0.04034  10.00
O00B  4  0.50000  0.00000  0.30347 10.25000  0.02532   9.88
O00C  4  0.50000  0.23870  0.35427 10.50000  0.03429   9.41
O00D  4  0.50000  0.34844  0.41357 10.50000  0.05204   9.30
N00E  3  0.00000  0.50000  0.40719 10.25000  0.00056   8.62
O00F  4  0.07893  0.36476  0.44244 11.00000  0.08052   8.42
O00G  4  0.69756  0.50000  0.48131 10.50000  0.07729   8.35
O00H  4  0.50000  0.40621  0.47720 10.50000  0.07864   7.86
O00I  4  1.00000  0.00000  0.59794 10.25000  0.11124   7.81
O00J  4  0.50000  0.30232  0.53296 10.50000  0.00301   7.79
O00K  4 -0.10293  0.50000  0.37625 10.50000  0.05183   7.67
O00L  4  0.50000  0.21534  0.47807 10.50000  0.06162   7.48
N00M  3  0.00000  0.41496  0.44395 10.50000  0.03428   7.44
N00N  3 -0.50000  0.69484  0.76400 10.50000  0.06586   6.84
N00O  3 -0.34817  0.58520  0.70448 11.00000  0.04733   6.84
N00P  3  0.24663  0.32919  0.48061 11.00000  0.05967   6.68
C00Q  2  0.00000  0.28509  0.56298 10.50000  0.09861   6.38
C00R  2 -0.15825  0.31072  0.56474 11.00000  0.04559   6.22
C00S  2  0.00000  0.50000  0.51753 10.25000  0.04654   6.21
C00T  2  0.00000  0.27733  0.49471 10.50000  0.04513   6.15
C00U  2  0.79058  0.12550  0.58571 11.00000  0.00736   5.96
C00V  2 -0.31340  0.40502  0.54248 11.00000  0.07827   5.94
C00W  2 -0.07070  0.50000  0.23600 10.50000  0.05113   5.54
C00X  2  0.00000  0.10823  0.50428 10.50000  0.01169   5.50
C00Y  2  0.50000  0.10702  0.28982 10.50000  0.00048   5.37
C00Z  2  0.46704  0.05504  0.29575 11.00000  0.03120   5.09
C010  2  0.50000  0.17214  0.52695 10.50000  0.00947   4.68
C011  2  0.00000  0.22952  0.44672 10.50000  0.02088   4.50
N012  3  0.00000  0.50000  0.44230 10.25000  0.03254   4.43
C013  2 -0.28328  0.73478  0.75475 11.00000  0.03433   3.99
O014  4 -0.26175  0.50000  0.25816 10.50000  0.06710   3.88
C015  2  0.00000  0.19434  0.39075 10.50000  0.00010   3.87
C016  2  0.70663  0.19451  0.53363 11.00000  0.02432   3.54
C017  2  0.00000  0.40972  0.31113 10.50000  0.01274   3.27
C018  2 -0.10239  0.00000  0.49018 10.50000  0.05377   3.26
C019  2  0.79066  0.18821  0.65433 11.00000  0.00354   3.06
C01A  2  0.30182  0.21089  0.40766 11.00000  0.01305   3.02
HKLF 4
END
