TITL temp01_expF_1_4_expS_1_3_temp01_a.res in Imm2
REM Old TITL 1 in I222
REM SHELXT solution in Imm2: R1 0.813, Rweak 0.599, Alpha 0.141
REM <I/s>   0.000 for    0 systematic absences,  Orientation as input
REM Flack x =  0.291 ( 1.277 ) from   196 Parsons' quotients
REM Formula found by SHELXT:  C31 N16 O32 Cl4

CELL  0.71073   9.4370  15.1530  30.5090   90.000   90.000   90.000
ZERR   53.000   0.0019   0.0030   0.0061    0.000    0.000    0.000
LATT -2
SYMM -X, -Y, Z
SYMM X, -Y, Z
SYMM -X, Y, Z
SFAC H C N O ZR CL
UNIT 0 0 0 0 0 0
L.S. 10
BOND
LIST 6
FMAP 2
PLAN 20
CL01  6 -0.06147  0.50000  0.44459 10.50000  0.03903  16.32
CL02  6  1.00000  0.50000  0.64123 10.25000  0.00801  14.60
O003  4  0.90316  0.50000  0.60901 10.50000  0.00010  12.35
O004  4  0.00000  0.50000  0.30392 10.25000  0.20528  12.22
N005  3  0.76384  0.50000  0.64210 10.50000  0.05174  12.11
O006  4  0.37964  0.50000  0.37218 10.50000  0.12463  12.05
CL07  6  0.50000  0.50000  0.55579 10.25000  0.18772  11.86
O008  4  0.50000  0.60085  0.41561 10.50000  0.08435  11.76
O009  4  0.64167  0.50000  0.65316 10.50000  0.01992  11.17
O00A  4  0.50000  0.50000  0.47050 10.25000  0.12652  10.75
O00B  4  0.00000  0.22560  0.20938 10.50000  0.13851   8.79
O00C  4  0.62283  0.50000  0.47562 10.50000  0.03142   8.57
O00D  4  0.00000  0.61038  0.45302 10.50000  0.03170   8.23
O00E  4  0.50000  0.71712  0.46000 10.50000  0.11870   8.17
O00F  4  0.00000  1.00000  0.68963 10.25000  0.09335   8.09
O00G  4  0.21749  0.66603  0.48687 11.00000  0.04928   7.52
N00H  3  0.50000  1.04197  0.61803 10.50000  0.01118   7.49
N00I  3  0.31307  1.00000  0.61228 10.50000  0.00473   7.41
O00J  4  0.50000  0.50000  0.73872 10.25000  0.00010   7.26
N00K  3  0.50000  0.50000  0.63309 10.25000  0.02746   7.10
N00L  3  0.50000  0.58841  0.37616 10.50000  0.02494   7.02
N00M  3  0.50000  0.69228  0.57822 10.50000  0.00010   6.62
C00N  2  0.19828  0.69454  0.37870 11.00000  0.00188   6.56
C00O  2  0.50000  1.00000  0.58364 10.25000  0.00010   6.27
C00P  2  0.19608  0.61130  0.41489 11.00000  0.00368   5.58
C00Q  2  0.19628  0.55342  0.31413 11.00000  0.01795   5.46
N00R  3  1.00000  0.50000  0.73350 10.25000  0.00010   5.37
O00S  4  0.20237  0.64397  0.37788 11.00000  0.04332   5.22
C00T  2  0.76126  0.50000  0.67678 10.50000  0.01434   4.87
N00U  3  0.00000  0.80803  0.40316 10.50000  0.00464   4.77
C00V  2  0.00000  0.76590  0.49553 10.50000  0.07231   3.93
C00W  2  1.23587  0.50000  0.79062 10.50000  0.01436   3.91
O00X  4  0.14739  0.75441  0.48205 11.00000  0.04161   3.85
N00Y  3  0.00000  0.82098  0.60294 10.50000  0.02645   3.66
C00Z  2  0.00000  0.66441  0.39108 10.50000  0.03289   3.55
C010  2  0.26371  1.00000  0.54334 10.50000  0.09490   3.44
C011  2  0.00000  0.71013  0.33018 10.50000  0.00010   3.35
C012  2  0.00000  0.42770  0.25546 10.50000  0.08833   3.28
C013  2  0.50000  0.82859  0.53674 11.00000  0.06434   3.00
HKLF 4
END
