TITL temp01_expF_1_2_expS_0_6_temp01_a.res in Imm2
REM Old TITL 1 in I222
REM SHELXT solution in Imm2: R1 0.722, Rweak 0.008, Alpha 0.045
REM <I/s>   0.000 for    0 systematic absences,  Orientation as input
REM Flack x = -9.990 ( 2.765 ) from   670 Parsons' quotients
REM Formula found by SHELXT:  C65 N9 O14 Cl6

CELL  0.71073   9.4370  15.1530  30.5090   90.000   90.000   90.000
ZERR   53.000   0.0019   0.0030   0.0061    0.000    0.000    0.000
LATT -2
SYMM -X, -Y, Z
SYMM X, -Y, Z
SYMM -X, Y, Z
SFAC H C N O ZR CL
UNIT 0 0 0 0 0 0
L.S. 10
BOND
LIST 6
FMAP 2
PLAN 20
CL01  6  0.12904  0.50000  0.62791 10.50000  0.09197  17.08
CL02  6  0.26424  0.50000  0.62767 10.50000  0.08174  17.05
CL03  6  0.00000  0.50000  0.62226 10.25000  0.04655  15.39
CL04  6  0.50000  0.50000  0.54068 10.25000  0.07575  14.55
O005  4  0.00000  0.50000  0.43549 10.25000  0.00391  13.03
O006  4  0.50000  0.50000  0.65903 10.25000  0.02727  11.78
O007  4  0.50000  0.36323  0.53902 10.50000  0.04558  10.14
O008  4  0.00000  0.34605  0.57173 10.50000  0.07680   9.45
C009  2  0.00000  0.50000  0.70052 10.25000  0.15246   7.63
N00A  3 -0.12630  0.00000  0.39788 10.50000  0.04439   7.06
N00B  3  0.00000  0.29443  0.42396 10.50000  0.08775   6.76
C00C  2 -0.50000  0.35553  0.30779 10.50000  0.03329   6.21
C00D  2  0.28908  0.50000  0.58969 10.50000  0.02275   6.12
C00E  2 -0.50000  0.50000  0.19686 10.25000  0.03191   6.09
C00F  2  0.27284  0.32733  0.48437 11.00000  0.11181   6.05
C00G  2  0.00000  0.09608  0.44175 10.50000  0.06893   5.70
C00H  2  0.50000  0.67083  0.69751 10.50000  0.02182   5.66
C00I  2  0.08007  0.37051  0.56094 11.00000  0.04820   5.36
N00J  3  0.00000  0.57722  0.22365 10.50000  0.03220   5.22
C00K  2  0.29713  0.34157  0.60718 11.00000  0.01933   4.73
O00L  4  0.27825  0.50000  0.48035 10.50000  0.06179   4.32
C00M  2  0.44022  0.38043  0.58174 11.00000  0.04842   4.24
C00N  2 -0.50000  0.00000  0.49616 10.25000  0.14983   4.21
C00O  2  0.50000  0.50000  0.73706 10.25000  0.09081   4.20
O00P  4  0.62328  0.50000  0.74342 10.50000  0.03119   4.15
C00Q  2 -0.50000  0.50000  0.26717 10.50000  0.14176   4.10
C00R  2 -0.22664  0.57115  0.27915 11.00000  0.09456   3.99
C00S  2  0.17818  0.41805  0.56536 11.00000  0.05541   3.98
C00T  2  0.22352  0.50000  0.51356 10.50000  0.05950   3.97
N00U  3  0.84271  0.50000  0.80314 10.50000  0.03075   3.85
C00V  2  0.50000  0.50000  0.79837 10.25000  0.08930   3.85
C00W  2 -0.50000  0.21155  0.38788 10.50000  0.03138   3.81
C00X  2  0.12433  0.40495  0.44338 11.00000  0.02489   3.69
N00Y  3 -0.50000  0.00000  0.58513 10.25000  0.05162   3.67
C00Z  2 -0.19784  0.20464  0.43488 11.00000  0.01950   3.64
O010  4 -0.39233  0.24352  0.35804 11.00000  0.08505   3.53
C011  2  0.00000  0.15819  0.36135 10.50000  0.02141   3.47
C012  2 -0.50000  0.61060  0.20483 10.50000  0.04940   3.42
C013  2 -0.32209  0.00000  0.45192 10.50000  0.05701   3.30
C014  2  1.00000  0.58321  0.79733 10.50000  0.03036   3.15
C015  2  0.20705  0.34795  0.47611 11.00000  0.12479   3.05
C016  2 -0.28979  0.00000  0.53388 10.50000  0.03316   3.00
HKLF 4
END
