TITL temp01_expF_1_3_expS_1_1_temp01_a.res in Imm2
REM Old TITL 1 in I222
REM SHELXT solution in Imm2: R1 0.733, Rweak 0.273, Alpha 0.101
REM <I/s>   0.000 for    0 systematic absences,  Orientation as input
REM Flack x = -9.990 ( 9.990 ) from   357 Parsons' quotients
REM Formula found by SHELXT:  C57 N11 O22

CELL  0.71073   9.4370  15.1530  30.5090   90.000   90.000   90.000
ZERR   53.000   0.0019   0.0030   0.0061    0.000    0.000    0.000
LATT -2
SYMM -X, -Y, Z
SYMM X, -Y, Z
SYMM -X, Y, Z
SFAC H C N O ZR
UNIT 0 0 0 0 0
L.S. 10
BOND
LIST 6
FMAP 2
PLAN 20
O001  4  1.00000  0.50000  0.66375 10.25000  0.05810  12.68
O002  4  0.18726  0.50000  0.45747 10.50000  0.08070  11.69
C003  2  0.50000  0.50000  0.40582 10.25000  0.00010  11.02
O004  4  0.00000  0.41980  0.44643 10.50000  0.02853  10.83
C005  2  0.86355  0.50000  0.65498 10.50000  0.04447  10.46
O006  4  0.36014  0.50000  0.41556 10.50000  0.07625   9.82
O007  4  0.00000  0.41214  0.31521 10.50000  0.06769   9.21
O008  4  0.23468  0.43210  0.38989 11.00000  0.08235   8.47
O009  4  0.50000  0.50000  0.75541 10.25000  0.16948   8.04
C00A  2  0.09912  0.50000  0.44978 10.50000  0.00010   7.82
N00B  3  0.50000  0.50000  0.65078 10.25000  0.00041   7.40
N00C  3  0.73587  0.50000  0.67211 10.50000  0.00010   7.39
N00D  3  0.50000  0.37235  0.37426 10.50000  0.02459   7.06
N00E  3  0.11195  0.50000  0.27944 10.50000  0.02429   7.01
C00F  2  0.61794  0.50000  0.67069 10.50000  0.00382   6.96
C00G  2  0.00000  0.00000  0.59441 10.25000  0.00010   6.44
C00H  2  0.00000  0.22403  0.46231 10.50000  0.03733   6.42
C00I  2  0.36386  0.50000  0.57114 10.50000  0.00010   6.40
N00J  3  0.50000  0.33377  0.63678 10.50000  0.02658   6.23
C00K  2 -0.31964  0.00000  0.64180 10.50000  0.00753   5.61
O00L  4  0.23533  0.50000  0.55954 10.50000  0.06087   5.61
C00M  2 -0.50000  0.00000  0.57796 10.25000  0.01382   5.49
C00N  2  0.00000  0.22461  0.49583 10.50000  0.02798   5.29
C00O  2 -0.50000  0.07877  0.59776 10.50000  0.03192   4.95
C00P  2  0.37236  0.33066  0.36549 11.00000  0.02108   4.65
C00Q  2 -0.34072  0.10555  0.56388 11.00000  0.01056   4.64
N00R  3 -0.07956  0.00000  0.57002 10.50000  0.03146   4.59
C00S  2  0.50000  0.50000  0.57139 10.25000  0.00010   4.58
C00T  2  0.22186  0.37309  0.49995 11.00000  0.01878   4.33
C00U  2  0.57822  0.50000  0.23729 10.50000  0.05397   3.72
C00V  2 -0.21731  0.17879  0.51537 11.00000  0.00409   3.47
O00W  4  0.30434  0.23962  0.40556 11.00000  0.02378   3.43
C00X  2  0.15030  0.50000  0.32235 10.50000  0.00010   3.42
C00Y  2  0.00000  0.31606  0.39164 10.50000  0.09614   3.30
C00Z  2  0.32124  0.28279  0.34537 11.00000  0.04494   3.29
C010  2  0.50000  0.41952  0.21263 10.50000  0.11502   3.29
O011  4  0.50000  0.38838  0.21873 10.50000  0.01528   3.26
C012  2  0.50000  0.27960  0.28646 10.50000  0.02317   3.14
C013  2  1.08399  0.50000  0.78737 10.50000  0.01752   3.12
C014  2  0.00000  0.00000  0.44302 10.25000  0.13973   3.11
C015  2 -0.07882  0.08599  0.48897 11.00000  0.03725   3.08
HKLF 4
END
