TITL temp01_expF_1_0_expS_0_6_temp01_a.res in Imm2
REM Old TITL 1 in I222
REM SHELXT solution in Imm2: R1 0.878, Rweak 0.355, Alpha 0.171
REM <I/s>   0.000 for    0 systematic absences,  Orientation as input
REM Flack x = -0.340 ( 0.443 ) from   715 Parsons' quotients
REM Formula found by SHELXT:  C31 N11 O17 Zr2

CELL  0.71073   9.4370  15.1530  30.5090   90.000   90.000   90.000
ZERR   53.000   0.0019   0.0030   0.0061    0.000    0.000    0.000
LATT -2
SYMM -X, -Y, Z
SYMM X, -Y, Z
SYMM -X, Y, Z
SFAC H C N O ZR
UNIT 0 0 0 0 0
L.S. 10
BOND
LIST 6
FMAP 2
PLAN 20
ZR01  5  0.57954  0.50000  0.43681 10.50000  0.00575  24.43
ZR02  5  0.68296  0.50000  0.44960 10.50000  0.02008  24.19
O003  4  1.00000  0.50000  0.23465 10.25000  0.27861  17.95
O004  4  1.00000  1.00000  0.58312 10.25000  0.22166  17.05
O005  4  1.00000  0.50000  0.37450 10.50000  0.08635  15.14
O006  4  0.50000  0.50000  0.45330 10.50000  0.19926  13.40
O007  4  1.00000  0.50000  0.51560 10.50000  0.25906  13.27
O008  4  0.84494  0.83844  0.42951 11.00000  0.22472  12.27
N009  3  0.64139  0.50000  0.45825 10.50000  0.13759  11.67
O00A  4  1.00000  0.65746  0.31582 10.50000  0.19863  11.27
O00B  4  1.00000  0.38666  0.49455 10.50000  0.07277  10.98
O00C  4  1.00000  0.80415  0.55809 10.50000  0.10583  10.75
N00D  3  1.00000  0.55772  0.58516 10.50000  0.22589  10.51
O00E  4  1.10523  1.00000  0.34232 10.50000  0.23521   9.92
O00F  4  0.50000  0.50000  0.61529 10.25000  0.14293   9.84
O00G  4  1.00000  0.50000  0.38390 10.25000  0.19754   9.58
N00H  3  0.50000  1.00000  0.41692 10.50000  0.29854   9.50
O00I  4  0.50000  0.50000  0.42679 10.50000  0.03916   9.49
O00J  4  0.82310  0.50000  0.31424 10.50000  0.18374   8.67
O00K  4  0.90865  0.50000  0.50949 10.50000  0.11005   8.42
O00L  4  0.86938  1.00000  0.57609 10.50000  0.03010   8.20
O00M  4  0.64745  1.00000  0.47782 10.50000  0.16862   8.00
C00N  2  0.50000  0.90271  0.62472 10.50000  0.11821   7.70
N00O  3  0.30080  0.48182  0.23121 11.00000  0.27623   7.09
N00P  3  0.78744  0.50000  0.66189 10.50000  0.24284   6.98
N00Q  3  0.50000  0.45388  0.29624 11.00000  0.03980   6.96
N00R  3  1.00000  0.87651  0.26403 10.50000  0.16706   6.66
C00S  2  0.76013  0.82499  0.50932 11.00000  0.26456   6.42
C00T  2  1.00000  0.50000  0.51712 10.50000  0.21163   6.12
C00U  2  1.00000  0.88452  0.39446 10.50000  0.11516   6.04
C00V  2  1.00000  0.88414  0.53789 11.00000  0.03177   5.93
C00W  2  1.00000  0.59522  0.72214 10.50000  0.21852   5.56
C00X  2  1.00000  0.93095  0.28113 11.00000  0.22189   5.45
N00Y  3  1.00000  0.84065  0.27369 10.50000  0.05153   5.27
C00Z  2  0.50000  0.50000  0.54426 10.25000  0.22248   4.95
C010  2  0.79311  0.50000  0.63894 11.00000  0.27419   4.80
C011  2  0.50000  1.00000  0.36255 10.25000  0.06838   4.67
C012  2  1.00000  0.71206  0.61776 11.00000  0.01791   4.63
C013  2  0.71337  0.53291  0.47394 11.00000  0.04388   4.62
N014  3  1.00000  0.58939  0.70790 10.50000  0.14824   4.57
C015  2  1.00000  0.50000  0.76879 10.25000  0.16689   4.33
C016  2  1.00000  0.71431  0.33803 10.50000  0.00010   4.32
C017  2  0.50000  0.89807  0.53912 10.50000  0.00010   4.07
C018  2  1.00000  0.61410  0.27880 11.00000  0.02729   4.04
C019  2  1.00000  0.50000  0.36741 10.25000  0.09624   3.96
C01A  2  1.00000  0.82206  0.40091 11.00000  0.08509   3.91
O01B  4  0.50000  1.00000  0.42032 10.50000  0.29126   3.86
C01C  2  1.00000  0.50000  0.64676 10.50000  0.22072   3.65
C01D  2  0.50000  0.50000  0.35426 10.50000  0.00010   3.63
C01E  2  0.71353  0.71754  0.59138 11.00000  0.00010   3.45
C01F  2  0.50000  1.00000  0.45571 10.50000  0.22636   3.31
C01G  2  1.00000  1.00000  0.65320 10.50000  0.18364   3.17
C01H  2  0.50000  0.95814  0.47529 10.50000  0.11357   3.13
HKLF 4
END
