TITL temp01_expF_1_1_expS_1_5_temp01_a.res in Imm2
REM Old TITL 1 in I222
REM SHELXT solution in Imm2: R1 0.693, Rweak 0.303, Alpha 0.194
REM <I/s>   0.000 for    0 systematic absences,  Orientation as input
REM Flack x = -6.718 ( 3.596 ) from    40 Parsons' quotients
REM Formula found by SHELXT:  C54 N8 O17 Cl12

CELL  0.71073   9.4370  15.1530  30.5090   90.000   90.000   90.000
ZERR   53.000   0.0019   0.0030   0.0061    0.000    0.000    0.000
LATT -2
SYMM -X, -Y, Z
SYMM X, -Y, Z
SYMM -X, Y, Z
SFAC H C N O ZR CL
UNIT 0 0 0 0 0 0
L.S. 10
BOND
LIST 6
FMAP 2
PLAN 20
CL01  6  1.00000  0.50000  0.62298 10.25000  0.01071  18.67
CL02  6  0.89023  0.50000  0.62066 10.50000  0.06336  15.90
C003  2  0.60815  0.50000  0.40714 10.50000  0.01857  14.63
CL04  6  1.19941  0.50000  0.34797 10.50000  0.01846  13.29
CL05  6  1.00000  0.50000  0.40264 10.25000  0.09344  13.17
CL06  6  1.00000  0.33877  0.42360 10.50000  0.10682  12.72
CL07  6  0.79363  0.50000  0.46664 10.50000  0.08545  12.68
CL08  6  0.50000  0.32250  0.51889 10.50000  0.03437  11.69
C009  2  0.09966  0.00000  0.41819 10.50000  0.00010   9.78
N00A  3  0.50000  0.50000  0.58244 10.25000  0.00010   8.92
O00B  4  0.70912  0.50000  0.60727 10.50000  0.08711   8.87
O00C  4  1.24236  0.32818  0.32553 11.00000  0.01899   8.78
O00D  4  0.65816  0.34185  0.51686 11.00000  0.06393   7.89
O00E  4  0.50000  0.19280  0.58680 10.50000  0.00069   7.86
O00F  4  1.00000  0.38472  0.46088 10.50000  0.06725   7.77
O00G  4  0.22905  0.00000  0.42865 10.50000  0.05400   7.74
O00H  4  0.50000  0.00000  0.53186 10.25000  0.01473   7.65
C00I  2  1.50000  0.34873  0.38036 10.50000  0.06015   6.40
C00J  2  0.68770  0.50000  0.75684 10.50000  0.00010   6.22
C00K  2  0.50000  0.00000  0.44242 10.25000  0.01660   6.22
N00L  3  1.00000  0.69784  0.71373 10.50000  0.01338   6.11
C00M  2  0.25424  0.00000  0.52533 10.50000  0.05669   6.03
C00N  2  0.50000  0.50000  0.75422 10.25000  0.13167   5.86
C00O  2  0.60727  0.50000  0.61235 10.50000  0.00010   5.81
C00P  2  0.50000  0.50000  0.52908 10.25000  0.06675   5.58
C00Q  2  0.50000  0.50000  0.72606 10.25000  0.04230   5.58
C00R  2  1.00000  0.50000  0.25410 10.25000  0.04937   5.46
C00S  2  0.50000  0.43635  0.74540 10.50000  0.00881   5.43
C00T  2  1.00000  0.39674  0.34199 11.00000  0.04479   5.32
C00U  2  0.50000  0.10324  0.54164 10.50000  0.00958   5.27
C00V  2  1.50000  0.27251  0.31551 10.50000  0.04346   5.02
C00W  2  1.39713  0.28435  0.34420 11.00000  0.01425   4.48
C00X  2  0.50000  0.50000  0.62167 10.25000  0.01137   4.42
N00Y  3  0.00000  0.00000  0.57049 10.25000  0.04797   4.33
C00Z  2  1.00000  0.61070  0.64065 10.50000  0.02002   4.28
C010  2  0.76315  0.35280  0.45735 11.00000  0.00139   3.90
C011  2  1.00000  0.29713  0.24316 10.50000  0.00010   3.88
C012  2  0.00000 -0.11569  0.42270 10.50000  0.00010   3.77
C013  2  1.34686  0.18079  0.33347 11.00000  0.00010   3.72
N014  3  0.42337  0.00000  0.47303 10.50000  0.00010   3.64
C015  2  1.21815  0.41862  0.28144 11.00000  0.00010   3.21
N016  3  1.00000  0.81536  0.64708 10.50000  0.00010   3.17
C017  2  1.29686  0.23903  0.39914 11.00000  0.00815   3.10
HKLF 4
END
