TITL temp01_expF_0_9_expS_1_3_temp01_a.res in Imm2
REM Old TITL 1 in I222
REM SHELXT solution in Imm2: R1 0.638, Rweak 0.397, Alpha 0.287
REM <I/s>   0.000 for    0 systematic absences,  Orientation as input
REM Flack x = -2.100 ( 0.703 ) from   110 Parsons' quotients
REM Formula found by SHELXT:  C46 N20 O39 Zr

CELL  0.71073   9.4370  15.1530  30.5090   90.000   90.000   90.000
ZERR   53.000   0.0019   0.0030   0.0061    0.000    0.000    0.000
LATT -2
SYMM -X, -Y, Z
SYMM X, -Y, Z
SYMM -X, Y, Z
SFAC H C N O ZR
UNIT 0 0 0 0 0
L.S. 10
BOND
LIST 6
FMAP 2
PLAN 20
ZR01  5  0.00000  0.00000  0.56086 10.25000  0.04122  25.49
O002  4 -0.38763  0.00000  0.45088 10.50000  0.00010  19.23
O003  4  0.75028  0.50000  0.54384 10.50000  0.00010  16.68
O004  4 -0.19083  0.00000  0.49318 10.50000  0.00010  14.69
O005  4  0.00000  0.00000  0.44033 10.25000  0.00043  14.30
O006  4  0.26480  0.00000  0.61267 10.50000  0.06300  14.07
N007  3 -0.08610  0.00000  0.37293 10.50000  0.08200  13.96
O008  4  0.64364  0.50000  0.53859 10.50000  0.01194  13.71
O009  4 -0.50000  0.00000  0.44754 10.25000  0.09711  12.46
N00A  3  0.93027  0.50000  0.52180 10.50000  0.03419  12.35
O00B  4  0.00000  0.08875  0.50872 10.50000  0.00010  12.11
O00C  4  0.35201  0.00000  0.59531 10.50000  0.12759  11.96
O00D  4  0.19856  0.15928  0.51483 11.00000  0.00526  11.38
O00E  4  0.50000  0.50000  0.56313 10.25000  0.03350  10.45
O00F  4  0.00000  0.50000  0.34112 10.25000  0.00239  10.42
O00G  4  0.00000  0.16755  0.42484 10.50000  0.01323   9.90
O00H  4  0.00000  0.40633  0.29977 10.50000  0.01499   9.84
O00I  4 -0.21744  0.00000  0.36008 10.50000  0.01538   9.54
N00J  3  0.00000  0.46041  0.29985 10.50000  0.00010   9.39
O00K  4  1.50000  0.71248  0.60372 10.50000  0.04213   8.94
O00L  4  0.00000  0.00000  0.66190 10.25000  0.09546   8.82
O00M  4  0.00000  0.39138  0.16981 10.50000  0.12061   8.26
O00N  4  0.00000  0.41117  0.26592 10.50000  0.00114   7.99
C00O  2  1.00000  0.58665  0.58748 10.50000  0.00393   7.29
N00P  3  0.50000  0.00000  0.56478 10.25000  0.19329   6.64
N00Q  3  0.00000  0.00000  0.72212 10.25000  0.09599   6.60
C00R  2  0.00000  0.17501  0.76042 10.50000  0.00010   6.21
C00S  2  0.00000  0.00000  0.36147 10.25000  0.09119   5.89
N00T  3  0.50000  0.26170  0.50437 10.50000  0.00010   5.80
C00U  2 -0.17010  0.00000  0.31025 10.50000  0.02957   5.69
C00V  2  0.00000  0.12899  0.39208 10.50000  0.00720   5.36
C00W  2  0.15175  0.00000  0.77102 10.50000  0.06590   5.31
N00X  3  1.50000  0.65665  0.62741 10.50000  0.11651   4.88
C00Y  2  1.42901  0.58453  0.66206 11.00000  0.00090   4.81
O00Z  4  1.15629  0.60117  0.68564 11.00000  0.03608   4.58
C010  2  0.07974  0.04862  0.73156 11.00000  0.06755   4.36
C011  2  0.00000  0.00000  0.26442 10.25000  0.00010   4.02
C012  2  0.86590  0.40311  0.51571 11.00000  0.04318   3.91
C013  2  0.00000  0.27343  0.35614 10.50000  0.03631   3.88
C014  2 -0.33865 -0.07535  0.42065 11.00000  0.01076   3.79
C015  2  0.00000  0.18533  0.51613 10.50000  0.07859   3.78
C016  2  1.00000  0.52821  0.73594 10.50000  0.00010   3.71
N017  3  0.00000  0.12221  0.36344 10.50000  0.00010   3.61
C018  2  0.14634  0.09738  0.57355 11.00000  0.02059   3.55
C019  2  1.07645  0.64543  0.66959 11.00000  0.01022   3.36
N01A  3  0.00000  0.08958  0.83019 10.50000  0.01783   3.17
C01B  2  0.68974  0.39211  0.50978 11.00000  0.00010   3.08
N01C  3  0.86540  0.55075  0.57971 11.00000  0.05588   3.06
HKLF 4
END
