TITL temp01_expF_1_1_expS_1_2_temp01_a.res in Imm2
REM Old TITL 1 in I222
REM SHELXT solution in Imm2: R1 0.635, Rweak 0.164, Alpha 0.280
REM <I/s>   0.000 for    0 systematic absences,  Orientation as input
REM Flack x =  0.139 ( 0.764 ) from   279 Parsons' quotients
REM Formula found by SHELXT:  C65 N22 O48 Cl18

CELL  0.71073   9.4370  15.1530  30.5090   90.000   90.000   90.000
ZERR   53.000   0.0019   0.0030   0.0061    0.000    0.000    0.000
LATT -2
SYMM -X, -Y, Z
SYMM X, -Y, Z
SYMM -X, Y, Z
SFAC H C N O ZR CL
UNIT 0 0 0 0 0 0
L.S. 10
BOND
LIST 6
FMAP 2
PLAN 20
CL01  6  1.36181  0.50000  0.70124 10.50000  0.03804  19.75
CL02  6  0.00000  0.64286  0.38592 10.50000  0.04353  18.98
CL03  6  1.50000  0.50000  0.71104 10.25000  0.01948  18.58
CL04  6  1.10366  0.50000  0.60182 10.50000  0.06176  18.42
CL05  6  1.00000  0.50000  0.59685 10.25000  0.04300  17.87
CL06  6  0.50000  0.50000  0.30764 10.25000  0.04096  17.42
CL07  6  0.84020  0.50000  0.43495 10.50000  0.03177  16.06
CL08  6  0.68952  0.50000  0.47520 10.50000  0.02501  15.85
CL09  6  0.50000  0.42429  0.48253 10.50000  0.02227  15.47
CL0A  6  1.00000  0.50000  0.44034 10.25000  0.07421  14.98
CL0B  6  0.36267  0.50000  0.30637 10.50000  0.07765  13.50
C00C  2  0.00000  0.80861  0.22898 10.50000  0.01650  12.68
O00D  4  1.06904  0.50000  0.70174 10.50000  0.00478  12.21
N00E  3  1.35301  0.50000  0.61795 10.50000  0.01120  11.93
O00F  4  0.00000  0.39792  0.24405 10.50000  0.10091  10.77
O00G  4  1.00000  0.76433  0.57300 10.50000  0.06071  10.51
O00H  4  0.50000  0.65079  0.42231 10.50000  0.00010  10.11
O00I  4  0.66592  0.57682  0.41417 11.00000  0.00822  10.01
N00J  3  1.29107  0.50000  0.65329 10.50000  0.04172   9.99
O00K  4  1.12723  1.00000  0.67082 10.50000  0.00141   9.92
C00L  2  0.07071  0.68293  0.38549 11.00000  0.00172   9.75
N00M  3  0.50000  0.59483  0.33832 10.50000  0.05236   9.63
O00N  4  0.71574  0.68677  0.49265 11.00000  0.03835   9.42
O00O  4  1.00000  0.54372  0.73869 10.50000  0.04335   9.30
O00P  4  0.66094  1.00000  0.44517 10.50000  0.00010   8.86
O00Q  4  0.50000  0.21611  0.49406 10.50000  0.05017   8.27
O00R  4  0.09641  0.50000  0.25801 10.50000  0.04750   8.26
O00S  4  0.18979  0.62109  0.29846 11.00000  0.00010   8.12
O00T  4  0.50000  1.00000  0.65783 10.25000  0.00010   8.07
N00U  3  1.00000  0.88851  0.53631 10.50000  0.00010   7.87
O00V  4  0.23610  0.77433  0.42132 11.00000  0.05783   7.84
N00W  3  0.25566  0.69335  0.36707 11.00000  0.00010   7.79
O00X  4  0.33182  0.50000  0.33850 10.50000  0.01940   7.78
O00Y  4  0.50000  1.00000  0.52791 10.25000  0.04024   7.59
N00Z  3  1.00000  0.68210  0.72757 10.50000  0.01176   6.96
O010  4 -0.12310  0.78344  0.23779 11.00000  0.06595   6.94
C011  2  0.12121  0.73846  0.37469 11.00000  0.00251   6.85
C012  2  0.65320  1.00000  0.59680 10.50000  0.00785   5.98
C013  2  0.50000  0.90683  0.57104 10.50000  0.00010   5.79
C014  2  0.82155  0.60709  0.42967 11.00000  0.02398   5.73
C015  2  1.00000  0.64591  0.60545 10.50000  0.00010   5.64
O016  4  0.00000  0.86299  0.39576 10.50000  0.00010   5.52
C017  2  0.00000  0.76075  0.30026 10.50000  0.02699   5.42
C018  2  1.33151  0.50000  0.58124 10.50000  0.09353   5.40
C019  2  0.44262  0.66555  0.36303 11.00000  0.06865   5.39
C01A  2  0.86352  0.87460  0.57425 11.00000  0.03745   5.34
C01B  2  1.50000  0.50000  0.61318 10.25000  0.09170   5.27
C01C  2  1.18805  0.50000  0.72943 10.50000  0.10522   5.01
C01D  2  0.23464  0.79198  0.32811 11.00000  0.01440   4.91
C01E  2  1.45832  0.50000  0.60836 10.50000  0.07382   4.84
C01F  2  0.00000  0.81447  0.39845 10.50000  0.03679   4.67
C01G  2  1.00000  0.68712  0.58136 10.50000  0.00103   4.63
C01H  2  0.50000  0.50000  0.41636 10.25000  0.00421   4.53
N01I  3  1.31213  0.50000  0.81774 10.50000  0.00289   4.47
C01J  2  0.83329  0.74731  0.56253 11.00000  0.00010   4.10
C01K  2  0.50000  0.31642  0.54248 10.50000  0.00010   3.99
C01L  2  0.50000  0.73218  0.36878 10.50000  0.00195   3.81
C01M  2  1.00000  1.00000  0.52441 10.25000  0.00010   3.62
C01N  2  1.00000  0.60004  0.48291 10.50000  0.00010   3.55
N01O  3  1.09200  0.68614  0.73673 11.00000  0.01936   3.50
C01P  2  1.13586  0.64027  0.75520 11.00000  0.00010   3.43
C01Q  2  1.00000  0.93497  0.65776 10.50000  0.00010   3.39
C01R  2  0.87791  1.00000  0.51269 10.50000  0.04356   3.39
N01S  3  0.00000  0.70513  0.18226 10.50000  0.05717   3.34
O01T  4  0.82612  0.90295  0.59291 11.00000  0.00428   3.17
HKLF 4
END
