TITL temp01_expF_0_8_expS_1_0_temp01_a.res in Imm2
REM Old TITL 1 in I222
REM SHELXT solution in Imm2: R1 0.594, Rweak 0.094, Alpha 0.108
REM <I/s>   0.000 for    0 systematic absences,  Orientation as input
REM Flack x = -1.369 ( 0.619 ) from   262 Parsons' quotients
REM Formula found by SHELXT:  C52 N25 O16 Cl12

CELL  0.71073   9.4370  15.1530  30.5090   90.000   90.000   90.000
ZERR   53.000   0.0019   0.0030   0.0061    0.000    0.000    0.000
LATT -2
SYMM -X, -Y, Z
SYMM X, -Y, Z
SYMM -X, Y, Z
SFAC H C N O ZR CL
UNIT 0 0 0 0 0 0
L.S. 10
BOND
LIST 6
FMAP 2
PLAN 20
CL01  6  0.50000  0.50000  0.39920 10.25000  0.05453  21.79
CL02  6  0.18424  0.50000  0.43003 10.50000  0.04041  19.38
CL03  6  0.36229  0.50000  0.39259 10.50000  0.07973  18.37
CL04  6  0.13251  0.50000  0.30100 10.50000  0.06060  15.61
CL05  6  1.32650  1.00000  0.61366 10.50000  0.02660  13.39
C006  2  0.00000  0.65278  0.48557 10.50000  0.00010  11.57
O007  4  0.28760  0.50000  0.30579 10.50000  0.01719  11.08
CL08  6  0.00000  0.68732  0.37206 10.50000  0.08190  10.94
O009  4  0.00000  0.50000  0.35049 10.25000  0.02538   9.84
CL0A  6  1.00000  1.00000  0.44267 10.25000  0.03284   9.79
O00B  4  0.21738  0.42737  0.35851 11.00000  0.00010   9.65
O00C  4  0.32613  0.50000  0.43172 10.50000  0.03935   9.30
O00D  4  1.00000  0.50000  0.73071 10.25000  0.01956   9.11
N00E  3  0.63235  1.00000  0.45152 10.50000  0.02675   8.77
O00F  4  0.00000  0.63047  0.41673 10.50000  0.02527   8.49
O00G  4  0.50000  0.35705  0.38876 10.50000  0.02121   8.33
N00H  3  0.18623  0.50000  0.54765 10.50000  0.00010   7.08
N00I  3  0.06889  0.63581  0.48686 11.00000  0.01146   6.92
N00J  3  0.66212  0.52812  0.72501 11.00000  0.00682   6.88
N00K  3  0.50000  0.50000  0.19684 10.25000  0.04039   6.63
C00L  2  0.50000  0.69256  0.58797 10.50000  0.00010   6.62
C00M  2  0.50000  0.63881  0.73119 10.50000  0.00655   6.38
C00N  2  0.50000  1.00000  0.43683 10.25000  0.00010   6.21
C00O  2  1.00000  1.00000  0.54719 10.25000  0.00010   6.19
C00P  2  1.50000  1.00000  0.58552 10.50000  0.01252   6.10
O00Q  4  0.50000  0.73809  0.61028 10.50000  0.00625   5.88
N00R  3  1.13615  1.00000  0.54639 10.50000  0.00010   5.68
C00S  2  0.00000  0.50000  0.53501 10.25000  0.00010   5.59
N00T  3  0.50000  0.95438  0.46256 10.50000  0.01316   5.42
N00U  3  0.50000  0.54777  0.56896 10.50000  0.00010   5.26
C00V  2  0.50000  0.62056  0.46510 10.50000  0.04440   5.19
N00W  3  1.00000  0.32022  0.70896 10.50000  0.01711   5.09
C00X  2  1.09523  1.00000  0.60869 10.50000  0.00010   5.07
C00Y  2  1.00000  1.08823  0.53702 10.50000  0.00850   4.98
N00Z  3  0.50000  0.16944  0.36997 10.50000  0.00010   4.79
C010  2  0.50000  0.50000  0.25863 10.25000  0.07780   4.69
C011  2  1.50000  1.05329  0.60010 10.50000  0.00010   4.64
C012  2  0.50000  0.88522  0.47271 10.50000  0.00010   4.54
C013  2  0.00000  0.40089  0.29845 10.50000  0.00656   4.51
C014  2  0.17107  0.34269  0.31271 11.00000  0.01187   4.24
C015  2  0.64649  0.50000  0.67229 10.50000  0.00010   4.22
C016  2  0.50000  0.60167  0.53258 10.50000  0.00947   3.82
C017  2  0.50000  0.50000  0.54005 10.25000  0.00240   3.79
C018  2  1.00000  0.50000  0.67827 10.25000  0.00152   3.76
C019  2  0.50000  0.78804  0.54430 10.50000  0.02831   3.75
C01A  2  0.29696  0.62426  0.46695 11.00000  0.00010   3.71
C01B  2  0.65100  0.54626  0.80316 11.00000  0.05134   3.50
C01C  2  0.50000  0.53009  0.27969 10.50000  0.00010   3.34
C01D  2  0.84932  1.10689  0.49557 11.00000  0.00010   3.21
N01E  3  1.00000  1.14379  0.54092 10.50000  0.06281   3.15
C01F  2  0.85972  1.00000  0.44763 10.50000  0.07394   3.14
HKLF 4
END
