TITL temp01_expF_1_4_expS_1_2_temp01_a.res in Imm2
REM Old TITL 1 in I222
REM SHELXT solution in Imm2: R1 0.780, Rweak 0.115, Alpha 0.038
REM <I/s>   0.000 for    0 systematic absences,  Orientation as input
REM Flack x = -2.213 ( 1.447 ) from   291 Parsons' quotients
REM Formula found by SHELXT:  C36 N18 O14 Cl9

CELL  0.71073   9.4370  15.1530  30.5090   90.000   90.000   90.000
ZERR   53.000   0.0019   0.0030   0.0061    0.000    0.000    0.000
LATT -2
SYMM -X, -Y, Z
SYMM X, -Y, Z
SYMM -X, Y, Z
SFAC H C N O ZR CL
UNIT 0 0 0 0 0 0
L.S. 10
BOND
LIST 6
FMAP 2
PLAN 20
CL01  6  1.00000  0.50000  0.62426 10.25000  0.07982  18.63
CL02  6  0.89744  0.50000  0.62526 10.50000  0.02357  16.33
CL03  6  0.70614  0.50000  0.60046 10.50000  0.12860  13.12
CL04  6  0.14688  0.50000  0.28100 10.50000  0.08707  12.96
CL05  6  0.00000  0.50000  0.28782 10.25000  0.07596  11.23
O006  4  0.50000  0.50000  0.74807 10.25000  0.03176  10.27
CL07  6  0.50000  0.50000  0.52298 10.25000  0.05133  10.20
O008  4  0.50000  0.50000  0.63137 10.25000  0.00010   9.44
O009  4  0.64441  0.50000  0.74817 10.50000  0.03496   8.37
O00A  4  0.80033  0.00000  0.40841 10.50000  0.10079   8.25
O00B  4  1.00000  0.64547  0.67253 10.50000  0.02464   8.13
O00C  4  0.50000  0.44525  0.58825 10.50000  0.00290   7.97
O00D  4  0.50000  0.69218  0.65026 10.50000  0.00696   7.83
C00E  2  0.62831  0.50000  0.70603 10.50000  0.06948   7.10
O00F  4  0.83075  0.50000  0.71215 10.50000  0.05810   7.09
N00G  3  1.00000  0.40226  0.49705 10.50000  0.05642   6.96
C00H  2  0.50000  0.59812  0.71583 10.50000  0.00010   6.49
N00I  3  1.00000  0.26787  0.48435 10.50000  0.11503   6.25
C00J  2  0.66194  0.32929  0.57254 11.00000  0.02304   6.02
N00K  3  0.50000  0.50000  0.20671 10.25000  0.03605   5.53
C00L  2  0.84625  0.67292  0.68160 11.00000  0.00010   5.33
C00M  2  0.50000  0.15934  0.57249 10.50000  0.04013   5.09
C00N  2  0.93198  0.50000  0.54227 10.50000  0.00010   4.95
N00O  3  0.26003  0.00000  0.53648 10.50000  0.00010   4.91
C00P  2  0.50000  0.34379  0.51800 10.50000  0.04580   4.83
C00Q  2  0.21852  0.50000  0.27241 10.50000  0.04921   4.69
C00R  2  0.62776  0.21651  0.36380 11.00000  0.01677   4.63
N00S  3  0.69569  0.68978  0.70366 11.00000  0.03018   4.62
N00T  3  0.50000  0.12888  0.50900 10.50000  0.05756   4.60
N00U  3  0.50000  0.31951  0.29618 10.50000  0.01676   4.20
C00V  2  0.74245  0.59758  0.63701 11.00000  0.00010   4.12
N00W  3  0.50000  0.00000  0.58303 10.25000  0.00010   3.70
N00X  3  0.88178  0.50000  0.79329 10.50000  0.03266   3.63
C00Y  2  0.50000  0.20182  0.37773 10.50000  0.04443   3.61
C00Z  2  0.84022  0.19451  0.39655 11.00000  0.01327   3.58
C010  2  0.50000  0.50000  0.36778 10.25000  0.02071   3.55
C011  2  0.50000  0.50000  0.33657 10.25000  0.00010   3.11
HKLF 4
END
