TITL temp01_expF_1_5_expS_1_0_temp01_a.res in Imm2
REM Old TITL 1 in I222
REM SHELXT solution in Imm2: R1 0.800, Rweak 0.051, Alpha 0.016
REM <I/s>   0.000 for    0 systematic absences,  Orientation as input
REM Flack x = -9.990 ( 0.879 ) from   343 Parsons' quotients
REM Formula found by SHELXT:  C53 N16 O29 Zr4

CELL  0.71073   9.4370  15.1530  30.5090   90.000   90.000   90.000
ZERR   53.000   0.0019   0.0030   0.0061    0.000    0.000    0.000
LATT -2
SYMM -X, -Y, Z
SYMM X, -Y, Z
SYMM -X, Y, Z
SFAC H C N O ZR
UNIT 0 0 0 0 0
L.S. 10
BOND
LIST 6
FMAP 2
PLAN 20
ZR01  5  0.54801  0.00000  0.25179 10.50000  0.08684  26.09
ZR02  5  0.68427  0.00000  0.25603 10.50000  0.06962  24.35
O003  4  0.50000  0.50000  0.49734 10.25000  0.00430  17.21
O004  4  1.00000  0.50000  0.40756 10.25000  0.00325  15.23
O005  4  1.00000  0.80051  0.32574 10.50000  0.04219  15.15
O006  4  0.50000  0.35736  0.49306 10.50000  0.02654  14.44
O007  4  0.68329  0.50000  0.42945 10.50000  0.00871  13.37
O008  4  0.50000  0.50000  0.69751 10.25000  0.00010  12.50
O009  4  1.20897  1.00000  0.37688 10.50000  0.05333  12.39
O00A  4  1.00001  1.00000  0.33645 10.25000  0.00057  11.46
O00B  4  1.00000  0.50000  0.59042 10.25000  0.03884   9.26
O00C  4  0.74367  0.41531  0.40610 11.00000  0.06704   8.54
O00D  4  0.50000  0.00000  0.41864 10.25000  0.04579   8.50
O00E  4  0.72523  0.50000  0.56034 10.50000  0.00788   8.41
O00F  4  0.50000  0.50000  0.63553 10.25000  0.02145   7.72
O00G  4  0.50000  0.40702  0.45391 10.50000  0.03792   7.41
O00H  4  0.72585  0.33719  0.44746 11.00000  0.02932   7.31
O00I  4  0.50000 -0.13008  0.31297 10.50000  0.01302   7.29
N00J  3  1.00000  0.69816  0.38901 10.50000  0.02992   7.06
N00K  3  0.71002  0.21234  0.39784 11.00000  0.00744   6.95
N00L  3  0.50000  0.67591  0.64729 10.50000  0.01997   6.75
C00M  2  0.50000  0.53470  0.71306 10.50000  0.00746   6.43
C00N  2  1.00000  0.60945  0.48140 10.50000  0.00010   6.42
C00O  2  1.00000  0.65805  0.53745 10.50000  0.02537   6.29
N00P  3  1.00000  0.68715  0.69174 10.50000  0.01045   6.27
C00Q  2  0.71510  0.70356  0.57550 11.00000  0.03260   5.92
C00R  2  1.00000  0.60705  0.60368 11.00000  0.03637   5.71
C00S  2  0.50000  0.50000  0.38809 10.25000  0.04706   5.56
C00T  2  0.50000  0.87107  0.65099 10.50000  0.02372   5.45
C00U  2  0.61649  0.39583  0.49810 11.00000  0.01343   5.36
C00V  2  1.00000  0.76871  0.56276 10.50000  0.04439   5.28
C00W  2  1.00000  0.47247  0.35573 10.50000  0.06043   5.27
C00X  2  0.78490  0.66715  0.57855 11.00000  0.07169   4.91
C00Y  2  0.50000  0.11478  0.42158 10.50000  0.01644   4.78
N00Z  3  1.00000  0.78302  0.45399 10.50000  0.01874   4.67
C010  2  0.70010  1.00000  0.68258 10.50000  0.00527   4.50
N011  3  0.50000  0.40121  0.32556 10.50000  0.07395   4.12
C012  2  1.00000  0.50000  0.52751 10.25000  0.01785   4.06
C013  2  0.50000  0.79533  0.69346 10.50000  0.00010   3.81
C014  2  0.81058  0.81891  0.58414 11.00000  0.00010   3.80
C015  2  1.16866  0.89950  0.33202 11.00000  0.00010   3.72
N016  3  0.00000  0.00000  0.52304 10.25000  0.00010   3.59
C017  2  0.50000  0.06595  0.47802 10.50000  0.00010   3.40
C018  2  0.32115  0.78498  0.67594 11.00000  0.02457   3.29
C019  2  0.31632  0.00000  0.48798 10.50000  0.00038   3.24
C01A  2  0.50000  0.00000  0.33744 10.25000  0.00030   3.22
N01B  3  0.50000  1.00000  0.74821 10.25000  0.08971   3.07
HKLF 4
END
