TITL temp01_expF_1_5_expS_0_7_temp01_a.res in Imm2
REM Old TITL 1 in I222
REM SHELXT solution in Imm2: R1 0.770, Rweak 0.244, Alpha 0.029
REM <I/s>   0.000 for    0 systematic absences,  Orientation as input
REM Flack x = -9.990 ( 2.373 ) from   517 Parsons' quotients
REM Formula found by SHELXT:  C37 N13 O14 Cl8

CELL  0.71073   9.4370  15.1530  30.5090   90.000   90.000   90.000
ZERR   53.000   0.0019   0.0030   0.0061    0.000    0.000    0.000
LATT -2
SYMM -X, -Y, Z
SYMM X, -Y, Z
SYMM -X, Y, Z
SFAC H C N O ZR CL
UNIT 0 0 0 0 0 0
L.S. 10
BOND
LIST 6
FMAP 2
PLAN 20
CL01  6  1.00000  0.50000  0.42653 10.25000  0.08997  21.26
CL02  6  0.87301  0.50000  0.42668 10.50000  0.08960  19.08
CL03  6  1.00000  0.50000  0.76828 10.25000  0.13961  13.99
CL04  6  0.61748  0.50000  0.46224 10.50000  0.17094  11.83
CL05  6  0.56623  0.50000  0.64801 10.50000  0.16005  11.14
O006  4  1.00000  0.50000  0.66047 10.25000  0.08512  11.04
O007  4  0.50000  0.50000  0.45944 10.25000  0.07368  10.79
O008  4  0.77576  0.50000  0.57294 10.50000  0.14210  10.53
O009  4  1.00000  0.68625  0.64632 10.50000  0.10538  10.40
O00A  4  0.76160  0.66871  0.71150 11.00000  0.17150   9.16
O00B  4  0.77059  0.50000  0.71090 10.50000  0.08348   8.77
C00C  2  0.50000  0.32131  0.51954 10.50000  0.05507   8.73
C00D  2  0.50000  0.50000  0.30174 10.25000  0.05956   8.13
O00E  4  0.50000  0.59634  0.32428 10.50000  0.19588   7.91
N00F  3  0.50000  0.22204  0.47319 10.50000  0.04701   7.20
N00G  3  1.00000  0.68841  0.78963 10.50000  0.07818   6.94
N00H  3  0.39700  0.33391  0.51561 11.00000  0.06593   6.34
C00I  2  0.31222  0.00000  0.54133 10.50000  0.04014   5.97
C00J  2  0.50000  0.09526  0.52420 10.50000  0.03771   5.88
C00K  2  1.00000  0.50000  0.31024 10.25000  0.09252   5.85
C00L  2  0.50000  0.50000  0.54227 10.25000  0.00010   5.71
C00M  2  1.00000  0.36706  0.36952 10.50000  0.03032   5.37
C00N  2  0.81043  0.68125  0.59316 11.00000  0.06729   5.29
C00O  2  1.00000  0.62683  0.55419 10.50000  0.06802   4.64
C00P  2  0.77934  0.29363  0.38935 11.00000  0.11885   4.51
N00Q  3  0.20801  0.00000  0.60822 10.50000  0.11964   4.51
C00R  2  0.06105  0.00000  0.60717 10.50000  0.06559   3.88
N00S  3  0.50000  0.69262  0.66030 10.50000  0.11233   3.87
C00T  2  0.79349  0.61976  0.64750 11.00000  0.12307   3.85
C00U  2  1.00000  0.31856  0.31047 10.50000  0.07686   3.78
C00V  2  1.00000  0.81040  0.58315 10.50000  0.08335   3.40
C00W  2  0.67175  0.50000  0.29071 10.50000  0.05741   3.29
N00X  3  1.00000  0.50000  0.21037 10.25000  0.05734   3.09
C00Y  2  0.88215  0.77878  0.59166 11.00000  0.11263   3.08
HKLF 4
END
