TITL temp01_expF_1_5_expS_1_1_temp01_a.res in Imm2
REM Old TITL 1 in I222
REM SHELXT solution in Imm2: R1 0.843, Rweak 0.542, Alpha 0.058
REM <I/s>   0.000 for    0 systematic absences,  Orientation as input
REM Flack x = -8.844 ( 0.237 ) from   266 Parsons' quotients
REM Formula found by SHELXT:  C43 N11 O44 Zr2

CELL  0.71073   9.4370  15.1530  30.5090   90.000   90.000   90.000
ZERR   53.000   0.0019   0.0030   0.0061    0.000    0.000    0.000
LATT -2
SYMM -X, -Y, Z
SYMM X, -Y, Z
SYMM -X, Y, Z
SFAC H C N O ZR
UNIT 0 0 0 0 0
L.S. 10
BOND
LIST 6
FMAP 2
PLAN 20
ZR01  5  0.60627  0.00000  0.32345 10.50000  0.08826  24.23
O002  4  0.50000  0.00000  0.33115 10.25000  0.00010  23.85
O003  4  1.00000  0.00000  0.41945 10.25000  0.03538  17.64
O004  4  1.00000  0.00000  0.31392 10.25000  0.05063  13.63
O005  4  0.50000  0.09736  0.47733 10.50000  0.02086  13.00
O006  4  1.06641  0.00000  0.43911 10.50000  0.00010  12.53
O007  4  0.50000  0.29875  0.45334 10.50000  0.02042  12.18
O008  4  0.18726  0.50000  0.53901 10.50000  0.06658  11.94
O009  4  1.00000  0.15180  0.63234 10.50000  0.02974  10.83
O00A  4  1.00000  0.00000  0.76619 10.25000  0.04129  10.56
O00B  4  0.58819  0.00000  0.45594 10.50000  0.04500   9.92
O00C  4  1.00000  0.06148  0.35798 10.50000  0.07498   9.86
O00D  4  0.77982  0.00000  0.37025 10.50000  0.02489   9.40
O00E  4  0.12690  0.50000  0.61048 10.50000  0.04893   9.28
O00F  4  0.00000  0.62366  0.59591 10.50000  0.06219   9.28
C00G  2  0.50000  0.13425  0.55964 10.50000  0.00010   8.93
O00H  4  0.70862  0.00000  0.57742 10.50000  0.04805   8.65
O00I  4  0.50000  0.50000  0.48898 10.25000  0.01020   8.47
O00J  4  0.57478  0.10187  0.39353 11.00000  0.05349   8.14
O00K  4  0.00000  0.50000  0.60369 10.25000  0.04689   8.05
C00L  2  0.50000  0.00000  0.46575 10.25000  0.05571   7.67
O00M  4 -0.15595  0.65759  0.53643 11.00000  0.02886   7.53
O00N  4  1.00000  0.10102  0.60038 10.50000  0.00010   7.42
O00O  4  0.50000  0.00000  0.66781 10.50000  0.02615   7.34
O00P  4  1.00000  0.00000  0.64743 10.25000  0.00010   7.23
N00Q  3  0.50000  0.59259  0.57035 10.50000  0.03240   7.14
N00R  3  1.00000  0.00000  0.20740 10.25000  0.00124   7.10
C00S  2  0.72304  0.13870  0.51008 11.00000  0.01802   6.91
N00T  3  0.74194  0.10214  0.52780 11.00000  0.01444   5.82
C00U  2  1.00000  0.19713  0.29578 10.50000  0.00197   5.72
C00V  2  0.50000  0.50000  0.56479 10.25000  0.04949   5.61
O00W  4  0.50000  0.00000  0.50714 10.25000  0.00235   5.52
C00X  2  0.69310  0.00000  0.62844 10.50000  0.03678   5.31
C00Y  2  0.83469  0.28177  0.77153 11.00000  0.00229   5.16
N00Z  3  0.14626  0.50000  0.47628 10.50000  0.08537   5.03
C010  2  1.00000  0.10789  0.79260 10.50000  0.02129   4.79
C011  2  0.84743  0.26499  0.72984 11.00000  0.03379   4.43
C012  2  0.00000  0.50000  0.49035 10.25000  0.00010   4.30
O013  4  1.00000  0.24234  0.43122 10.50000  0.06602   4.23
C014  2  1.00000  0.23731  0.39898 10.50000  0.04567   4.05
N015  3  0.26303  0.50000  0.40105 10.50000  0.00179   3.89
C016  2  0.00000  0.59246  0.61439 10.50000  0.04510   3.87
C017  2  1.00000 -0.06193  0.21906 10.50000  0.00010   3.81
C018  2  0.87862  0.17186  0.70628 11.00000  0.02898   3.80
C019  2  1.00000  0.08560  0.47636 10.50000  0.01919   3.67
C01A  2  0.77963  0.26265  0.41931 11.00000  0.00387   3.58
C01B  2  0.61509  0.08962  0.68827 11.00000  0.03805   3.55
HKLF 4
END
