TITL temp01_expF_1_5_expS_1_3_temp01_a.res in Imm2
REM Old TITL 1 in I222
REM SHELXT solution in Imm2: R1 0.837, Rweak 0.429, Alpha 0.270
REM <I/s>   0.000 for    0 systematic absences,  Orientation as input
REM Flack x = -4.716 ( 0.521 ) from   197 Parsons' quotients
REM Formula found by SHELXT:  C42 N18 O36 Cl11

CELL  0.71073   9.4370  15.1530  30.5090   90.000   90.000   90.000
ZERR   53.000   0.0019   0.0030   0.0061    0.000    0.000    0.000
LATT -2
SYMM -X, -Y, Z
SYMM X, -Y, Z
SYMM -X, Y, Z
SFAC H C N O ZR CL
UNIT 0 0 0 0 0 0
L.S. 10
BOND
LIST 6
FMAP 2
PLAN 20
CL01  6  0.11954  0.50000  0.60267 10.50000  0.08752  18.20
CL02  6  0.00000  0.50000  0.62189 10.25000  0.09819  17.53
CL03  6  0.50000  0.50000  0.65079 10.25000  0.03599  16.56
CL04  6  0.00000  0.50000  0.75537 10.25000  0.11337  15.85
CL05  6  0.35741  0.50000  0.64377 10.50000  0.05337  15.76
CL06  6  0.00000  0.37289  0.56135 10.50000  0.07067  14.79
CL07  6  0.00000  0.21623  0.39743 10.50000  0.12961  13.57
O008  4  0.50000  0.50000  0.53181 10.25000  0.09962  12.49
O009  4  0.31484  0.38671  0.59063 11.00000  0.07760  11.90
O00A  4  0.50000  0.50000  0.48003 10.25000  0.06495  11.83
O00B  4  0.92531  0.57010  0.33495 11.00000  0.06052  11.70
O00C  4  0.09313  0.00000  0.30991 10.50000  0.08329  10.96
O00D  4  1.00000  0.50000  0.33366 10.25000  0.10963  10.18
N00E  3  0.55231  0.50000  0.30627 10.50000  0.01686   9.88
O00F  4  0.00000  0.39747  0.45409 10.50000  0.11487   9.42
N00G  3  0.50000  0.45997  0.30818 10.50000  0.02649   9.36
O00H  4  0.35632  0.46228  0.48825 11.00000  0.13249   8.76
O00I  4  0.40211  0.00000  0.41454 10.50000  0.07640   8.76
O00J  4  0.00000  0.23959  0.51007 10.50000  0.02274   8.27
O00K  4  0.70931  0.50000  0.30708 10.50000  0.00010   7.40
O00L  4  0.00000  0.00000  0.51134 10.25000  0.02926   7.37
O00M  4  0.50000  0.30555  0.24463 10.50000  0.05359   7.28
O00N  4 -0.17143  0.20378  0.48685 11.00000  0.08642   7.20
N00O  3  0.00000  0.00000  0.42268 10.25000  0.05562   7.13
N00P  3  0.50000  0.20337  0.67081 10.50000  0.05945   7.11
O00Q  4  0.08030  0.50000  0.69132 10.50000  0.06240   7.03
C00R  2  0.50000  0.00000  0.40926 10.25000  0.11249   6.91
N00S  3  0.50000  0.39518  0.53017 10.50000  0.04537   6.75
C00T  2  0.50000  0.24340  0.37776 10.50000  0.04863   6.34
C00U  2  0.50000  0.35209  0.59811 10.50000  0.00304   5.98
C00V  2  0.00000  0.29670  0.46674 10.50000  0.02074   5.74
N00W  3  0.41040  0.18425  0.39144 11.00000  0.04735   5.49
O00X  4  0.19229  0.00000  0.47495 10.50000  0.11343   5.16
C00Y  2  0.20637  0.50000  0.66226 10.50000  0.00925   5.10
C00Z  2  0.23358  0.00000  0.51452 10.50000  0.09310   4.93
N010  3  0.00000  0.19613  0.27680 10.50000  0.15273   4.72
C011  2  0.25454  0.39218  0.67900 11.00000  0.04223   4.55
C012  2  0.30070  0.05304  0.62100 11.00000  0.03138   3.95
C013  2  0.24073  0.11493  0.29561 11.00000  0.04327   3.82
C014  2  0.50000  0.27574  0.44337 10.50000  0.02623   3.81
N015  3  0.50000  0.26971  0.35785 10.50000  0.02118   3.65
N016  3  0.50000  0.00000  0.60469 10.25000  0.00010   3.46
C017  2  0.00000  0.00000  0.30900 10.25000  0.04462   3.43
C018  2  0.00000  0.10463  0.37740 10.50000  0.04820   3.41
C019  2  0.50000  0.42819  0.42612 11.00000  0.10766   3.36
C01A  2  0.22397  0.09788  0.40444 11.00000  0.00905   3.26
C01B  2  0.33890  0.28831  0.65394 11.00000  0.01046   3.21
C01C  2  0.38263  0.50000  0.53141 10.50000  0.07345   3.19
HKLF 4
END
