TITL temp01_expF_1_2_expS_0_8_temp01_a.res in Imm2
REM Old TITL 1 in I222
REM SHELXT solution in Imm2: R1 0.645, Rweak 0.084, Alpha 0.100
REM <I/s>   0.000 for    0 systematic absences,  Orientation as input
REM Flack x = -9.990 ( 2.169 ) from   479 Parsons' quotients
REM Formula found by SHELXT:  C43 N27 O25 Cl18

CELL  0.71073   9.4370  15.1530  30.5090   90.000   90.000   90.000
ZERR   53.000   0.0019   0.0030   0.0061    0.000    0.000    0.000
LATT -2
SYMM -X, -Y, Z
SYMM X, -Y, Z
SYMM -X, Y, Z
SFAC H C N O ZR CL
UNIT 0 0 0 0 0 0
L.S. 10
BOND
LIST 6
FMAP 2
PLAN 20
CL01  6  0.00000  0.00000  0.36063 10.25000  0.11885  19.80
CL02  6  0.58225  0.50000  0.51665 10.50000  0.11844  18.46
CL03  6  1.00000  0.50000  0.53890 10.25000  0.12913  18.31
CL04  6  0.12684  0.00000  0.36552 10.50000  0.05356  17.22
CL05  6  1.00000  0.33091  0.54198 10.50000  0.11372  15.86
CL06  6  0.50000  0.00000  0.25835 10.25000  0.09329  14.93
CL07  6  0.16252  0.00000  0.22137 10.50000  0.07309  14.59
CL08  6  0.81019  0.50000  0.60265 10.50000  0.08323  14.20
CL09  6  0.00000  0.00000  0.21689 10.25000  0.06768  14.14
CL0A  6  0.50000  0.34221  0.66092 10.50000  0.12704  13.22
CL0B  6  0.78561  0.50000  0.47996 10.50000  0.10601  12.84
N00C  3  1.00000  0.38986  0.42947 10.50000  0.00605  12.34
O00D  4  0.29063  0.00000  0.22174 10.50000  0.02152  12.29
O00E  4  0.62469  0.34120  0.66259 11.00000  0.03794  12.05
O00F  4  1.00000  0.50000  0.41480 10.25000  0.00692  10.37
N00G  3  0.80501  0.29914  0.58230 11.00000  0.06870  10.34
O00H  4  0.77671  0.30830  0.47124 11.00000  0.03188  10.28
O00I  4  0.50000  0.22665  0.71790 10.50000  0.08755  10.27
N00J  3  0.37178  0.00000  0.26931 10.50000  0.04623  10.10
N00K  3  0.50000  0.00000  0.31832 10.25000  0.00010   9.99
O00L  4  0.68719  0.00000  0.65609 10.50000  0.07513   8.96
O00M  4  0.62315  0.41573  0.49781 11.00000  0.06296   8.86
C00N  2  1.00000  0.26231  0.58865 11.00000  0.06261   8.14
O00O  4  0.63570  0.00000  0.78311 10.50000  0.01707   8.06
N00P  3  0.50000  0.39126  0.50317 10.50000  0.04090   7.93
O00Q  4  1.00000  0.39673  0.60291 10.50000  0.01919   7.36
N00R  3  0.37482  0.00000  0.31345 10.50000  0.03933   7.13
N00S  3  0.79482  0.41431  0.54254 11.00000  0.01599   6.69
N00T  3  0.65665  0.27254  0.58556 11.00000  0.05107   6.67
N00U  3  1.00000  0.30327  0.40243 10.50000  0.00010   6.67
O00V  4  0.50000  0.15716  0.37917 10.50000  0.08494   6.64
C00W  2  0.88264  0.40379  0.41884 11.00000  0.02215   6.49
C00X  2  0.50000  0.00000  0.37164 10.25000  0.05125   5.91
N00Y  3  1.00000  0.21281  0.59029 10.50000  0.01899   5.89
C00Z  2  0.50000  0.00000  0.73054 10.25000  0.03654   5.57
C010  2  0.56812  0.22140  0.42815 11.00000  0.08627   5.50
C011  2  0.66216  0.09967  0.69933 11.00000  0.00883   5.45
C012  2  0.50000  0.10242  0.67113 10.50000  0.05137   5.25
C013  2  0.50000  0.06263  0.40610 10.50000  0.02594   5.15
C014  2  0.50000  0.27391  0.44606 10.50000  0.01741   4.91
C015  2  1.00000  0.50000  0.65292 10.25000  0.01067   4.45
C016  2  0.70445  0.23023  0.64569 11.00000  0.03136   3.97
C017  2  0.50000  0.00000  0.57595 10.25000  0.01951   3.54
C018  2  1.00000  0.10818  0.56181 10.50000  0.12138   3.44
C019  2  0.81970  0.37491  0.42039 11.00000  0.06664   3.36
C01A  2  0.79957  0.35014  0.63226 11.00000  0.02298   3.34
C01B  2  0.50000  0.07501  0.48968 10.50000  0.03190   3.27
C01C  2  1.00000  0.00000  0.63550 10.25000  0.09703   3.26
N01D  3  1.00000  0.17390  0.76121 10.50000  0.05552   3.18
HKLF 4
END
