TITL temp01_expF_1_3_expS_0_6_temp01_a.res in Imm2
REM Old TITL 1 in I222
REM SHELXT solution in Imm2: R1 0.736, Rweak 0.007, Alpha 0.066
REM <I/s>   0.000 for    0 systematic absences,  Orientation as input
REM Flack x = -9.077 ( 0.992 ) from   643 Parsons' quotients
REM Formula found by SHELXT:  C43 N22 O32 Zr2

CELL  0.71073   9.4370  15.1530  30.5090   90.000   90.000   90.000
ZERR   53.000   0.0019   0.0030   0.0061    0.000    0.000    0.000
LATT -2
SYMM -X, -Y, Z
SYMM X, -Y, Z
SYMM -X, Y, Z
SFAC H C N O ZR
UNIT 0 0 0 0 0
L.S. 10
BOND
LIST 6
FMAP 2
PLAN 20
ZR01  5  0.18306  0.50000  0.51077 10.50000  0.08101  29.46
O002  4  0.06332  0.50000  0.51745 10.50000  0.00584  23.51
O003  4  0.32260  0.50000  0.51608 10.50000  0.07579  18.66
O004  4  0.50000  0.50000  0.43162 10.25000  0.07755  16.21
O005  4  0.34764  0.50000  0.40962 10.50000  0.04863  14.82
O006  4  0.00000  0.38549  0.44890 10.50000  0.08571  11.93
O007  4  0.50000  0.44341  0.42773 10.50000  0.08512  10.57
N008  3  0.64699  1.00000  0.66258 10.50000  0.02805  10.46
O009  4  0.38048  0.50000  0.64859 10.50000  0.11130  10.42
O00A  4  0.50000  0.50000  0.35782 10.25000  0.08401   9.93
O00B  4  0.50000  0.55285  0.54449 10.50000  0.04871   9.11
O00C  4 -0.50000  0.00000  0.39248 10.25000  0.06910   8.98
O00D  4  1.00000  1.05677  0.71223 10.50000  0.03144   8.30
O00E  4  0.50000  0.68654  0.58462 10.50000  0.09560   7.81
N00F  3  0.06347  0.33700  0.45485 11.00000  0.05026   7.80
O00G  4  0.00000  0.33442  0.56227 10.50000  0.09949   7.65
O00H  4  0.00000  0.19066  0.51812 10.50000  0.04475   7.59
O00I  4  0.26030  0.40127  0.47865 11.00000  0.04214   7.50
O00J  4  0.00000  0.00000  0.60352 10.25000  0.19732   7.37
O00K  4  0.50000  0.86885  0.59911 10.50000  0.04643   7.23
N00L  3 -0.10407  0.00000  0.27053 10.50000  0.06292   7.18
N00M  3  0.08843  0.50000  0.33134 10.50000  0.09622   6.79
N00N  3  0.00000  0.28979  0.72947 10.50000  0.01694   6.61
N00O  3  0.80823  1.08451  0.65479 11.00000  0.10108   6.52
C00P  2  0.28721  0.34314  0.41211 11.00000  0.04722   6.49
C00Q  2  0.50000  0.34675  0.34114 10.50000  0.09385   6.47
C00R  2  0.00000  0.50000  0.59035 10.25000  0.02026   6.43
C00S  2  0.00000  0.38024  0.32038 10.50000  0.03114   6.29
C00T  2  0.00000  0.41811  0.68159 10.50000  0.06039   6.11
C00U  2  0.50000  0.35225  0.45512 10.50000  0.08575   6.01
C00V  2  0.00000  0.50000  0.32158 10.25000  0.09926   5.88
N00W  3 -0.31965  0.00000  0.32806 10.50000  0.04158   5.54
C00X  2  0.73715  1.00000  0.67517 10.50000  0.02132   5.49
C00Y  2  0.00000  0.17158  0.48246 10.50000  0.04839   5.25
C00Z  2  0.00000  0.14280  0.57868 10.50000  0.02739   5.05
C010  2 -0.50000  0.13110  0.44526 10.50000  0.17702   4.96
C011  2  0.26387  0.50000  0.63366 10.50000  0.01396   4.56
C012  2  0.50000  0.77337  0.57534 10.50000  0.08900   4.45
C013  2  0.00000  0.50000  0.70933 10.25000  0.02806   4.10
C014  2  0.50000  0.92867  0.65797 10.50000  0.01959   3.98
C015  2  0.27706  0.28825  0.53740 11.00000  0.03705   3.89
C016  2  0.17284  0.20681  0.47643 11.00000  0.09098   3.77
N017  3  0.11749  0.33152  0.64568 11.00000  0.06035   3.58
C018  2  0.00000  0.15233  0.29264 10.50000  0.07969   3.43
C019  2  0.18949  0.25797  0.33681 11.00000  0.02413   3.08
HKLF 4
END
