TITL temp01_expF_1_2_expS_1_3_temp01_a.res in Imm2
REM Old TITL 1 in I222
REM SHELXT solution in Imm2: R1 0.683, Rweak 0.165, Alpha 0.093
REM <I/s>   0.000 for    0 systematic absences,  Orientation as input
REM Flack x = -2.483 ( 1.870 ) from   150 Parsons' quotients
REM Formula found by SHELXT:  C56 N11 O32 Cl14

CELL  0.71073   9.4370  15.1530  30.5090   90.000   90.000   90.000
ZERR   53.000   0.0019   0.0030   0.0061    0.000    0.000    0.000
LATT -2
SYMM -X, -Y, Z
SYMM X, -Y, Z
SYMM -X, Y, Z
SFAC H C N O ZR CL
UNIT 0 0 0 0 0 0
L.S. 10
BOND
LIST 6
FMAP 2
PLAN 20
CL01  6  1.00000  0.50000  0.61647 10.25000  0.06087  23.30
CL02  6  0.86526  0.50000  0.61140 10.50000  0.04323  21.48
CL03  6  0.63887  0.50000  0.65324 10.50000  0.01488  17.33
CL04  6  0.50000  0.50000  0.61733 10.25000  0.02368  16.06
O005  4  0.77290  0.50000  0.52477 10.50000  0.00010  15.99
CL06  6  1.00000  0.00000  0.42380 10.25000  0.03599  15.52
CL07  6  0.50000  0.16469  0.32805 10.50000  0.04664  15.45
C008  2  0.66799  0.50000  0.49005 10.50000  0.03900  13.94
CL09  6  0.61410  0.00000  0.44666 10.50000  0.11359  12.81
CL0A  6  0.50000  0.32448  0.59039 10.50000  0.06047  12.53
O00B  4  0.60643  0.17901  0.31861 11.00000  0.02222  12.46
CL0C  6  0.50000  0.50000  0.75038 10.25000  0.08957  12.10
O00D  4  0.50000  0.26471  0.26044 10.50000  0.05916  11.04
N00E  3  0.50000  0.00000  0.43246 10.25000  0.14881  10.14
O00F  4  0.50000  0.40555  0.55064 10.50000  0.04124   9.89
O00G  4  0.59082  0.36224  0.70941 11.00000  0.04646   9.84
O00H  4  1.00000  0.19362  0.40205 10.50000  0.01754   8.99
O00I  4  0.76981  0.50000  0.42212 10.50000  0.01299   8.84
O00J  4  1.00000  0.10218  0.37119 10.50000  0.03725   8.61
O00K  4  0.78212  0.00000  0.43990 10.50000  0.01570   8.44
O00L  4  0.75702  0.50000  0.76344 10.50000  0.08909   7.57
O00M  4  0.28339  0.30580  0.52991 11.00000  0.04198   7.31
C00N  2  1.00000  0.50000  0.76910 10.25000  0.00037   6.92
N00O  3  0.50000  0.44613  0.74033 10.50000  0.14358   6.86
N00P  3  0.00000  0.44819  0.27300 10.50000  0.14935   6.72
C00Q  2  1.00000  0.50000  0.43771 10.25000  0.01734   6.62
C00R  2  0.50000  0.50000  0.27795 10.25000  0.00010   6.24
C00S  2  0.94186  0.08287  0.45079 11.00000  0.03397   5.92
C00T  2  1.00000  0.18330  0.58596 10.50000  0.00010   5.89
C00U  2  0.80344  0.41119  0.59717 11.00000  0.06250   5.37
C00V  2  1.00000  0.35320  0.60094 10.50000  0.00010   5.21
C00W  2  0.50000  0.24532  0.48499 10.50000  0.02803   4.81
C00X  2  0.19275  0.50000  0.23090 10.50000  0.00010   4.71
C00Y  2  1.00000  0.00000  0.48991 10.25000  0.09664   4.53
N00Z  3  0.50000  0.44235  0.28022 10.50000  0.02591   4.43
C010  2  0.89143  0.50000  0.76691 10.50000  0.00800   4.05
O011  4  0.78165  0.18186  0.36086 11.00000  0.04397   3.99
C012  2  0.88375  0.09950  0.60034 11.00000  0.03015   3.97
C013  2  1.00000  0.35053  0.48512 10.50000  0.04003   3.92
C014  2  0.60033  0.44764  0.64451 11.00000  0.01259   3.87
C015  2  0.78108  0.20382  0.32586 11.00000  0.00010   3.85
C016  2  1.00000  0.50000  0.53321 10.25000  0.00010   3.81
N017  3  1.00000  0.41157  0.41008 10.50000  0.00010   3.80
C018  2  1.09121  0.58442  0.68024 11.00000  0.02503   3.66
C019  2  1.00000  0.11317  0.44535 10.50000  0.05044   3.65
C01A  2  0.50000  0.17576  0.53063 10.50000  0.05104   3.61
C01B  2  0.50000  0.00000  0.52204 10.25000  0.03167   3.54
C01C  2  0.75871  0.29054  0.42050 11.00000  0.00433   3.30
C01D  2  1.00000  0.25299  0.65122 10.50000  0.01695   3.29
C01E  2  0.50000  0.26075  0.74666 10.50000  0.00010   3.28
N01F  3  0.50000  0.24450  0.40584 10.50000  0.03482   3.13
HKLF 4
END
