TITL temp01_expF_1_1_expS_0_9_temp01_a.res in Imm2
REM Old TITL 1 in I222
REM SHELXT solution in Imm2: R1 0.670, Rweak 0.133, Alpha 0.243
REM <I/s>   0.000 for    0 systematic absences,  Orientation as input
REM Flack x = -9.990 ( 9.990 ) from   448 Parsons' quotients
REM Formula found by SHELXT:  C36 N25 O5

CELL  0.71073   9.4370  15.1530  30.5090   90.000   90.000   90.000
ZERR   53.000   0.0019   0.0030   0.0061    0.000    0.000    0.000
LATT -2
SYMM -X, -Y, Z
SYMM X, -Y, Z
SYMM -X, Y, Z
SFAC H C N O ZR
UNIT 0 0 0 0 0
L.S. 10
BOND
LIST 6
FMAP 2
PLAN 20
O001  4  0.86101  0.50000  0.62172 10.50000  0.00010  10.52
O002  4  0.64065  0.50000  0.56545 10.50000  0.03115   9.93
C003  2  0.50000  0.50000  0.59073 10.25000  0.01114   9.82
N004  3  1.00000  0.50000  0.62537 10.25000  0.02010   8.48
O005  4  0.50000  0.50000  0.47754 10.25000  0.02320   7.21
C006  2  1.00000  0.33074  0.67780 10.50000  0.02463   7.15
N007  3  0.14489  0.50000  0.46267 10.50000  0.04330   6.99
C008  2  1.50000  0.60740  0.71325 10.50000  0.01997   6.35
C009  2  0.31925  0.50000  0.39963 10.50000  0.00691   6.06
C00A  2  0.50000  0.00000  0.52649 10.25000  0.00010   5.91
N00B  3 -0.18854  0.50000  0.29092 10.50000  0.04345   5.85
C00C  2  0.00000  0.50000  0.44996 10.25000  0.02189   5.81
N00D  3  0.18122  0.50000  0.40235 10.50000  0.01780   5.71
C00E  2  0.00000  0.34233  0.34125 10.50000  0.00474   5.66
C00F  2  1.00000  0.50000  0.67540 10.25000  0.00010   4.84
N00G  3  1.50000  0.50000  0.76767 10.25000  0.01451   4.77
C00H  2  0.50000  0.27379  0.33752 10.50000  0.04295   4.51
N00I  3  0.88617  0.35159  0.67402 11.00000  0.02642   4.50
C00J  2  0.68274  0.40767  0.64264 11.00000  0.01781   4.45
C00K  2  0.00000  0.50000  0.36871 10.25000  0.01054   4.27
C00L  2  1.37999  0.50000  0.75130 10.50000  0.00086   4.22
C00M  2  0.50000  0.50000  0.37563 10.25000  0.10003   4.22
N00N  3  0.50000  0.00000  0.39512 10.25000  0.08711   3.76
N00O  3  0.00000  0.34688  0.23233 10.50000  0.03096   3.76
N00P  3  0.50000  0.37673  0.45053 10.50000  0.05200   3.74
N00Q  3  0.41598  0.27868  0.33886 11.00000  0.00930   3.71
C00R  2  0.60949  0.10956  0.53692 11.00000  0.00729   3.58
N00S  3  0.25288  0.31876  0.41159 11.00000  0.03227   3.53
C00T  2  0.50000  0.07696  0.30730 10.50000  0.00010   3.38
C00U  2  0.40365  0.32996  0.34416 11.00000  0.01864   3.21
C00V  2  1.20266  0.50000  0.71566 10.50000  0.02859   3.10
C00W  2  0.00000  0.21483  0.30272 10.50000  0.04575   3.01
HKLF 4
END
