TITL temp01_expF_1_4_expS_0_7_temp01_a.res in Imm2
REM Old TITL 1 in I222
REM SHELXT solution in Imm2: R1 0.694, Rweak 0.340, Alpha 0.186
REM <I/s>   0.000 for    0 systematic absences,  Orientation as input
REM Flack x = -7.701 ( 1.810 ) from   546 Parsons' quotients
REM Formula found by SHELXT:  C53 N11 O20 Cl12

CELL  0.71073   9.4370  15.1530  30.5090   90.000   90.000   90.000
ZERR   53.000   0.0019   0.0030   0.0061    0.000    0.000    0.000
LATT -2
SYMM -X, -Y, Z
SYMM X, -Y, Z
SYMM -X, Y, Z
SFAC H C N O ZR CL
UNIT 0 0 0 0 0 0
L.S. 10
BOND
LIST 6
FMAP 2
PLAN 20
CL01  6  0.94521  0.00000  0.38048 10.50000  0.08969  23.68
CL02  6  0.81534  0.00000  0.38244 10.50000  0.10965  18.37
CL03  6  1.00000  0.50000  0.65491 10.25000  0.12327  17.96
CL04  6  0.50000  0.50000  0.53037 10.25000  0.10438  16.54
CL05  6  0.50000  0.00000  0.26458 10.25000  0.09134  13.63
CL06  6  0.50000  0.00000  0.45707 10.25000  0.16566  13.12
CL07  6  0.73945  0.50000  0.56961 10.50000  0.16411  11.93
O008  4  1.00000  0.28717  0.62851 10.50000  0.16917  11.78
CL09  6  0.55996  0.00000  0.34011 10.50000  0.11661  10.85
O00A  4  0.50000  0.15659  0.46537 10.50000  0.08578  10.14
O00B  4  0.29933  0.00000  0.52884 10.50000  0.12135   9.74
O00C  4  0.81223  0.30321  0.58326 11.00000  0.09850   9.48
O00D  4  0.77571  0.50000  0.68287 10.50000  0.13182   8.94
O00E  4  0.93464  0.18240  0.43927 11.00000  0.12738   7.53
C00F  2  0.69895  0.30871  0.58614 11.00000  0.06086   7.47
O00G  4  0.79887  0.68876  0.70642 11.00000  0.11764   7.32
N00H  3  0.50000  0.33830  0.50170 10.50000  0.12265   6.61
C00I  2  0.50000  0.50000  0.71637 10.25000  0.03475   6.48
C00J  2  1.00000  0.39740  0.56656 10.50000  0.05639   6.48
C00K  2  0.50000  0.39733  0.30666 10.50000  0.04040   5.98
C00L  2  0.50000  0.18726  0.28886 10.50000  0.01694   5.90
C00M  2  0.58788  0.50000  0.66076 10.50000  0.02492   5.40
C00N  2  0.67589  0.09562  0.45666 11.00000  0.05630   5.28
C00O  2  0.61359  0.61074  0.73542 11.00000  0.04807   5.09
N00P  3  1.00000  0.50000  0.42135 10.25000  0.08689   4.94
C00Q  2  1.00000  0.50000  0.50662 10.25000  0.11885   4.69
C00R  2  0.50000  1.00000  0.66464 10.25000  0.05128   4.48
C00S  2  0.50000  0.09619  0.51270 10.50000  0.08881   4.42
C00T  2  0.84021  0.39336  0.63743 11.00000  0.03965   4.39
C00U  2  0.70604  0.42050  0.53994 11.00000  0.06503   4.39
N00V  3  0.61119  1.00000  0.66845 10.50000  0.04637   4.30
N00W  3  0.61207  0.28904  0.31067 11.00000  0.10828   4.18
C00X  2  0.67715  0.20074  0.52752 11.00000  0.08304   4.14
C00Y  2  0.50000  0.69513  0.64360 10.50000  0.13369   4.14
C00Z  2  0.59710  0.78624  0.70452 11.00000  0.11149   4.13
C010  2  0.50000  0.76754  0.71995 10.50000  0.05492   4.02
C011  2  0.55337  0.24116  0.31059 11.00000  0.07318   3.99
N012  3  1.00000  0.10054  0.63639 10.50000  0.11438   3.94
C013  2  0.60946  0.50000  0.31009 10.50000  0.05347   3.49
C014  2  0.13920  0.00000  0.49170 10.50000  0.05006   3.16
HKLF 4
END
