TITL temp01_expF_1_2_expS_0_5_temp01_a.res in Imm2
REM Old TITL 1 in I222
REM SHELXT solution in Imm2: R1 0.924, Rweak 0.377, Alpha 0.149
REM <I/s>   0.000 for    0 systematic absences,  Orientation as input
REM Flack x = -1.319 ( 0.570 ) from   674 Parsons' quotients
REM Formula found by SHELXT:  C52 N15 O37 Zr4

CELL  0.71073   9.4370  15.1530  30.5090   90.000   90.000   90.000
ZERR   53.000   0.0019   0.0030   0.0061    0.000    0.000    0.000
LATT -2
SYMM -X, -Y, Z
SYMM X, -Y, Z
SYMM -X, Y, Z
SFAC H C N O ZR
UNIT 0 0 0 0 0
L.S. 10
BOND
LIST 6
FMAP 2
PLAN 20
ZR01  5  0.20509  0.00000  0.41911 10.50000  0.12412  28.82
ZR02  5  0.06503  0.00000  0.41385 10.50000  0.05829  27.74
O003  4  0.78770  1.00000  0.72557 10.50000  0.06990  19.71
O004  4  0.50000  1.00000  0.65654 10.25000  0.14604  16.17
O005  4  0.50000  0.50000  0.41894 10.25000  0.18230  15.65
O006  4  0.50000  0.31149  0.32651 10.50000  0.03244  15.36
O007  4  0.50000  1.00000  0.69953 10.25000  0.13319  15.36
O008  4  0.00000 -0.21510  0.40715 10.50000  0.13773  13.37
O009  4  1.00000  1.00000  0.63436 10.25000  0.00829  11.90
C00A  2  0.44973  1.00000  0.63657 10.50000  0.01042  11.52
N00B  3  0.50000  1.00000  0.68878 10.25000  0.16353   9.87
O00C  4  0.50000  0.79806  0.72046 10.50000  0.00010   9.84
O00D  4  1.00000  0.96903  0.55931 10.50000  0.00010   9.55
O00E  4  0.50000  0.29896  0.48297 10.50000  0.01907   9.07
O00F  4  0.24179  0.50000  0.35899 10.50000  0.00517   8.74
O00G  4  0.50000  0.50000  0.52341 10.25000  0.01689   8.38
O00H  4  0.50000  0.17745  0.30395 10.50000  0.09144   7.86
O00I  4  0.68781  0.50000  0.57296 10.50000  0.06086   7.46
O00J  4  0.79365  0.24936  0.54731 11.00000  0.04149   7.36
N00K  3  0.50000  0.00000  0.41397 10.25000  0.16359   7.26
N00L  3  0.25728  0.00000  0.37654 10.50000  0.00010   7.16
N00M  3  0.50000  0.87457  0.66646 10.50000  0.08725   7.15
N00N  3  1.00000  0.80826  0.68239 10.50000  0.10571   6.85
N00O  3  0.06390  0.00000  0.45761 10.50000  0.26129   6.81
O00P  4  0.93167  1.00000  0.64506 10.50000  0.17041   6.63
C00Q  2  0.50000  0.50000  0.55209 10.50000  0.03299   6.05
C00R  2  0.50000  0.15186  0.42018 10.50000  0.16740   5.82
C00S  2  0.50000  0.00000  0.32909 10.50000  0.09272   5.76
C00T  2  0.31007  0.91226  0.57999 11.00000  0.04074   5.67
N00U  3  1.00000  0.35719  0.56147 10.50000  0.01193   5.65
O00V  4  0.76629  0.80560  0.75508 11.00000  0.00289   5.51
O00W  4  0.83322  1.00000  0.68144 11.00000  0.02973   5.46
C00X  2  0.50000  0.00000  0.45584 10.50000  0.20639   4.86
C00Y  2  0.50000  0.85501  0.65680 11.00000  0.10840   4.59
C00Z  2  0.50000  0.68903  0.65342 10.50000  0.00010   4.00
C010  2  0.64851  0.40365  0.53243 11.00000  0.07173   3.98
C011  2  1.00000  0.50000  0.63488 10.25000  0.14531   3.90
C012  2  0.62602  0.58918  0.60906 11.00000  0.14200   3.68
C013  2  0.42650  0.09810  0.34813 11.00000  0.20490   3.67
C014  2  0.00000  0.00000  0.24491 10.50000  0.19109   3.61
C015  2  1.00000  1.00000  0.68069 10.50000  0.14676   3.59
N016  3  1.00000  0.50000  0.58371 10.25000  0.15559   3.56
C017  2  0.50000  0.50000  0.63613 10.25000  0.18505   3.52
N018  3  0.00000 -0.07548  0.33253 10.50000  0.17954   3.46
C019  2  0.00000 -0.11812  0.42517 11.00000  0.04632   3.45
C01A  2  0.76866  0.90402  0.74714 11.00000  0.00352   3.38
C01B  2  0.83479  0.84455  0.68985 11.00000  0.00224   3.31
C01C  2  0.28845  0.00000  0.44515 10.50000  0.00735   3.25
HKLF 4
END
