TITL temp01_expF_1_2_expS_1_2_temp01_a.res in Imm2
REM Old TITL 1 in I222
REM SHELXT solution in Imm2: R1 0.676, Rweak 0.763, Alpha 0.140
REM <I/s>   0.000 for    0 systematic absences,  Orientation as input
REM Flack x = -0.469 ( 0.530 ) from   290 Parsons' quotients
REM Formula found by SHELXT:  C54 N21 O28 Zr3

CELL  0.71073   9.4370  15.1530  30.5090   90.000   90.000   90.000
ZERR   53.000   0.0019   0.0030   0.0061    0.000    0.000    0.000
LATT -2
SYMM -X, -Y, Z
SYMM X, -Y, Z
SYMM -X, Y, Z
SFAC H C N O ZR
UNIT 0 0 0 0 0
L.S. 10
BOND
LIST 6
FMAP 2
PLAN 20
ZR01  5  1.00000  1.00000  0.66931 10.25000  0.00010  32.57
ZR02  5  0.86172  1.00000  0.66009 10.50000  0.12170  30.36
O003  4  0.50000  1.00000  0.55460 10.25000  0.00010  16.98
N004  3  0.50000  1.00000  0.70256 10.25000  0.00097  16.86
O005  4  0.65919  1.00000  0.58383 10.50000  0.05515  14.34
O006  4  0.00000  0.50000  0.40688 10.25000  0.20354  11.38
O007  4  1.00000  0.74977  0.56263 10.50000  0.10501  11.17
O008  4  0.69814  0.86875  0.54670 11.00000  0.04402  11.14
O009  4  1.00000  1.04197  0.52855 10.50000  0.02967  10.49
O00A  4  0.12499  0.50000  0.40328 10.50000  0.03218   9.99
C00B  2  0.50000  0.50000  0.44778 10.25000  0.05629   8.70
N00C  3  0.77763  1.00000  0.32031 10.50000  0.01744   8.56
O00D  4  0.50000  0.83248  0.54806 10.50000  0.10317   8.46
O00E  4  0.50000  0.59992  0.38038 10.50000  0.03945   8.22
O00F  4  0.50000  1.18054  0.67660 10.50000  0.05174   8.07
O00G  4  0.50000  1.16307  0.76199 10.50000  0.09866   7.95
O00H  4  0.50000  0.94565  0.57534 10.50000  0.04889   7.57
O00I  4  1.18375  1.00000  0.77057 10.50000  0.02831   7.56
N00J  3  0.50000  1.00000  0.76450 10.25000  0.00010   6.89
N00K  3  0.50000  1.00000  0.44532 10.25000  0.01258   6.65
N00L  3  0.35883  0.50000  0.41554 10.50000  0.05332   6.63
N00M  3  0.00000  0.17080  0.42891 10.50000  0.03234   6.55
C00N  2  0.17053  0.31562  0.43130 11.00000  0.05648   6.29
C00O  2  0.50000  0.47876  0.51052 10.50000  0.02303   6.18
C00P  2  0.31467  0.50000  0.39476 10.50000  0.11426   6.11
C00Q  2  0.78105  1.00000  0.47506 10.50000  0.02771   5.90
C00R  2  0.67007  0.94463  0.64155 11.00000  0.00779   5.63
N00S  3  0.00000  0.50000  0.39307 10.25000  0.11765   5.45
C00T  2  0.50000  0.75158  0.53270 10.50000  0.02055   5.35
C00U  2  0.68986  0.50000  0.55717 10.50000  0.03391   5.27
C00V  2  0.50000  1.00000  0.25365 10.50000  0.08955   4.74
C00W  2  1.00000  1.00000  0.31365 10.25000  0.00021   4.11
O00X  4  0.50000  0.90102  0.21630 10.50000  0.10371   4.09
C00Y  2  0.50000  0.85603  0.15615 10.50000  0.01201   4.06
C00Z  2  0.90050  1.02478  0.29313 11.00000  0.02284   3.98
N010  3  1.17855  1.14511  0.72416 11.00000  0.04340   3.96
C011  2  1.21820  1.16245  0.70749 11.00000  0.05315   3.95
C012  2  0.70703  0.82856  0.58364 11.00000  0.04600   3.87
C013  2  1.00000  1.04813  0.76749 10.50000  0.03439   3.74
N014  3  0.50000  0.50000  0.56965 10.50000  0.14588   3.68
C015  2  0.50000  0.81681  0.24218 10.50000  0.02879   3.64
C016  2  0.29597  0.42485  0.43505 11.00000  0.03856   3.64
N017  3  0.50000  1.19333  0.84385 10.50000  0.07219   3.35
N018  3  1.00000  1.00000  0.75666 10.25000  0.00795   3.19
C019  2  0.50000  0.80721  0.42193 11.00000  0.10263   3.16
N01A  3  0.50000  0.88449  0.32622 10.50000  0.08577   3.16
C01B  2  0.78566  0.67286  0.55366 11.00000  0.01857   3.03
C01C  2  0.50000  1.27497  0.72866 10.50000  0.02860   3.00
HKLF 4
END
