TITL temp01_expF_0_9_expS_1_0_temp01_a.res in Imm2
REM Old TITL 1 in I222
REM SHELXT solution in Imm2: R1 0.583, Rweak 0.045, Alpha 0.201
REM <I/s>   0.000 for    0 systematic absences,  Orientation as input
REM Flack x = -1.741 ( 0.387 ) from   250 Parsons' quotients
REM Formula found by SHELXT:  C119 N38 O42 Zr9

CELL  0.71073   9.4370  15.1530  30.5090   90.000   90.000   90.000
ZERR   53.000   0.0019   0.0030   0.0061    0.000    0.000    0.000
LATT -2
SYMM -X, -Y, Z
SYMM X, -Y, Z
SYMM -X, Y, Z
SFAC H C N O ZR
UNIT 0 0 0 0 0
L.S. 10
BOND
LIST 6
FMAP 2
PLAN 20
ZR01  5  0.50000  1.00000  0.76966 10.25000  0.06467  55.79
ZR02  5  0.37978  1.00000  0.76663 10.50000  0.04677  49.90
ZR03  5  0.81631  1.00000  0.72696 10.50000  0.05748  26.96
ZR04  5  0.35222  0.50000  0.35134 10.50000  0.06799  26.60
ZR05  5  1.00000  1.00000  0.77464 10.25000  0.05894  26.20
ZR06  5  1.00000  1.00000  0.65912 10.25000  0.05924  25.34
O007  4  0.50000  0.59376  0.35266 10.50000  0.03943  22.64
N008  3  0.50000  0.86223  0.57055 10.50000  0.08236  19.42
N009  3  0.37797  1.00000  0.42438 10.50000  0.00275  19.41
O00A  4  0.50000  0.73329  0.60825 10.50000  0.00010  17.97
O00B  4 -0.19677  0.15397  0.71688 11.00000  0.03484  16.19
O00C  4  0.50000  0.68002  0.30216 10.50000  0.00550  15.42
O00D  4  0.29453  0.58230  0.29483 11.00000  0.03023  15.29
O00E  4  0.00000  0.36081  0.64535 10.50000  0.00815  14.45
O00F  4  0.23878  0.50000  0.36473 10.50000  0.05210  13.96
O00G  4  0.28429  0.50000  0.53949 10.50000  0.00010  13.17
O00H  4  0.28749  0.65381  0.33600 11.00000  0.00010  12.32
N00I  3  0.50000  1.00000  0.45188 10.25000  0.00010  11.62
O00J  4  0.11681  0.50000  0.48325 10.50000  0.00010  11.48
O00K  4  0.00000  0.19600  0.62730 10.50000  0.00209  10.81
N00L  3  0.50000  0.50000  0.47030 10.25000  0.00010  10.74
O00M  4  0.00000  0.50000  0.47503 10.25000  0.00317  10.51
O00N  4  0.00000  0.84865  0.44493 10.50000  0.04751  10.48
O00O  4  0.50000  0.50000  0.40297 10.25000  0.01354  10.08
N00P  3  0.18257  0.50000  0.64861 10.50000  0.00010  10.02
N00Q  3  0.32681  0.50000  0.67044 10.50000  0.00010   9.98
N00R  3  0.00000  0.94912  0.46544 10.50000  0.00040   9.68
C00S  2  0.50000  0.62857  0.33538 10.50000  0.00610   9.58
O00T  4  0.66940  1.00000  0.61866 10.50000  0.00010   9.47
N00U  3  0.66673  0.91708  0.36992 11.00000  0.05065   9.39
N00V  3  0.28784  1.00000  0.46650 10.50000  0.03676   9.04
O00W  4  0.13944  0.50000  0.41095 10.50000  0.00596   8.93
O00X  4  0.41552  0.92314  0.56218 11.00000  0.00010   8.86
N00Y  3  0.50000  0.79139  0.35480 10.50000  0.02408   8.75
O00Z  4  0.00000  0.61955  0.44182 10.50000  0.02578   8.02
N010  3 -0.39861  1.00000  0.31447 10.50000  0.03341   7.81
N011  3  0.50000  0.59887  0.61132 10.50000  0.00427   7.31
N012  3  0.00000  0.17558  0.71051 10.50000  0.00892   7.18
N013  3  0.00000  1.00000  0.25281 10.25000  0.11864   7.10
N014  3  0.00000  0.47154  0.57760 10.50000  0.00010   6.89
C015  2  0.58457  0.87245  0.38371 11.00000  0.01659   6.88
N016  3  0.50000  0.50000  0.60640 10.25000  0.12279   6.71
N017  3  0.09026  0.43094  0.66754 11.00000  0.02133   6.58
C018  2  0.50000  0.30974  0.70745 10.50000  0.00010   6.48
C019  2  0.22542  0.50000  0.59748 10.50000  0.00387   6.38
C01A  2 -0.11822  0.18554  0.53364 11.00000  0.02123   5.83
C01B  2  0.38234  0.59439  0.60205 11.00000  0.00010   5.59
C01C  2  0.00000  0.84719  0.30032 10.50000  0.00588   5.45
C01D  2  0.10703  0.95653  0.43830 11.00000  0.02440   5.41
C01E  2  0.17549  0.50000  0.44696 10.50000  0.00010   5.37
C01F  2  0.00000  0.66427  0.39652 10.50000  0.00010   5.31
N01G  3  0.22622  0.50000  0.44410 10.50000  0.00010   5.15
C01H  2  0.00000  1.00000  0.25435 10.50000  0.00010   5.11
C01I  2  0.50000  0.89638  0.73004 11.00000  0.05204   5.09
C01J  2 -0.50000  1.00000  0.33358 10.50000  0.03211   5.04
C01K  2 -0.20824  0.17057  0.61011 11.00000  0.00010   5.03
C01L  2  0.00000  0.28569  0.56517 10.50000  0.00010   4.87
C01M  2  0.00000  0.79401  0.34150 10.50000  0.00010   4.81
C01N  2  0.17772  0.38253  0.57965 11.00000  0.00136   4.71
C01O  2  0.31870  1.00000  0.51696 10.50000  0.00010   4.45
C01P  2  0.50000  0.50000  0.43682 10.25000  0.00010   4.42
C01Q  2  0.50000  0.86592  0.71429 10.50000  0.00010   4.42
C01R  2 -0.15887  0.93062  0.29513 11.00000  0.02358   4.41
C01S  2  0.00000  0.57866  0.37156 10.50000  0.00010   4.35
C01T  2  0.37399  0.59537  0.51413 11.00000  0.02849   4.31
C01U  2  0.30673  0.37752  0.72219 11.00000  0.00010   4.12
C01V  2  0.50000  0.84923  0.64284 10.50000  0.00010   4.09
C01W  2  0.22925  0.36925  0.67488 11.00000  0.04053   4.03
N01X  3  0.50000  0.93233  0.59610 10.50000  0.00557   4.01
C01Y  2  0.00000  0.95102  0.22536 10.50000  0.00075   3.98
C01Z  2  0.60000  0.79078  0.32577 11.00000  0.00473   3.93
C020  2  0.65568  1.00000  0.67968 10.50000  0.00375   3.89
C021  2  0.00000  0.25247  0.69721 10.50000  0.02355   3.83
C022  2 -0.26419  1.00000  0.26414 10.50000  0.00010   3.80
C023  2  0.20883  0.27355  0.69062 11.00000  0.03326   3.75
C024  2  0.50000  1.00000  0.59082 10.25000  0.00010   3.69
C025  2  0.50000  0.60267  0.49936 10.50000  0.04030   3.68
C026  2  0.50000  0.61826  0.41091 10.50000  0.02752   3.57
C027  2  0.22505  0.60589  0.38618 11.00000  0.00010   3.56
C028  2  0.07673  0.27178  0.72729 11.00000  0.04205   3.54
C029  2  0.06285  0.61715  0.34594 11.00000  0.00010   3.44
C02A  2  0.00000  0.50000  0.71849 10.25000  0.00010   3.39
C02B  2  0.15377  0.95353  0.56795 11.00000  0.02878   3.39
C02C  2  0.00000  0.84598  0.40072 10.50000  0.04842   3.24
C02D  2  0.50000  0.54131  0.53843 10.50000  0.00522   3.23
C02E  2  0.50000  0.91984  0.68906 10.50000  0.00267   3.10
C02F  2  0.00000  0.92778  0.30281 10.50000  0.00306   3.04
HKLF 4
END
