TITL temp01_expF_1_3_expS_0_5_temp01_a.res in Imm2
REM Old TITL 1 in I222
REM SHELXT solution in Imm2: R1 0.719, Rweak 0.105, Alpha 0.030
REM <I/s>   0.000 for    0 systematic absences,  Orientation as input
REM Flack x = -9.674 ( 0.562 ) from   667 Parsons' quotients
REM Formula found by SHELXT:  C50 N16 O41 Zr5

CELL  0.71073   9.4370  15.1530  30.5090   90.000   90.000   90.000
ZERR   53.000   0.0019   0.0030   0.0061    0.000    0.000    0.000
LATT -2
SYMM -X, -Y, Z
SYMM X, -Y, Z
SYMM -X, Y, Z
SFAC H C N O ZR
UNIT 0 0 0 0 0
L.S. 10
BOND
LIST 6
FMAP 2
PLAN 20
ZR01  5  0.93618  0.50000  0.61771 10.50000  0.06644  29.92
ZR02  5  0.83104  0.50000  0.61263 10.50000  0.09290  29.42
ZR03  5  0.50000  0.50000  0.65316 10.25000  0.22188  24.31
O004  4  1.00000  0.50000  0.18793 10.25000  0.05646  21.10
O005  4  0.71780  0.50000  0.29987 10.50000  0.05488  18.12
O006  4  1.00000  0.61169  0.75052 10.50000  0.25265  14.98
O007  4  1.00000  0.34883  0.33262 10.50000  0.07943  12.58
O008  4  1.00000  0.50000  0.34661 10.25000  0.09364  12.40
O009  4  0.50000  0.50000  0.33533 10.50000  0.12002  12.14
O00A  4  1.00000  0.23419  0.28454 10.50000  0.09174  12.06
O00B  4  0.69517  0.50000  0.35943 10.50000  0.06740  12.03
O00C  4  0.50000  0.24124  0.33628 10.50000  0.05278  10.80
N00D  3  0.79237  0.50000  0.48718 10.50000  0.05395  10.55
O00E  4  0.50000  0.50000  0.29694 10.25000  0.12668  10.33
O00F  4  1.00000  0.39297  0.45299 10.50000  0.01552   9.67
O00G  4  0.50000  0.15417  0.44395 10.50000  0.03975   9.40
O00H  4  0.50000  0.50000  0.39654 10.25000  0.02103   9.02
C00I  2  0.86562  0.34789  0.31136 11.00000  0.02135   8.74
O00J  4  0.39089  0.29909  0.27184 11.00000  0.06694   8.49
O00K  4  0.39610  0.00000  0.45661 10.50000  0.13872   8.32
O00L  4  0.50000  0.50000  0.71362 10.50000  0.04350   8.16
O00M  4  0.66237  0.00000  0.57508 10.50000  0.28281   8.15
O00N  4  1.00000  0.50000  0.80139 10.25000  0.19142   7.84
O00O  4  0.81252  0.44898  0.37927 11.00000  0.03850   7.14
N00P  3  0.83540  0.29521  0.17794 11.00000  0.09957   7.09
N00Q  3  1.00000  0.50000  0.55850 10.50000  0.06667   6.82
N00R  3  1.00000  0.50000  0.50423 10.50000  0.17901   6.68
N00S  3  0.72152  0.50000  0.42472 10.50000  0.00683   6.67
C00T  2  0.50000  0.19784  0.33067 10.50000  0.12039   5.55
N00U  3  0.50000  0.13973  0.35608 10.50000  0.08010   5.35
C00V  2  0.50000  0.43383  0.57213 10.50000  0.07443   5.26
N00W  3  1.00000  0.58412  0.68351 10.50000  0.04377   5.18
C00X  2  1.00000  0.77824  0.66623 10.50000  0.11769   5.13
C00Y  2  0.86877  0.25552  0.22947 11.00000  0.02339   5.09
C00Z  2  0.50000  0.28297  0.28590 10.50000  0.10488   5.03
C010  2  1.00000  0.10188  0.56301 10.50000  0.12058   5.02
C011  2  1.00000  0.00000  0.63285 10.50000  0.16380   5.01
C012  2  0.79349  0.14534  0.54820 11.00000  0.05287   4.96
C013  2  0.92832  0.19477  0.19750 11.00000  0.10795   4.94
C014  2  0.70506  0.21190  0.31999 11.00000  0.15668   4.11
C015  2  1.00000  0.33509  0.55018 11.00000  0.06609   4.11
C016  2  0.50000  0.50000  0.72508 10.25000  0.13081   3.93
C017  2  0.73673  0.50000  0.60529 10.50000  0.00997   3.91
C018  2  0.70538  0.30963  0.47709 11.00000  0.04812   3.88
C019  2  1.00000  0.28494  0.34096 10.50000  0.04567   3.82
C01A  2  0.50000  0.50000  0.82206 10.50000  0.00010   3.75
C01B  2  1.00000  0.16474  0.39216 10.50000  0.03462   3.68
O01C  4  0.83797  0.39530  0.41160 11.00000  0.03665   3.67
C01D  2  1.00000  0.00000  0.55599 10.25000  0.14770   3.58
HKLF 4
END
