TITL temp01_expF_1_4_expS_1_4_temp01_a.res in Imm2
REM Old TITL 1 in I222
REM SHELXT solution in Imm2: R1 0.789, Rweak 0.183, Alpha 0.023
REM <I/s>   0.000 for    0 systematic absences,  Orientation as input
REM Flack x = -9.990 ( 0.697 ) from    68 Parsons' quotients
REM Formula found by SHELXT:  C43 N7 O28 Cl28

CELL  0.71073   9.4370  15.1530  30.5090   90.000   90.000   90.000
ZERR   53.000   0.0019   0.0030   0.0061    0.000    0.000    0.000
LATT -2
SYMM -X, -Y, Z
SYMM X, -Y, Z
SYMM -X, Y, Z
SFAC H C N O ZR CL
UNIT 0 0 0 0 0 0
L.S. 10
BOND
LIST 6
FMAP 2
PLAN 20
CL01  6  0.87251  0.50000  0.41218 10.50000  0.11709  17.71
CL02  6  0.00000  0.00000  0.22699 10.25000  0.11048  17.62
CL03  6  0.67931  0.50000  0.34264 10.50000  0.13306  17.59
CL04  6  0.50000  0.50000  0.53636 10.25000  0.09445  16.89
CL05  6  1.00000  0.64622  0.63993 10.50000  0.03010  16.88
CL06  6  1.00000  0.50000  0.40980 10.25000  0.05136  14.93
CL07  6  0.89102  0.66241  0.64227 11.00000  0.05666  14.79
CL08  6  0.50000  0.50000  0.42743 10.25000  0.02925  14.36
CL09  6  0.11180  0.00000  0.21759 10.50000  0.08063  14.16
CL0A  6  0.72657  0.50000  0.46972 10.50000  0.06529  13.75
CL0B  6  0.82239  0.00000  0.53470 10.50000  0.03870  12.89
O00C  4  0.67283  0.00000  0.52710 10.50000  0.00199  12.10
O00D  4  0.50000  0.23223  0.40856 10.50000  0.12852  11.73
O00E  4  0.81056  0.50000  0.57492 10.50000  0.03972  11.28
O00F  4  0.50000  0.50000  0.33849 10.25000  0.07860  11.09
O00G  4  0.59904  0.50000  0.54786 10.50000  0.00010  11.08
CL0H  6  0.71271  0.31990  0.48899 11.00000  0.08242  10.81
N00I  3  1.00000  0.50000  0.54723 10.25000  0.07998  10.33
CL0J  6  0.50000  0.74607  0.75306 10.50000  0.12331  10.18
O00K  4  0.50000  0.84256  0.79171 10.50000  0.00010   9.97
CL0L  6  1.00000  0.77780  0.61349 10.50000  0.14106   9.89
N00M  3  0.00000 -0.03754  0.20829 10.50000  0.00010   9.81
O00N  4  0.50000  0.40805  0.50996 10.50000  0.04710   9.61
O00O  4  1.00000  0.57156  0.45378 10.50000  0.00034   9.20
O00P  4  0.50000  0.11407  0.28729 10.50000  0.05819   9.02
N00Q  3  0.35140  0.00000  0.24179 10.50000  0.08111   8.34
O00R  4  0.50000  0.38087  0.32405 10.50000  0.02847   8.28
O00S  4  0.50000  0.00000  0.51615 10.25000  0.04260   7.99
C00T  2  0.62007  0.70044  0.68016 11.00000  0.01316   7.94
O00U  4  0.73286  0.39613  0.33704 11.00000  0.03567   7.89
O00V  4  0.50000  0.26562  0.29979 10.50000  0.00558   7.70
C00W  2  0.70377  0.67671  0.67397 11.00000  0.00010   5.71
N00X  3  0.69185  0.00000  0.42023 10.50000  0.00905   5.69
C00Y  2  1.00000  0.50000  0.59198 10.25000  0.00010   5.59
C00Z  2  0.64889  0.63399  0.60893 11.00000  0.00335   5.36
C010  2  1.00000  0.00000  0.41731 10.25000  0.00010   5.20
C011  2  1.00000  0.62035  0.42104 10.50000  0.01422   5.15
C012  2  0.50000  0.00000  0.25044 10.50000  0.02159   5.00
C013  2  0.50000  0.94400  0.73088 10.50000  0.00010   4.89
C014  2  0.67722  1.00000  0.74827 10.50000  0.01116   4.80
C015  2  0.50000  0.69703  0.59980 10.50000  0.00483   4.74
C016  2  1.00000  0.00000  0.57215 10.25000  0.00010   4.63
C017  2  1.00000  0.00000  0.53910 10.25000  0.00010   4.35
C018  2  0.50000  0.19262  0.29632 10.50000  0.03565   4.21
C019  2  0.39353  0.00000  0.23694 10.50000  0.00010   3.79
C01A  2  0.50000  0.53404  0.59651 11.00000  0.02169   3.67
C01B  2  0.50000  0.00000  0.35460 10.25000  0.05333   3.53
O01C  4  1.00000  0.17168  0.43814 10.50000  0.05568   3.26
C01D  2  1.14529  0.00000  0.62188 10.50000  0.00010   3.23
C01E  2  1.00000  0.09809  0.44484 10.50000  0.03474   3.15
C01F  2  0.68891  0.41035  0.42461 11.00000  0.03384   3.04
HKLF 4
END
