TITL temp01_expF_1_5_expS_0_6_temp01_a.res in Imm2
REM Old TITL 1 in I222
REM SHELXT solution in Imm2: R1 0.790, Rweak 0.257, Alpha 0.192
REM <I/s>   0.000 for    0 systematic absences,  Orientation as input
REM Flack x = -9.990 ( 0.667 ) from   588 Parsons' quotients
REM Formula found by SHELXT:  C43 N19 O26 Cl13

CELL  0.71073   9.4370  15.1530  30.5090   90.000   90.000   90.000
ZERR   53.000   0.0019   0.0030   0.0061    0.000    0.000    0.000
LATT -2
SYMM -X, -Y, Z
SYMM X, -Y, Z
SYMM -X, Y, Z
SFAC H C N O ZR CL
UNIT 0 0 0 0 0 0
L.S. 10
BOND
LIST 6
FMAP 2
PLAN 20
CL01  6  0.00000  0.50000  0.45331 10.25000  0.06034  22.68
CL02  6  0.42104  0.50000  0.46346 10.50000  0.09504  16.62
CL03  6  1.00000  1.00000  0.63201 10.25000  0.08454  15.17
CL04  6  0.87227  1.00000  0.62853 10.50000  0.11568  14.77
CL05  6  0.00000  0.34305  0.44444 10.50000  0.12587  14.09
CL06  6  0.00000  0.50000  0.57604 10.25000  0.12199  13.91
N007  3  0.50000  0.57422  0.48096 10.50000  0.06586  11.14
O008  4  0.00000  0.22472  0.39593 10.50000  0.06039  11.11
O009  4 -0.50000  0.50000  0.34277 10.25000  0.04561  11.05
O00A  4 -0.09455  0.23174  0.39068 11.00000  0.07679  10.72
O00B  4  0.18823  0.50000  0.49627 10.50000  0.07924  10.24
CL0C  6  0.22929  0.67532  0.51862 11.00000  0.13900   9.74
O00D  4  0.14593  0.50000  0.38094 10.50000  0.04364   9.31
O00E  4 -0.24973  0.28307  0.39889 11.00000  0.12476   9.19
O00F  4 -0.11208  0.39419  0.44115 11.00000  0.08829   9.01
O00G  4  0.50000  1.00000  0.62959 10.25000  0.02813   8.78
C00H  2  0.40352  1.00000  0.54472 10.50000  0.06623   8.77
C00I  2  0.50000  1.00000  0.73254 10.25000  0.02213   8.41
O00J  4  0.00000  0.66241  0.60643 10.50000  0.12148   7.51
N00K  3 -0.50000  0.00000  0.26746 10.25000  0.02231   7.37
N00L  3  0.25987  1.00000  0.55315 10.50000  0.10244   6.94
C00M  2 -0.50000  0.22154  0.29179 10.50000  0.12234   6.18
N00N  3  0.50000  0.82907  0.60355 10.50000  0.04432   5.83
N00O  3  0.62651  1.00000  0.72467 10.50000  0.07653   5.58
C00P  2 -0.50000  0.29467  0.33921 10.50000  0.05404   5.54
C00Q  2  0.64014  1.00000  0.67456 10.50000  0.04029   5.51
C00R  2  0.50000  1.00000  0.54657 10.25000  0.06291   5.10
C00S  2  0.50000  0.88427  0.73006 10.50000  0.10781   4.79
N00T  3 -0.39573  0.09243  0.31339 11.00000  0.12554   4.72
N00U  3  0.37619  0.56361  0.52328 11.00000  0.07028   4.53
C00V  2  0.50000  0.76582  0.52573 10.50000  0.04212   4.51
C00W  2  0.00000  0.40663  0.38518 10.50000  0.04325   4.46
C00X  2  0.50000  0.56420  0.52547 10.50000  0.02542   4.39
C00Y  2  1.00000  0.87327  0.59898 10.50000  0.04379   4.15
C00Z  2 -0.50000  0.06216  0.28834 10.50000  0.09609   4.02
N010  3  0.50000  0.50000  0.67965 10.25000  0.10066   3.96
C011  2 -0.23145  0.08656  0.35918 11.00000  0.12545   3.91
C012  2  0.31040  0.81738  0.69025 11.00000  0.10504   3.85
C013  2 -0.35994  0.50000  0.29039 10.50000  0.14445   3.78
N014  3 -0.50000  0.00000  0.42681 10.25000  0.07008   3.70
O015  4  0.60237  0.78927  0.52399 11.00000  0.07195   3.69
C016  2 -0.29801  0.19988  0.34538 11.00000  0.08420   3.69
C017  2  0.00000  0.59818  0.52643 10.50000  0.06117   3.44
C018  2  0.50000  0.65048  0.57335 10.50000  0.07556   3.42
C019  2  0.00000  0.50000  0.33498 10.25000  0.10084   3.19
C01A  2 -0.50000  0.41157  0.29670 10.50000  0.03368   3.00
HKLF 4
END
