TITL temp01_expF_1_3_expS_1_4_temp01_a.res in Imm2
REM Old TITL 1 in I222
REM SHELXT solution in Imm2: R1 0.747, Rweak 0.377, Alpha 0.229
REM <I/s>   0.000 for    0 systematic absences,  Orientation as input
REM Flack x = -9.990 ( 2.471 ) from    58 Parsons' quotients
REM Formula found by SHELXT:  C31 N11 O31 Cl11

CELL  0.71073   9.4370  15.1530  30.5090   90.000   90.000   90.000
ZERR   53.000   0.0019   0.0030   0.0061    0.000    0.000    0.000
LATT -2
SYMM -X, -Y, Z
SYMM X, -Y, Z
SYMM -X, Y, Z
SFAC H C N O ZR CL
UNIT 0 0 0 0 0 0
L.S. 10
BOND
LIST 6
FMAP 2
PLAN 20
CL01  6  1.00000  0.50000  0.42754 10.25000  0.04763  17.10
CL02  6  0.85628  0.50000  0.42247 10.50000  0.02533  13.68
O003  4  0.50000  0.50000  0.50179 10.25000  0.08062  13.19
CL04  6  0.50000  0.38028  0.41661 10.50000  0.19596  12.81
CL05  6  0.50000 -0.05466  0.58411 10.50000  0.07418  12.81
CL06  6  0.81670  0.34035  0.47301 11.00000  0.11743  12.66
N007  3  1.00000  0.35070  0.48184 11.00000  0.02964  11.13
O008  4  0.68693  0.50000  0.39555 10.50000  0.01966  10.22
O009  4  0.72090  0.30363  0.47213 11.00000  0.06454  10.14
O00A  4  0.55178  0.00000  0.57527 10.50000  0.00586  10.03
O00B  4  1.00000  0.41498  0.30528 10.50000  0.06664   9.35
O00C  4  0.50000  0.50000  0.41721 10.25000  0.07762   9.11
O00D  4  0.75696  0.38555  0.44333 11.00000  0.05697   9.08
O00E  4  0.50000  0.39209  0.48971 10.50000  0.04379   8.90
O00F  4  1.00000  0.00000  0.68231 10.50000  0.16439   8.85
O00G  4  0.00000  0.50000  0.54795 10.25000  0.22799   8.72
O00H  4  0.50000  0.31296  0.44180 10.50000  0.05782   7.96
O00I  4  0.80454  0.08292  0.61102 11.00000  0.09604   7.82
O00J  4  0.50000  0.18758  0.35165 10.50000  0.09063   7.38
C00K  2  1.00000  0.09417  0.54482 10.50000  0.03695   6.33
C00L  2  0.23576  0.60795  0.54840 11.00000  0.00845   6.26
C00M  2  1.00000  0.23469  0.57248 10.50000  0.04225   5.53
C00N  2  0.00000  0.50000  0.70918 10.25000  0.12962   5.25
C00O  2  0.30192  0.66733  0.56277 11.00000  0.02259   5.22
N00P  3  0.00000  0.79407  0.74334 10.50000  0.00010   5.02
O00Q  4  0.34956  0.50000  0.50277 10.50000  0.02449   4.91
C00R  2  0.00000  0.62944  0.69489 10.50000  0.02600   4.82
C00S  2  0.75814  0.31927  0.35436 11.00000  0.00238   4.34
C00T  2  0.00000  0.57168  0.60307 10.50000  0.00010   4.11
N00U  3  0.50000  0.11146  0.46272 10.50000  0.01980   3.73
N00V  3  0.50000  0.00000  0.41614 10.25000  0.03744   3.67
C00W  2  0.91336  0.38577  0.39567 11.00000  0.01457   3.41
C00X  2  1.00000  0.20054  0.47887 10.50000  0.05539   3.21
C00Y  2  0.87709  0.00000  0.54663 10.50000  0.04951   3.08
N00Z  3  1.00000  0.19705  0.25666 10.50000  0.01033   3.04
C010  2  0.18635  0.50000  0.50179 10.50000  0.00010   3.00
HKLF 4
END
