TITL temp01_expF_1_5_expS_1_5_temp01_a.res in Imm2
REM Old TITL 1 in I222
REM SHELXT solution in Imm2: R1 0.785, Rweak 0.231, Alpha 0.054
REM <I/s>   0.000 for    0 systematic absences,  Orientation as input
REM Flack x = -9.990 ( 5.020 ) from    68 Parsons' quotients
REM Formula found by SHELXT:  C43 N6 O29 Cl12

CELL  0.71073   9.4370  15.1530  30.5090   90.000   90.000   90.000
ZERR   53.000   0.0019   0.0030   0.0061    0.000    0.000    0.000
LATT -2
SYMM -X, -Y, Z
SYMM X, -Y, Z
SYMM -X, Y, Z
SFAC H C N O ZR CL
UNIT 0 0 0 0 0 0
L.S. 10
BOND
LIST 6
FMAP 2
PLAN 20
CL01  6  0.50000  0.50000  0.72908 10.25000  0.22068  21.48
CL02  6  0.61655  0.50000  0.73192 10.50000  0.22817  20.38
CL03  6  1.00000  0.50000  0.70908 10.25000  0.24724  14.33
CL04  6  0.50000  0.50000  0.39136 10.25000  0.21000  14.22
O005  4  0.23730  0.50000  0.33469 10.50000  0.10519  11.36
O006  4  1.16414  0.65025  0.65124 11.00000  0.11750  11.29
CL07  6  0.00000  0.50000  0.26808 10.25000  0.30509  11.05
CL08  6  1.00000  0.61306  0.65382 10.50000  0.24280  10.63
CL09  6  1.00000  0.50000  0.41624 10.25000  0.20158  10.31
CL0A  6  1.00000  0.50000  0.58424 10.25000  0.26382  10.07
CL0B  6  0.00000  0.36265  0.29425 10.50000  0.26949   9.90
O00C  4  0.60576  0.50000  0.60598 10.50000  0.13371   9.74
C00D  2  0.91808  0.50000  0.52672 10.50000  0.08372   9.39
O00E  4  0.79935  0.34284  0.46937 11.00000  0.16167   9.08
O00F  4  0.50000  0.31907  0.38571 10.50000  0.17690   8.43
O00G  4  0.26131  0.33027  0.33427 11.00000  0.16253   7.55
O00H  4  0.50000  0.41607  0.61230 10.50000  0.08247   7.38
O00I  4  0.50000  0.35225  0.54323 10.50000  0.11632   7.34
O00J  4  0.50000  0.00000  0.57115 10.25000  0.13029   7.27
N00K  3  0.72020  0.50000  0.46011 10.50000  0.15906   6.91
N00L  3  0.50000  0.50000  0.46432 10.25000  0.21293   6.53
N00M  3  1.36266  0.00000  0.36884 10.50000  0.05461   6.25
C00N  2  0.50000  0.21664  0.56669 10.50000  0.11606   6.20
C00O  2  0.50000  0.50000  0.55331 10.25000  0.10672   6.18
C00P  2  1.00000  0.38834  0.47301 10.50000  0.23949   5.70
C00Q  2  1.00000  0.10319  0.39086 10.50000  0.06292   5.64
C00R  2  1.00000  0.00000  0.45306 10.25000  0.05722   5.51
C00S  2  0.68385  0.21474  0.46558 11.00000  0.10046   4.69
C00T  2  0.40050  0.00000  0.49380 10.50000  0.08625   4.58
O00U  4  0.82845  0.50000  0.65288 10.50000  0.08965   4.36
C00V  2  0.96886  0.50000  0.64766 10.50000  0.14897   4.23
C00W  2  0.94138  0.11663  0.45985 11.00000  0.10075   3.81
C00X  2  1.00000  0.00000  0.33125 10.25000  0.06570   3.81
C00Y  2  1.00000  0.23234  0.46378 10.50000  0.01800   3.67
C00Z  2  0.35716  0.25348  0.55196 11.00000  0.10801   3.61
N010  3  1.00000  0.00000  0.61287 10.25000  0.13318   3.52
C011  2  1.23628  0.00000  0.37237 10.50000  0.07016   3.38
C012  2  0.46149  0.36914  0.67403 11.00000  0.09140   3.23
O013  4  0.84993  0.22429  0.44469 11.00000  0.23628   3.13
C014  2  1.04074  0.20269  0.52689 11.00000  0.22658   3.04
C015  2  0.42651  0.38159  0.32994 11.00000  0.03157   3.01
HKLF 4
END
