TITL temp01_expF_1_2_expS_1_4_temp01_a.res in Imm2
REM Old TITL 1 in I222
REM SHELXT solution in Imm2: R1 0.715, Rweak 0.621, Alpha 0.225
REM <I/s>   0.000 for    0 systematic absences,  Orientation as input
REM Flack x = -9.990 ( 1.510 ) from    63 Parsons' quotients
REM Formula found by SHELXT:  C70 N14 O22 Cl17

CELL  0.71073   9.4370  15.1530  30.5090   90.000   90.000   90.000
ZERR   53.000   0.0019   0.0030   0.0061    0.000    0.000    0.000
LATT -2
SYMM -X, -Y, Z
SYMM X, -Y, Z
SYMM -X, Y, Z
SFAC H C N O ZR CL
UNIT 0 0 0 0 0 0
L.S. 10
BOND
LIST 6
FMAP 2
PLAN 20
CL01  6  0.03738  1.00000  0.76632 10.50000  0.04795  18.14
CL02  6  0.00000  0.50000  0.39640 10.25000  0.05803  15.94
CL03  6  0.50000  0.66942  0.48910 10.50000  0.08966  15.52
CL04  6  0.18474  1.00000  0.75433 10.50000  0.09475  15.17
C005  2  0.00000  0.38388  0.54230 10.50000  0.00259  13.74
CL06  6  0.50000  0.50000  0.62414 10.25000  0.16459  13.72
C007  2  0.35336  0.50000  0.54167 10.50000  0.00010  13.36
CL08  6  0.30414  1.00000  0.64252 10.50000  0.03068  13.04
CL09  6  0.36081  0.50000  0.42047 10.50000  0.06633  13.01
O00A  4  0.50000  0.59419  0.40783 10.50000  0.02046  12.48
O00B  4  0.28772  0.43722  0.47730 11.00000  0.03096   9.85
CL0C  6  0.50000  1.00000  0.67995 10.25000  0.02783   9.85
CL0D  6  0.50000  0.80725  0.70790 10.50000  0.06145   9.83
O00E  4  0.00000  0.50000  0.51326 10.25000  0.11303   9.60
N00F  3  0.34167  0.50000  0.61981 10.50000  0.03220   9.57
CL0G  6  1.00000  0.67893  0.38329 10.50000  0.03286   9.50
O00H  4  0.11908  0.38380  0.53793 11.00000  0.03376   9.37
O00I  4  0.28689  0.50000  0.56153 10.50000  0.07473   8.92
O00J  4  0.16656  0.50000  0.44987 10.50000  0.10167   8.74
O00K  4  0.00000  1.00000  0.56329 10.25000  0.01956   8.37
O00L  4  0.30711  1.00000  0.74525 10.50000  0.06894   8.06
N00M  3  0.83121  0.78945  0.35827 11.00000  0.02490   7.90
N00N  3  0.61874  1.00000  0.30252 10.50000  0.01668   7.02
N00O  3  0.50000  0.57328  0.54300 10.50000  0.00010   6.75
C00P  2  0.57239  0.84534  0.35183 11.00000  0.01819   6.40
C00Q  2  0.50000  0.71045  0.30962 10.50000  0.03114   6.00
C00R  2  1.00000  0.91586  0.36324 10.50000  0.00010   5.75
O00S  4  0.34720  0.80911  0.62341 11.00000  0.00010   5.29
N00T  3  0.50000  0.57351  0.71663 10.50000  0.02137   5.18
C00U  2  0.69388  0.83434  0.35743 11.00000  0.00010   5.16
C00V  2  0.50000  0.71308  0.62318 10.50000  0.00010   5.08
N00W  3  0.00000  1.00000  0.47956 10.25000  0.10647   4.56
C00X  2  0.50000  0.50000  0.49957 10.25000  0.00010   4.50
N00Y  3  0.50000  1.00000  0.54930 10.25000  0.00010   4.38
C00Z  2  0.93098  0.83986  0.35291 11.00000  0.00010   4.30
C010  2  0.56576  0.82253  0.44820 11.00000  0.05001   4.19
C011  2  0.50000  0.71754  0.35822 10.50000  0.02521   4.10
C012  2  0.12287  0.80640  0.56172 11.00000  0.00804   4.10
C013  2  0.72024  0.75093  0.48141 11.00000  0.01114   3.96
C014  2  0.40749  0.73246  0.28600 11.00000  0.01936   3.82
C015  2  0.50000  1.00000  0.23368 10.25000  0.00010   3.64
C016  2  0.50000  0.92009  0.29073 10.50000  0.00010   3.63
C017  2  0.32283  0.77499  0.30611 11.00000  0.00025   3.55
C018  2  0.56843  0.76120  0.39336 11.00000  0.00010   3.52
C019  2  0.39551  0.60309  0.63329 11.00000  0.02754   3.48
C01A  2  0.50000  0.82925  0.24282 10.50000  0.01688   3.45
C01B  2  0.50000  0.77901  0.55446 10.50000  0.00010   3.41
C01C  2  1.00000  0.80132  0.35503 10.50000  0.00010   3.35
C01D  2  0.28170  0.78336  0.61484 11.00000  0.03032   3.31
C01E  2  0.72305  0.89207  0.32054 11.00000  0.00010   3.08
HKLF 4
END
