TITL 11_a.res in P1
REM Old TITL 11 in P1
REM SHELXT solution in P1: R1 0.328, Rweak 0.323, Alpha 0.000
REM <I/s>   0.000 for    0 systematic absences,  Orientation as input
REM Flack x =  0.145 ( 0.449 ) from   142 Parsons' quotients
REM Formula found by SHELXT:  C32 N19 O17 Cl22

CELL  0.71073   4.9500  11.6200  20.0100   90.000   84.800   90.000
ZERR   15.000   0.0010   0.0023   0.0040    0.030    0.030    0.030
LATT -1
SFAC C N O CL
UNIT 15 15 15 15
L.S. 10
BOND
LIST 6
FMAP 2
PLAN 20
CL01  4  0.37043  0.56026  0.67281 11.00000  0.07035  24.09
CL02  4  0.20353  0.32122  0.43402 11.00000  0.05967  22.50
CL03  4  0.66892  0.08618  0.18897 11.00000  0.09218  22.44
CL04  4  0.47025  0.66764  0.81120 11.00000  0.03657  22.18
CL05  4  0.98212 -0.03101  0.12648 11.00000  0.05343  20.08
CL06  4  0.90360 -0.05312  0.23533 11.00000  0.06638  19.77
CL07  4  0.79077  0.24382  0.54746 11.00000  0.04652  16.84
CL08  4 -0.16145  0.31399  0.44155 11.00000  0.04610  15.02
CL09  4  0.12262  0.29664  0.25161 11.00000  0.06676  14.79
CL0A  4  0.27982  0.70330  0.81618 11.00000  0.07859  14.78
CL0B  4  0.43130  0.14845  0.27819 11.00000  0.07387  14.72
CL0C  4  0.05694  0.24997  0.45158 11.00000  0.06725  14.41
CL0D  4  0.54318  0.55835  0.49476 11.00000  0.09858  14.33
CL0E  4  0.20784  0.53024  0.49882 11.00000  0.07349  14.30
CL0F  4  0.05959  0.63080  0.81061 11.00000  0.11637  13.52
CL0G  4  0.11577  0.39875  0.56229 11.00000  0.05793  13.45
CL0H  4  1.03907  0.22223  0.55391 11.00000  0.09277  13.43
CL0I  4  0.79254  0.10348  0.09796 11.00000  0.07523  13.29
CL0J  4  0.37547  0.26542  0.41809 11.00000  0.04970  13.18
CL0K  4  0.68440  0.11749  0.65009 11.00000  0.05904  12.82
CL0L  4  0.30950  0.37228  0.58853 11.00000  0.07125  12.59
N00M  2  0.68454  0.39509  0.51628 11.00000  0.03168  12.28
O00N  3  0.60444 -0.09969  0.20115 11.00000  0.00010  12.19
N00O  2  0.46769  0.06849  0.41600 11.00000  0.00010  11.69
N00P  2  0.49669  0.62686  0.54641 11.00000  0.00274  11.56
O00Q  3  0.01756  0.88691  0.43258 11.00000  0.01438  11.38
N00R  2  0.55167  0.13742  0.45976 11.00000  0.01570  11.33
O00S  3  0.37302 -0.00753  0.59269 11.00000  0.00030  11.32
CL0T  4  1.20883  0.62014  0.95454 11.00000  0.08590  11.08
N00U  2  0.15286  0.60563  0.64675 11.00000  0.01356  10.69
N00V  2 -0.04219  0.24858  0.39690 11.00000  0.01501  10.47
O00W  3  0.68311  0.73339  0.86034 11.00000  0.03329  10.41
O00X  3  1.45194  0.13624  0.01792 11.00000  0.02521  10.24
O00Y  3  0.26097  0.82513  0.62692 11.00000  0.01798  10.20
N00Z  2  0.46690  0.22535  0.49148 11.00000  0.00641   9.83
O010  3  0.15598  0.61469  0.73404 11.00000  0.01772   9.76
O011  3  0.49680  0.25200  0.56086 11.00000  0.00010   9.70
N012  2  0.00869  0.28224  0.32007 11.00000  0.02818   9.67
N013  2  0.20662  0.33632  0.30707 11.00000  0.00010   9.53
N014  2  0.72140  0.11798  0.26999 11.00000  0.02528   9.20
N015  2  0.38571  0.22029  0.33668 11.00000  0.00010   8.97
N016  2  0.51387  0.44993  0.51408 11.00000  0.09843   8.60
O017  3  0.96030  0.29103  0.90502 11.00000  0.00010   8.50
N018  2  0.80259  0.30645  0.61771 11.00000  0.00774   8.50
O019  3  0.87380  0.84532  0.67840 11.00000  0.01125   8.21
O01A  3  1.00165  0.21586  0.63069 11.00000  0.03163   8.21
O01B  3  1.09929  0.91068  0.83580 11.00000  0.10602   8.19
O01C  3  0.99574  0.40530  0.72371 11.00000  0.01314   8.04
O01D  3  0.72117  0.07411  0.48350 11.00000  0.00010   7.99
N01E  2  0.18642  0.51965  0.59650 11.00000  0.00577   7.67
N01F  2  0.16713  0.13652  0.23318 11.00000  0.00010   7.20
N01G  2 -0.03897  0.36331  0.24376 11.00000  0.05282   6.95
N01H  2  0.52645  0.02824  0.51695 11.00000  0.04520   6.87
O01I  3  1.09488  0.75815  0.98208 11.00000  0.07594   6.71
C01J  1  0.57512  0.18634  0.37488 11.00000  0.00010   6.66
C01K  1  1.14285  0.26525  0.07533 11.00000  0.00010   6.46
C01L  1  0.58346  0.10455  0.30156 11.00000  0.00805   6.44
C01M  1  0.40741  0.02037  0.34190 11.00000  0.00010   6.29
C01N  1  0.27649 -0.05965  0.31517 11.00000  0.02602   6.24
C01O  1  0.28610  0.29130  0.24347 11.00000  0.00010   5.97
C01P  1  0.30054  0.67022  0.57852 11.00000  0.00044   5.94
C01Q  1  0.27007  0.51744  0.39402 11.00000  0.03314   5.87
C01R  1 -0.04120  0.72932  0.58183 11.00000  0.00010   5.81
C01S  1 -0.16913  0.31453  0.23320 11.00000  0.02537   5.76
C01T  1  0.01059  0.45456  0.50996 11.00000  0.01269   5.59
C01U  1  0.04496  0.90326  0.50212 11.00000  0.01060   5.52
C01V  1  0.29492  0.10107  0.37979 11.00000  0.00631   5.52
C01W  1  1.24108 -0.04923  0.19763 11.00000  0.00991   5.15
N01X  2 -0.45194  0.59225  0.21598 11.00000  0.07365   5.01
C01Y  1  0.66944  0.50453  0.56486 11.00000  0.00010   4.71
C01Z  1  0.51385  0.81076  0.68462 11.00000  0.01528   4.61
C020  1  1.28048  0.03067  0.06021 11.00000  0.00070   4.52
O021  3  1.09140  0.89977  0.89199 11.00000  0.02229   4.47
C022  1 -0.16306  0.85283  0.44398 11.00000  0.00811   4.47
C023  1  1.26487  0.38031  0.69146 11.00000  0.00010   4.37
C024  1  0.67636  0.54264  0.78456 11.00000  0.00010   4.37
C025  1  0.54182  0.82890  0.62688 11.00000  0.00515   4.35
O026  3  0.88102  0.75563  0.87165 11.00000  0.14794   4.28
C027  1  0.33496  0.76495  0.48412 11.00000  0.00010   4.26
C028  1  0.17082  0.62356  0.58510 11.00000  0.00372   4.12
C029  1  0.70199  0.71733  0.70458 11.00000  0.00034   3.96
C02A  1  0.79966  0.37465  0.82498 11.00000  0.03299   3.94
C02B  1  1.10781  1.09969  0.89074 11.00000  0.02314   3.93
C02C  1  1.32692  0.98993  0.80484 11.00000  0.04539   3.92
C02D  1 -0.33310  0.44333  0.32510 11.00000  0.01285   3.88
C02E  1  0.98307  0.37161  0.67568 11.00000  0.03237   3.83
C02F  1  0.21151  0.29794  0.36020 11.00000  0.00010   3.80
C02G  1  0.91466  0.84012  0.95769 11.00000  0.04016   3.76
N02H  2 -0.00782  0.64349  0.32344 11.00000  0.03361   3.73
C02I  1  1.42456  1.02507  0.89872 11.00000  0.03476   3.68
HKLF 4
END
