TITL 12_a.res in P1
REM Old TITL 12 in P1
REM SHELXT solution in P1: R1 0.378, Rweak 0.393, Alpha 0.000
REM <I/s>   0.000 for    0 systematic absences,  Orientation as input
REM Flack x =  0.481 ( 0.474 ) from   153 Parsons' quotients
REM Formula found by SHELXT:  C42 N17 O8 Cl4

CELL  0.71073   4.9400  11.6200  19.9700   90.000   84.670   90.000
ZERR   15.000   0.0010   0.0023   0.0040    0.030    0.030    0.030
LATT -1
SFAC C N O CL
UNIT 15 15 15 15
L.S. 10
BOND
LIST 6
FMAP 2
PLAN 20
CL01  4  0.91082  0.61020  0.73133 11.00000  0.06222  17.72
CL02  4  0.60719  0.74337  0.79124 11.00000  0.06284  15.80
CL03  4  0.73526  0.67375  0.74793 11.00000  0.07080  15.08
CL04  4 -0.16147  0.29739  0.39235 11.00000  0.07124  14.03
N005  2  0.66293  0.42466  0.53515 11.00000  0.02695  11.66
O006  3  0.50413  0.45424  0.46635 11.00000  0.02165  11.51
N007  2  0.40827  0.19395  0.22213 11.00000  0.03933  10.76
N008  2  0.17784  0.71799  0.79862 11.00000  0.00833   9.66
O009  3  1.06416  0.69799  0.72023 11.00000  0.02567   9.49
C00A  1  0.39677  0.63490  0.74371 11.00000  0.04144   9.44
N00B  2  0.62406  0.44911  0.58720 11.00000  0.03602   9.30
O00C  3  1.11368  0.52006  0.61738 11.00000  0.08556   9.19
N00D  2  0.38620  0.40709  0.68597 11.00000  0.03914   9.03
N00E  2  0.38683  0.65936  0.81815 11.00000  0.00010   8.99
O00F  3  0.20142  0.34637  0.44312 11.00000  0.02166   8.79
N00G  2  0.39143  0.58729  0.68784 11.00000  0.00010   8.67
N00H  2  0.59628  0.47688  0.66112 11.00000  0.04119   8.65
N00I  2  0.68132 -0.10365  0.04705 11.00000  0.03927   8.35
N00J  2  0.78199  0.42448  0.48258 11.00000  0.05709   8.25
O00K  3  0.04198  0.18252  0.07298 11.00000  0.01603   8.06
O00L  3  0.33928  0.30306  0.59236 11.00000  0.04405   7.63
O00M  3  0.08298  0.21481  0.48459 11.00000  0.01488   7.60
N00N  2  0.50793  0.16074  0.16911 11.00000  0.01623   7.48
N00O  2  0.94438  0.83598  0.65639 11.00000  0.01705   7.02
N00P  2  0.75854  0.75774  0.80834 11.00000  0.01847   6.71
N00Q  2  0.12688  0.32378  0.53039 11.00000  0.04420   6.61
C00R  1  0.64386  0.23785  0.22280 11.00000  0.03234   6.57
C00S  1  0.87135 -0.12451 -0.02335 11.00000  0.00605   6.50
C00T  1  0.61458  0.55408  0.55495 11.00000  0.03105   6.49
O00U  3  1.46614  0.50739  0.23141 11.00000  0.11207   6.41
C00V  1  1.15633  0.66879  0.57098 11.00000  0.01900   6.38
C00W  1  0.25664  0.89523  0.78135 11.00000  0.04281   5.99
C00X  1  0.31202  0.04917  0.05383 11.00000  0.01939   5.73
C00Y  1  0.40041  0.45834  0.58395 11.00000  0.00010   5.65
C00Z  1  0.53429  0.12788 -0.03295 11.00000  0.03075   5.63
C010  1  0.92374  0.61046  0.63708 11.00000  0.02505   5.62
C011  1  1.08230  0.78973  0.47321 11.00000  0.05909   5.55
C012  1  0.20672  0.33355  0.16076 11.00000  0.03629   5.46
C013  1  0.37834  1.12451  0.78976 11.00000  0.06657   5.42
C014  1  0.61684 -0.05997 -0.01782 11.00000  0.00533   5.38
C015  1  0.30569  1.07811  0.65957 11.00000  0.08391   5.29
C016  1  0.45255  0.00234  0.04031 11.00000  0.00162   5.22
C017  1  0.42336  0.19752  0.29984 11.00000  0.02406   5.20
C018  1  0.56076  0.51231  0.52164 11.00000  0.02484   5.15
C019  1  0.62822  0.60590  0.65724 11.00000  0.01193   5.05
C01A  1  0.81547  0.79211  0.88692 11.00000  0.02962   5.02
N01B  2 -0.46614  0.36515  0.90786 11.00000  0.05645   4.89
C01C  1  0.87387  0.80280  0.74554 11.00000  0.03345   4.84
C01D  1  0.50147  0.08612  0.11726 11.00000  0.01560   4.49
C01E  1  0.47077  1.10223  0.81107 11.00000  0.06567   4.45
C01F  1 -0.09805  0.26394  0.46320 11.00000  0.01163   4.39
C01G  1  1.25110  0.82623  0.58778 11.00000  0.08845   4.29
C01H  1 -0.07094  0.60862  0.82377 11.00000  0.09533   4.06
C01I  1  0.85188  0.17415  0.24524 11.00000  0.01135   3.97
C01J  1  1.28702  0.57598  0.24674 11.00000  0.04359   3.95
C01K  1  1.06631  0.67415  0.34485 11.00000  0.04269   3.94
N01L  2 -0.25143  0.45893  1.03295 11.00000  0.02932   3.83
C01M  1  0.94829  0.56442  0.22800 11.00000  0.06343   3.66
C01N  1  0.00200  0.28176  0.69940 11.00000  0.00635   3.65
C01O  1  0.82366  0.39680  0.61015 11.00000  0.01698   3.55
C01P  1  0.31299  0.75986  0.92750 11.00000  0.04042   3.55
C01Q  1 -0.02290  0.16209  0.32428 11.00000  0.06702   3.50
C01R  1  0.59713  0.06148  0.17481 11.00000  0.00266   3.49
C01S  1 -0.15017  0.15508  0.38069 11.00000  0.02004   3.47
C01T  1  0.24352 -0.04491 -0.00241 11.00000  0.03209   3.38
C01U  1  0.20233  0.26704  0.29034 11.00000  0.01687   3.31
C01V  1  0.77506  0.81147  0.59525 11.00000  0.00959   3.22
C01W  1 -0.00549  0.45050  0.82142 11.00000  0.06596   3.16
C01X  1  1.30006  0.66630  0.42062 11.00000  0.03507   3.10
N01Y  2  1.15710  0.76592  0.15702 11.00000  0.07277   3.08
C01Z  1  0.47305  0.55639  0.56667 11.00000  0.01517   3.00
HKLF 4
END
