TITL 13_a.res in P1
REM Old TITL 13 in P1
REM SHELXT solution in P1: R1 0.311, Rweak 0.407, Alpha 0.000
REM <I/s>   0.000 for    0 systematic absences,  Orientation as input
REM Flack x = -0.024 ( 0.430 ) from   133 Parsons' quotients
REM Formula found by SHELXT:  C29 N13 O19 Cl6

CELL  0.71073   4.9000  11.7900  19.8100   90.000   83.710   90.000
ZERR   15.000   0.0010   0.0024   0.0040    0.030    0.030    0.030
LATT -1
SFAC C N O CL
UNIT 15 15 15 15
L.S. 10
BOND
LIST 6
FMAP 2
PLAN 20
CL01  4  0.02148  0.41445  0.56220 11.00000  0.05751  18.23
CL02  4  1.02730  0.73277  0.71278 11.00000  0.08585  15.14
CL03  4  0.33971  0.10550  0.57458 11.00000  0.14160  12.55
CL04  4 -0.56424  0.42445  0.36047 11.00000  0.10837  12.22
O005  3  1.11082  0.79230  0.87283 11.00000  0.04136  12.22
N006  2  0.15166  0.32365  0.57381 11.00000  0.02283  11.89
CL07  4  0.65131  0.14102  0.77607 11.00000  0.13449  11.33
CL08  4  0.21236  0.10187  0.08566 11.00000  0.09003  10.80
O009  3  0.46610  0.09457  0.65845 11.00000  0.07789  10.26
O00A  3  0.74534  0.58101  0.63674 11.00000  0.03630  10.05
N00B  2 -0.01942  0.24459  0.60854 11.00000  0.01068   9.82
O00C  3  1.19719  0.71658  0.42030 11.00000  0.04604   9.65
O00D  3  1.03634  0.71725  0.56211 11.00000  0.03484   9.26
N00E  2  1.03594  0.68286  0.48794 11.00000  0.00094   8.91
O00F  3  0.85286  0.31609  0.84733 11.00000  0.06355   8.71
O00G  3 -0.03996  0.25839  0.38890 11.00000  0.06956   8.41
O00H  3  0.97611  0.77802  0.78643 11.00000  0.04814   8.11
O00I  3  1.38946  0.49126  0.22785 11.00000  0.10076   8.09
O00J  3  0.21288  0.14000  0.21052 11.00000  0.06934   7.96
O00K  3  0.19828  0.11517  0.28815 11.00000  0.05813   7.93
O00L  3 -0.26051  0.35255  0.08333 11.00000  0.07465   7.89
O00M  3 -0.14830  0.25339  0.33627 11.00000  0.07294   7.80
O00N  3  1.19136  0.53770  0.82843 11.00000  0.05580   7.71
N00O  2  1.09320  0.71740  0.75782 11.00000  0.02228   7.51
N00P  2 -0.16055  0.31450  0.63837 11.00000  0.05059   7.51
N00Q  2  0.30080  0.51062  0.61913 11.00000  0.04620   7.41
O00R  3  0.50166  1.03490  0.45410 11.00000  0.03557   7.22
C00S  1  0.87241  0.33900  0.79903 11.00000  0.01258   7.17
N00T  2  1.05867  0.72559  0.23002 11.00000  0.05979   7.08
N00U  2  0.66120 -0.03490  0.69925 11.00000  0.01181   6.96
N00V  2  0.85468  0.71049  0.36362 11.00000  0.02199   6.89
N00W  2 -0.24897  0.32011  0.41212 11.00000  0.02444   6.88
N00X  2  0.21298  0.32223  0.47964 11.00000  0.06854   6.77
O00Y  3  1.26392  0.53215  0.77835 11.00000  0.13189   6.72
C00Z  1  1.53880  0.43643  0.70969 11.00000  0.04023   6.48
C010  1  1.56424  0.64296  1.05656 11.00000  0.03490   6.44
O011  3 -0.08544  0.13908  0.16858 11.00000  0.01074   6.40
C012  1  1.13179  0.76695  0.65124 11.00000  0.03554   6.40
C013  1  0.67893  0.56120  0.55746 11.00000  0.02320   6.19
C014  1  1.25998  0.73670  0.95768 11.00000  0.08502   5.97
C015  1  1.24767  0.54765  0.16990 11.00000  0.03817   5.96
O016  3  0.92641  1.01432  0.50275 11.00000  0.01778   5.89
N017  2  0.47824  0.41909  0.48109 11.00000  0.07228   5.52
C018  1  0.19427  0.32089  0.65139 11.00000  0.05854   5.47
C019  1  1.36105  0.64065  0.23237 11.00000  0.04554   5.41
C01A  1 -0.04304  0.32504  0.01143 11.00000  0.03699   5.41
C01B  1  0.59135  0.91101  0.53860 11.00000  0.07540   5.36
O01C  3  1.37402  0.81626  0.26550 11.00000  0.06132   5.13
C01D  1 -0.07162  0.22989  0.17301 11.00000  0.01562   5.09
C01E  1 -0.20051  0.32429  0.50422 11.00000  0.03231   5.02
N01F  2 -0.28425  0.50118 -0.05656 11.00000  0.06072   4.72
C01G  1  0.87299  0.74294  0.43031 11.00000  0.02932   4.63
C01H  1  0.31481  0.05472  0.83620 11.00000  0.04349   4.43
C01I  1  0.98674  0.59241  0.76328 11.00000  0.02983   4.14
C01J  1  1.18324  0.77139  0.52126 11.00000  0.00116   4.07
C01K  1  0.89415  0.82948  0.98563 11.00000  0.05932   3.97
C01L  1 -0.41656  0.10130  0.16646 11.00000  0.06960   3.87
C01M  1  1.55896  0.77160  0.22178 11.00000  0.06739   3.80
C01N  1  1.45058  0.87228  0.13232 11.00000  0.05190   3.77
C01O  1  1.01686  0.90926  0.49258 11.00000  0.02182   3.74
C01P  1  1.10147  0.68121  0.98808 11.00000  0.03630   3.70
C01Q  1  0.87325  0.76274  0.90878 11.00000  0.04700   3.65
C01R  1  0.63957  0.62767  0.72281 11.00000  0.03013   3.61
C01S  1  0.32352  0.52283  0.52550 11.00000  0.03921   3.53
C01T  1  0.83067  0.79739  0.61276 11.00000  0.03989   3.42
C01U  1 -0.05628  0.26730  0.53548 11.00000  0.02581   3.33
C01V  1  1.01870  0.87317  0.61667 11.00000  0.02241   3.05
HKLF 4
END
