TITL 16_a.res in P1
REM Old TITL 16 in P1
REM SHELXT solution in P1: R1 0.282, Rweak 0.344, Alpha 0.000
REM <I/s>   0.000 for    0 systematic absences,  Orientation as input
REM Flack x =  0.449 ( 0.088 ) from   172 Parsons' quotients
REM Formula found by SHELXT:  C48 N14 O16 Cl15 Br3

CELL  0.71073   4.9100  11.6900  19.8700   90.000   84.370   90.000
ZERR   15.000   0.0010   0.0023   0.0040    0.030    0.030    0.030
LATT -1
SFAC C N O CL BR
UNIT 15 15 15 15 0
L.S. 10
BOND
LIST 6
FMAP 2
PLAN 20
BR01  5  1.04443  0.02727  0.34645 11.00000  0.09920  41.93
BR02  5  1.16472 -0.01601  0.39330 11.00000  0.09439  30.27
BR03  5  0.65888  0.77428  0.53973 11.00000  0.09602  28.20
CL04  4  0.20968  0.94100  0.90473 11.00000  0.06464  24.34
CL05  4  0.48573  0.85338  0.53237 11.00000  0.06131  23.20
CL06  4  0.76289  0.92872  0.81651 11.00000  0.10388  18.24
CL07  4  0.40120  0.80772  0.62376 11.00000  0.07981  17.11
CL08  4  1.01006  0.03729  0.43417 11.00000  0.08364  14.66
CL09  4 -0.01506  0.85510  0.97417 11.00000  0.09315  13.83
CL0A  4  0.73251  0.14064  0.08590 11.00000  0.09678  13.74
CL0B  4  0.63443  0.21955  0.37844 11.00000  0.08191  13.21
CL0C  4  0.15582  0.54329  0.61921 11.00000  0.09521  13.05
CL0D  4  0.43677  0.32709  0.72214 11.00000  0.09906  13.01
CL0E  4  0.48306 -0.17296  0.42785 11.00000  0.10111  12.72
CL0F  4  0.85430  0.75275  0.11848 11.00000  0.07198  12.56
CL0G  4  0.42126  0.34463  0.05267 11.00000  0.11339  12.55
CL0H  4  0.75500  0.24548  0.61273 11.00000  0.09507  12.53
O00I  3 -0.06206  0.70632  0.92332 11.00000  0.03165  11.07
N00J  2  0.74133  0.97062  0.71738 11.00000  0.02428  10.85
O00K  3  0.91008  0.97456  0.16626 11.00000  0.06663  10.76
N00L  2  1.00880  0.84759  0.82824 11.00000  0.01071  10.69
O00M  3  0.24667  0.75149  0.57681 11.00000  0.04253  10.58
CL0N  4  1.21245  1.17296  0.96506 11.00000  0.09766  10.58
O00O  3 -0.18442  0.61284  0.79558 11.00000  0.06972  10.58
O00P  3  0.12562  0.67192  0.41738 11.00000  0.03555  10.55
O00Q  3  0.78346  0.30363  0.42830 11.00000  0.06979  10.33
O00R  3  0.90149  0.38791  0.54102 11.00000  0.06476   9.83
O00S  3  0.92018  1.04872  0.97379 11.00000  0.03848   9.82
O00T  3  1.00990  0.27495  0.19312 11.00000  0.02712   9.55
O00U  3  0.16618  0.57416  0.78084 11.00000  0.02170   9.08
O00V  3  0.23401  0.46504  0.69473 11.00000  0.02481   8.75
N00W  2  1.10757  0.99207  0.65501 11.00000  0.07556   8.46
O00X  3  0.96046  1.09972  0.82778 11.00000  0.05907   8.41
O00Y  3  1.11841  1.02919  0.73714 11.00000  0.03409   8.00
O00Z  3  0.44048  0.17758  0.37149 11.00000  0.05845   7.95
O010  3  0.69373  0.49721  0.36733 11.00000  0.04075   7.86
N011  2  0.86712  0.53570  0.32400 11.00000  0.01152   7.67
N012  2  1.23014 -0.03022  0.48147 11.00000  0.04762   7.41
O013  3  0.73306  0.28472  0.88841 11.00000  0.05782   7.32
C014  1  0.26157  0.55337  0.54031 11.00000  0.01747   7.30
N015  2  0.46526  0.21486  0.52473 11.00000  0.04805   7.24
N016  2  0.23886  0.29118  0.05544 11.00000  0.05041   7.22
N017  2  0.21055  0.55089  0.47781 11.00000  0.01152   7.21
N018  2  0.99983  0.61217  0.29115 11.00000  0.00503   6.81
N019  2  0.64451  0.15394  0.17271 11.00000  0.02208   6.72
N01A  2 -0.01794  0.60478  0.53369 11.00000  0.01721   6.63
N01B  2  0.44312  0.24342  0.07097 11.00000  0.02768   6.61
N01C  2  0.98087  0.93628  0.09074 11.00000  0.05786   6.53
C01D  1  1.12534  0.06138  0.27664 11.00000  0.02864   6.36
C01E  1  0.38570  0.79179  0.10806 11.00000  0.01153   6.32
C01F  1  0.42392  0.29045  0.30640 11.00000  0.02182   6.18
C01G  1  0.40856  0.84002  0.88400 11.00000  0.02221   6.07
C01H  1 -0.14013  0.45858  0.72445 11.00000  0.02565   6.06
C01I  1  0.90358  0.51828  0.00214 11.00000  0.03373   5.90
C01J  1  0.83809  0.39084  0.83895 11.00000  0.04672   5.87
N01K  2  0.55120  0.84448  0.77628 11.00000  0.01469   5.86
C01L  1  0.81261  0.40128  0.23789 11.00000  0.02762   5.84
C01M  1  0.73831  0.69334  0.15117 11.00000  0.06002   5.79
C01N  1  0.58791  0.53326  0.18402 11.00000  0.06445   5.76
C01O  1  0.27370  0.38045  0.65974 11.00000  0.07097   5.68
C01P  1  0.46960  0.41261  0.57694 11.00000  0.04050   5.63
C01Q  1  0.69678  0.28509  0.56322 11.00000  0.03529   5.44
C01R  1  0.41170  0.15723  0.77052 11.00000  0.01760   5.41
C01S  1  0.47651  0.46179  0.78418 11.00000  0.03467   5.31
C01T  1  0.62547  0.65490  0.04784 11.00000  0.02651   5.31
C01U  1  0.97630  0.89468  0.65748 11.00000  0.00944   5.24
C01V  1  0.43732  0.20700  0.56979 11.00000  0.05178   5.20
C01W  1  0.73609  0.24932  0.50569 11.00000  0.02508   5.14
C01X  1  0.67143  0.89188  0.69896 11.00000  0.01853   5.09
C01Y  1  0.82676  0.12524  0.45873 11.00000  0.01148   5.07
C01Z  1  1.03760  0.85793  0.78853 11.00000  0.03518   4.67
C020  1  0.83431  0.71265  0.25707 11.00000  0.01678   4.67
C021  1  0.07459  0.69436  0.82746 11.00000  0.08080   4.58
C022  1  0.71879  0.36295  0.31013 11.00000  0.03134   4.46
C023  1  0.53740  0.42313  0.22814 11.00000  0.04074   4.41
C024  1  0.67944  0.53955  0.60177 11.00000  0.00124   4.39
C025  1  0.65358  0.26571  0.47913 11.00000  0.01646   4.37
C026  1  1.22269  0.46118  0.90069 11.00000  0.05333   4.26
C027  1  0.88838  0.43050  0.47031 11.00000  0.16427   4.25
C028  1  1.34554  0.12856  0.27699 11.00000  0.05545   4.12
C029  1 -0.34554  0.87334  0.99786 11.00000  0.04444   4.07
C02A  1  0.63203  0.25864  0.15582 11.00000  0.04777   4.03
C02B  1  0.81055  0.84103  0.12785 11.00000  0.06129   4.02
C02C  1  0.83237  0.28258  0.31985 11.00000  0.02727   4.01
C02D  1  0.83280  0.52029  0.25054 11.00000  0.00762   3.81
C02E  1  0.77599  0.81723  0.64167 11.00000  0.01884   3.77
C02F  1  0.66809  0.68495  0.32079 11.00000  0.04334   3.71
C02G  1  0.89143  0.78140  0.18744 11.00000  0.02434   3.70
C02H  1  0.47169  0.65420  0.29259 11.00000  0.04823   3.66
C02I  1  0.00418  0.70231  0.72397 11.00000  0.05001   3.55
C02J  1  0.37155  0.72736  0.77676 11.00000  0.01881   3.51
C02K  1  0.72617  1.04389  0.88062 11.00000  0.04301   3.49
C02L  1  1.07758  0.43486  0.27917 11.00000  0.01263   3.42
C02M  1  0.70531 -0.06376  0.42632 11.00000  0.04219   3.41
C02N  1  1.04218  1.11024  0.59557 11.00000  0.03899   3.35
C02O  1  0.17542  0.47205  0.16839 11.00000  0.04124   3.32
HKLF 4
END
