TITL 17_a.res in P1
REM Old TITL 17 in P1
REM SHELXT solution in P1: R1 0.369, Rweak 0.544, Alpha 0.000
REM <I/s>   0.000 for    0 systematic absences,  Orientation as input
REM Flack x = -0.371 ( 1.121 ) from   198 Parsons' quotients
REM Formula found by SHELXT:  C40 N13 O17 Cl

CELL  0.71073   4.9300  11.6600  19.7800   90.000   84.880   90.000
ZERR   15.000   0.0010   0.0023   0.0040    0.030    0.030    0.030
LATT -1
SFAC C N O CL
UNIT 15 15 15 15
L.S. 10
BOND
LIST 6
FMAP 2
PLAN 20
CL01  4  0.39139  0.40970  0.15109 11.00000  0.13800  13.03
O002  3  0.59364  0.11352  0.19762 11.00000  0.05464  11.79
N003  2  0.98042  0.98308  0.87450 11.00000  0.08633  11.28
O004  3  0.47030  0.80414  0.77306 11.00000  0.04147  11.10
O005  3  0.33399  0.55423  0.72646 11.00000  0.03540  10.87
N006  2  1.15620  1.06397  0.83675 11.00000  0.03166  10.04
N007  2  1.00302  1.00311  0.80743 11.00000  0.07550   9.84
O008  3  1.16855  0.93742  1.03676 11.00000  0.03037   9.44
N009  2  1.34262  0.87660  1.06736 11.00000  0.02340   9.41
O00A  3  0.72652  0.89278  0.47240 11.00000  0.08652   9.26
O00B  3  0.94965  0.43620 -0.14629 11.00000  0.08583   9.10
O00C  3  1.48789  1.21515  0.86097 11.00000  0.03280   9.00
N00D  2  1.51012  0.80487  1.04202 11.00000  0.02765   8.87
N00E  2  0.15214  0.29335  0.49007 11.00000  0.06789   8.30
O00F  3  0.02522  0.58831  0.51647 11.00000  0.09279   8.13
O00G  3  0.28367  0.39099  0.75800 11.00000  0.07727   7.86
C00H  1  1.67026  0.71978  1.07022 11.00000  0.03470   7.85
O00I  3  0.46397  0.13529  0.14207 11.00000  0.10745   7.79
O00J  3  1.45348  0.81155  0.95478 11.00000  0.06644   7.76
O00K  3  0.19946  0.68921  0.68990 11.00000  0.02809   7.73
N00L  2  1.31757  0.88234  1.00217 11.00000  0.02527   7.73
O00M  3  0.74851  0.01543  0.18130 11.00000  0.06110   7.60
O00N  3  0.64734  0.29890  0.00838 11.00000  0.04455   7.53
O00O  3  1.70925  0.74306  1.14629 11.00000  0.05735   7.43
N00P  2 -0.27156  0.53981  0.35524 11.00000  0.06488   7.16
N00Q  2  0.52618  0.32906  0.66766 11.00000  0.08758   7.08
N00R  2  0.25203  0.44029  0.69151 11.00000  0.03926   7.04
N00S  2  0.32613  0.20946  0.43408 11.00000  0.05180   6.89
N00T  2  0.85832  0.92552  0.83736 11.00000  0.06069   6.83
N00U  2  0.55019  0.83293  0.67054 11.00000  0.02342   6.56
C00V  1  0.10085  0.51390  0.60155 11.00000  0.03947   6.18
C00W  1  1.08114  0.56391  0.00174 11.00000  0.02577   6.06
C00X  1 -0.09678  0.63869  0.25377 11.00000  0.04702   6.00
C00Y  1  0.30044  0.27523  0.53951 11.00000  0.06270   5.85
C00Z  1  0.68091  0.22069  0.64472 11.00000  0.03997   5.76
C010  1  0.17147  0.31253  0.53593 11.00000  0.05227   5.53
C011  1  0.26939  0.37666  0.63608 11.00000  0.03081   5.46
C012  1  1.13218  1.08969  0.90922 11.00000  0.05149   5.37
O013  3  0.41452  0.81055  0.58160 11.00000  0.10037   5.35
C014  1  0.07617  0.12827  0.38831 11.00000  0.04607   5.09
C015  1  0.20455  0.16014  0.56797 11.00000  0.05854   5.00
C016  1  0.08640  0.57149  0.14674 11.00000  0.01657   4.97
C017  1  0.77962  0.83219  0.68045 11.00000  0.06435   4.87
C018  1  0.73997  0.62221  0.63655 11.00000  0.04331   4.74
C019  1  0.48441 -0.21515  0.27605 11.00000  0.03538   4.74
C01A  1  0.48288  0.28045  0.08912 11.00000  0.04221   4.73
C01B  1  0.31791  0.48960  0.62598 11.00000  0.05310   4.68
C01C  1  0.39651  0.75790  0.68974 11.00000  0.02417   4.66
C01D  1  0.68726  0.36412 -0.04633 11.00000  0.04527   4.66
C01E  1  0.55473  0.08316  0.30207 11.00000  0.03087   4.48
C01F  1  0.32377  0.92530  0.68122 11.00000  0.05062   4.41
C01G  1  0.13118  0.13341  0.28671 11.00000  0.01955   4.40
C01H  1  0.51344  0.88921  0.61100 11.00000  0.01748   4.40
C01I  1  0.98598  0.88714  0.69224 11.00000  0.03804   4.36
C01J  1  0.36206  0.34935  0.36919 11.00000  0.03421   4.32
C01K  1  0.59399  0.97544  0.75107 11.00000  0.07269   4.26
C01L  1  0.95164  1.04354  1.02223 11.00000  0.08260   4.25
C01M  1  0.48151 -0.10117  0.25181 11.00000  0.11431   4.13
C01N  1 -0.70925  0.54833  0.33719 11.00000  0.02267   3.99
C01O  1  0.57845  0.43597 -0.06719 11.00000  0.08963   3.90
C01P  1  0.88202  0.47577 -0.04395 11.00000  0.03289   3.87
C01Q  1  0.76159  0.61057  0.70174 11.00000  0.07414   3.84
C01R  1  0.59704  0.19515  0.68777 11.00000  0.09877   3.72
C01S  1  0.87263  0.71727 -0.08906 11.00000  0.01928   3.66
C01T  1  1.02135  0.43651  0.01376 11.00000  0.03217   3.65
C01U  1  0.02415  0.33483  0.14979 11.00000  0.04189   3.64
C01V  1  1.12002  0.53079 -0.08052 11.00000  0.03762   3.64
C01W  1  0.55101  0.18384  0.57460 11.00000  0.06053   3.49
C01X  1  1.20000  0.63615 -0.09286 11.00000  0.06782   3.44
O01Y  3  0.18100  0.04435  0.40215 11.00000  0.07665   3.04
C01Z  1  0.30305  0.39334  0.49230 11.00000  0.06393   3.02
HKLF 4
END
