TITL 19_a.res in P1
REM Old TITL 19 in P1
REM SHELXT solution in P1: R1 0.324, Rweak 0.290, Alpha 0.000
REM <I/s>   0.000 for    0 systematic absences,  Orientation as input
REM Flack x = -0.083 ( 0.473 ) from   120 Parsons' quotients
REM Formula found by SHELXT:  C36 N6 O11 Cl3

CELL  0.71073   4.8800  11.8200  19.4800   90.000   84.140   90.000
ZERR   15.000   0.0010   0.0024   0.0039    0.030    0.030    0.030
LATT -1
SFAC C N O CL
UNIT 15 15 15 15
L.S. 10
BOND
LIST 6
FMAP 2
PLAN 20
CL01  4  0.00233  0.69048  0.42131 11.00000  0.08106  23.39
O002  3  0.59044  0.55284  0.25621 11.00000  0.06877  14.83
C003  1 -0.18872  0.57522  0.81871 11.00000  0.07120  13.11
CL04  4  0.25196  1.02888  0.57078 11.00000  0.20265  11.06
O005  3 -0.06135  0.69033  0.35846 11.00000  0.03524  11.03
O006  3  0.12837  0.56984  0.51283 11.00000  0.09452  10.31
O007  3  0.28765  0.58560  0.34091 11.00000  0.07739  10.26
CL08  4  1.15188  0.34981  0.05953 11.00000  0.35711  10.18
O009  3 -0.26547  0.67683  0.77364 11.00000  0.10255   9.23
N00A  2 -0.78023  0.71096  0.90429 11.00000  0.11236   9.06
C00B  1  0.47434  0.25721  0.76574 11.00000  0.06758   8.38
C00C  1  0.50219  0.52861  0.26464 11.00000  0.06310   7.96
O00D  3  0.26081  0.33411  0.80351 11.00000  0.10390   7.95
O00E  3 -0.33078  0.56514  0.39898 11.00000  0.11209   7.93
N00F  2  0.47936  0.90192  0.65849 11.00000  0.04077   7.92
O00G  3 -0.86687  0.68303  1.20816 11.00000  0.15010   7.12
N00H  2  0.07353  0.73196  0.70649 11.00000  0.10173   7.07
N00I  2 -0.95213  0.97485  1.12931 11.00000  0.09720   6.91
N00J  2  1.44113  0.24734 -0.03318 11.00000  0.13903   6.84
O00K  3  0.39233 -0.07351  0.33450 11.00000  0.17148   6.80
O00L  3  0.96641  0.08419  0.34065 11.00000  0.11655   6.73
C00M  1  0.49775  0.91018  0.59961 11.00000  0.03529   6.67
N00N  2  0.17330  0.84280  0.74560 11.00000  0.08469   6.53
C00O  1  1.86591  0.11920 -0.17679 11.00000  0.04630   6.44
C00P  1  0.02343  1.12184  0.55958 11.00000  0.07350   6.39
C00Q  1  0.81014  0.40720  0.16582 11.00000  0.08470   6.25
C00R  1  0.31440  0.83227  0.62485 11.00000  0.03130   6.24
C00S  1  0.58677 -0.02201  0.31639 11.00000  0.13972   6.15
C00T  1  1.34742  0.25148  0.32106 11.00000  0.07812   5.83
C00U  1  0.13834  0.91454  0.65104 11.00000  0.10176   5.75
C00V  1 -0.97002  0.72264  1.00723 11.00000  0.11283   5.72
C00W  1 -0.62346  0.79987  1.09890 11.00000  0.09401   5.53
C00X  1 -0.83986  0.70767  0.95386 11.00000  0.07067   5.41
C00Y  1  0.03708  0.71712  0.52170 11.00000  0.07993   5.24
C00Z  1  2.07624  0.07710 -0.07512 11.00000  0.07005   5.20
C010  1 -1.07624  0.65807  0.93833 11.00000  0.07375   4.96
C011  1  0.05604  0.49754  0.74483 11.00000  0.10481   4.93
C012  1  0.56003  0.77918  0.56130 11.00000  0.06628   4.81
C013  1 -0.68319  0.73580  0.84989 11.00000  0.10860   4.81
C014  1  1.59727 -0.03188 -0.20816 11.00000  0.05682   4.56
C015  1  0.78814 -0.12184  0.26718 11.00000  0.07854   4.48
C016  1  0.39495  0.44769  0.59756 11.00000  0.07796   4.48
C017  1 -0.03896  0.45111  0.85177 11.00000  0.07608   4.41
C018  1  0.53734  0.49519  0.52027 11.00000  0.11438   4.39
C019  1  0.62851  0.98444  0.62906 11.00000  0.09423   4.32
C01A  1  1.82367  0.11868 -0.01396 11.00000  0.13660   4.28
C01B  1  1.24694  0.11833  0.36899 11.00000  0.08323   4.25
C01C  1 -0.31730  0.50288  0.85468 11.00000  0.06456   4.21
C01D  1 -0.70868  0.52358  0.90248 11.00000  0.09875   4.03
C01E  1  0.28364  0.65569  0.67009 11.00000  0.06194   3.95
C01F  1  0.25243  0.56721  0.64116 11.00000  0.05323   3.93
O01G  3  0.55770  0.25550  0.70164 11.00000  0.10032   3.81
C01H  1  0.25586  0.64706  0.72586 11.00000  0.10561   3.80
C01I  1  1.28302  0.30820  0.22599 11.00000  0.07925   3.67
C01J  1 -0.61748  0.88364  1.15899 11.00000  0.08447   3.38
C01K  1 -0.55406  0.64402  0.89405 11.00000  0.08147   3.34
HKLF 4
END
