TITL 1_a.res in Pm
REM Old TITL 1 in P2(1)
REM SHELXT solution in Pm: R1 0.202, Rweak 0.300, Alpha 0.046
REM <I/s>   0.000 for    0 systematic absences,  Orientation as input
REM Flack x =  0.300 ( 0.772 ) from    93 Parsons' quotients
REM Formula found by SHELXT:  C35 N9 O16 Cl6

CELL  0.71073   4.9100  11.6000  19.8254   90.000   96.941   90.000
ZERR   15.000   0.0010   0.0023   0.0040    0.000    0.030    0.000
LATT -1
SYMM X, -Y, Z
SFAC C N O CL
UNIT 15 15 15 15
L.S. 10
BOND
LIST 6
FMAP 2
PLAN 20
CL01  4 -0.42551  0.00000  0.05011 10.50000  0.10093  20.21
CL02  4 -0.18030  0.00000  0.12843 10.50000  0.12713  16.47
CL03  4  1.25928  0.91247  0.92842 11.00000  0.11096  16.26
O004  3  0.82342  0.35004  0.52301 11.00000  0.02579  11.19
N005  2  1.11468  1.00000  0.88134 10.50000  0.02494  11.09
O006  3  1.12651  0.66053  0.64542 11.00000  0.03460  10.30
CL07  4  0.54131  0.50000  0.24795 10.50000  0.13194  10.07
CL08  4  0.40430  0.50000 -0.04970 10.50000  0.12177   9.97
O009  3  0.54370  0.50000  0.51356 10.50000  0.07777   9.45
O00A  3 -0.15231  0.00000  0.23187 10.50000  0.07726   9.23
O00B  3  0.09933  0.50000  0.04152 10.50000  0.01250   8.99
O00C  3  1.23365  0.82961  1.04970 11.00000  0.04149   8.98
O00D  3  0.64897  0.25223  0.32082 11.00000  0.03565   8.68
O00E  3  0.75630  0.00000  0.44390 10.50000  0.14058   8.33
C00F  1  0.23530  0.50000  0.10537 10.50000  0.00814   7.92
C00G  1  0.40950  0.19270  0.26639 11.00000  0.01988   7.46
O00H  3  0.85239  0.50000  0.86458 10.50000  0.02696   7.34
N00I  2  0.31863  0.00000  0.21335 10.50000  0.02509   6.86
N00J  2  0.38126  0.50000  0.74801 10.50000  0.00010   6.82
N00K  2  0.78867  0.76029  0.95899 11.00000  0.07033   6.66
N00L  2  0.72250  0.81243  0.79004 11.00000  0.02146   6.63
C00M  1  0.76225  0.50000  0.61749 10.50000  0.00357   6.42
C00N  1  0.16634  0.40522  0.14771 11.00000  0.03743   6.40
C00O  1  1.09950 -0.16435  0.52916 11.00000  0.10428   6.32
C00P  1  1.05816  0.88448  0.88074 11.00000  0.04780   6.02
C00Q  1  0.91183  0.32073  0.38409 11.00000  0.07266   5.95
C00R  1  0.48668  0.00000  0.35021 10.50000  0.00713   5.88
O00S  3  0.26489  0.25452  0.21151 11.00000  0.08355   5.56
C00T  1  0.82146  0.50000  0.47224 10.50000  0.03254   5.13
N00U  2  0.18919  0.12161  0.27148 11.00000  0.04860   5.06
C00V  1  0.74832  0.15459  0.35954 11.00000  0.00796   4.96
C00W  1  0.34573  0.65787  0.77721 11.00000  0.05383   4.93
C00X  1  0.97031  0.50000  0.67215 10.50000  0.01414   4.89
C00Y  1  1.11918  1.00000  0.99960 10.50000  0.00720   4.80
C00Z  1  1.15928  0.00000  0.51601 10.50000  0.04127   4.53
C010  1  0.69082  0.28281  0.43911 11.00000  0.04203   4.24
C011  1  0.16972  0.00000  0.26776 10.50000  0.01070   4.22
O012  3  0.75867  0.50000  0.73143 10.50000  0.06056   4.18
C013  1  0.96415  0.85418  1.01838 11.00000  0.07473   4.12
C014  1  0.40606  0.72431  0.87718 11.00000  0.04588   3.70
C015  1  0.07130  0.00000  0.36047 10.50000  0.01295   3.50
C016  1  1.42551  0.69543  0.63654 11.00000  0.04109   3.43
C017  1  0.98989  0.67301  0.92652 11.00000  0.03971   3.15
C018  1  0.63947  0.63107  0.85328 11.00000  0.04666   3.11
HKLF 4
END
