TITL 21_a.res in P1
REM Old TITL 21 in P1
REM SHELXT solution in P1: R1 0.336, Rweak 0.463, Alpha 0.000
REM <I/s>   0.000 for    0 systematic absences,  Orientation as input
REM Flack x =  0.481 ( 0.642 ) from   109 Parsons' quotients
REM Formula found by SHELXT:  C38 N16 O19 Cl6

CELL  0.71073   4.9100  11.7100  19.8000   90.000   84.650   90.000
ZERR   15.000   0.0010   0.0023   0.0040    0.030    0.030    0.030
LATT -1
SFAC C N O CL
UNIT 15 15 15 15
L.S. 10
BOND
LIST 6
FMAP 2
PLAN 20
CL01  4  0.16939  0.74028  0.33498 11.00000  0.09651  17.71
CL02  4  1.52143  0.70027  0.17941 11.00000  0.09328  17.47
CL03  4  1.45286  0.70119  0.12439 11.00000  0.08976  16.52
CL04  4  0.21009  0.48457  0.53132 11.00000  0.10135  16.29
CL05  4  0.88429  0.88530  0.34685 11.00000  0.12062  16.02
C006  1  0.64262  0.73864  0.27973 11.00000  0.02044  14.53
CL07  4  0.89298  0.48221  0.17102 11.00000  0.09783  13.31
C008  1  0.22995  0.41602  0.66608 11.00000  0.01617  11.95
O009  3  0.92245  0.85830  0.27032 11.00000  0.02777  11.94
O00A  3  0.10286  0.17874  0.49646 11.00000  0.06079  11.81
O00B  3  0.04549  0.89497  0.93342 11.00000  0.05265  11.38
N00C  2  0.31465  0.65424  0.35477 11.00000  0.01288  11.12
O00D  3  0.68503  0.97783  0.38224 11.00000  0.03068  10.88
O00E  3 -0.21009 -0.08128  0.66489 11.00000  0.07455  10.38
N00F  2  0.31916  0.45782  0.58537 11.00000  0.04344  10.36
C00G  1 -0.25862  0.73494  0.73528 11.00000  0.03031   9.87
O00H  3  0.67518  0.37025  0.20129 11.00000  0.08358   9.78
O00I  3 -0.46994  0.07217  0.55222 11.00000  0.04888   9.58
O00J  3  0.51494  0.15971  0.25667 11.00000  0.03055   9.50
N00K  2  0.48783  0.57439  0.35146 11.00000  0.03440   9.49
N00L  2  0.23893  0.20615  0.40525 11.00000  0.08658   9.35
O00M  3  0.22261  0.49309  0.30769 11.00000  0.06268   9.11
N00N  2  1.07563  0.54045  0.12656 11.00000  0.05771   9.10
N00O  2  0.46814  0.38070  0.61487 11.00000  0.03474   8.95
O00P  3 -0.52143  0.04053  0.47073 11.00000  0.03118   8.81
O00Q  3  0.39679  0.95300  0.94843 11.00000  0.07550   8.39
O00R  3  0.02109  0.77440  0.80614 11.00000  0.03964   8.33
O00S  3 -0.14623  0.28023  0.80139 11.00000  0.04927   8.12
N00T  2  0.27181  0.60224  0.46012 11.00000  0.02786   8.01
C00U  1  0.06555  0.36983  0.70909 11.00000  0.03959   7.87
O00V  3  0.10742  0.91125  1.13004 11.00000  0.07893   7.66
C00W  1  0.63800  0.10709  0.28439 11.00000  0.00843   7.49
N00X  2  0.21711  0.18420  0.62239 11.00000  0.05477   7.19
N00Y  2 -0.40508  1.07667  1.03226 11.00000  0.06167   6.98
N00Z  2  1.21119  0.48547  0.03404 11.00000  0.04251   6.95
N010  2  0.20099  0.03310  0.35741 11.00000  0.03425   6.91
N011  2  0.23869  0.29688  0.27834 11.00000  0.11035   6.85
N012  2  0.08097  0.59387  0.33141 11.00000  0.02673   6.81
C013  1 -0.08570  0.29314  0.48940 11.00000  0.02634   6.78
N014  2  0.10565  0.68790  0.58192 11.00000  0.06610   6.74
N015  2  0.39737  0.29295  0.58378 11.00000  0.03533   6.73
N016  2  1.27803  0.54871 -0.13004 11.00000  0.05469   6.53
C017  1  0.47382  0.45273  0.25465 11.00000  0.05584   6.45
C018  1 -0.12592  0.79809  0.59370 11.00000  0.05125   6.36
C019  1  0.73157  0.60341 -0.08015 11.00000  0.05582   6.15
C01A  1 -0.35511  0.32560  0.34155 11.00000  0.00921   5.97
C01B  1  0.96749  0.42262 -0.05151 11.00000  0.03368   5.93
C01C  1  0.09453  0.77776  0.67270 11.00000  0.03289   5.83
O01D  3  0.65168  0.63185  0.27675 11.00000  0.03322   5.82
O01E  3 -0.20408  0.38753  0.49657 11.00000  0.05837   5.60
O01F  3  1.35941  0.27538 -0.04868 11.00000  0.03323   5.58
C01G  1  0.91349  0.88959  0.43656 11.00000  0.05457   5.25
C01H  1  1.05591  0.46776  0.03391 11.00000  0.04316   5.25
O01I  3 -0.43768  0.68369  0.68672 11.00000  0.09088   5.05
C01J  1  0.38994  0.56532  0.42361 11.00000  0.01282   4.95
C01K  1  0.17067  0.22414  0.36308 11.00000  0.03124   4.94
C01L  1 -0.00011  0.39701  0.25516 11.00000  0.05805   4.93
C01M  1  1.01618  0.31137  0.07408 11.00000  0.03719   4.86
C01N  1 -0.11911  0.10143  0.53413 11.00000  0.04064   4.78
C01O  1  0.16936  0.09145  0.29709 11.00000  0.03681   4.78
C01P  1  0.08033  0.85806  1.02302 11.00000  0.04156   4.75
C01Q  1  0.39470  0.90425  0.82457 11.00000  0.03008   4.70
C01R  1  0.76780  0.53911  0.10883 11.00000  0.03398   4.62
C01S  1 -0.36254  0.10881  0.45783 11.00000  0.07992   4.58
C01T  1 -0.02316  1.06039  1.07562 11.00000  0.06834   4.32
C01U  1 -0.12095  0.35915  0.39646 11.00000  0.06534   4.20
C01V  1  1.11649  0.84628  0.44331 11.00000  0.04811   4.18
C01W  1  0.31659  0.61848  0.56693 11.00000  0.03711   3.87
O01X  3  0.69313  0.40709 -0.10490 11.00000  0.16694   3.82
C01Y  1 -0.30449  0.27002  0.76283 11.00000  0.04574   3.65
C01Z  1  0.87090  0.36590 -0.02364 11.00000  0.06318   3.63
C020  1  1.20016  0.26350  0.01264 11.00000  0.07753   3.49
C021  1  1.29465  0.63562  0.13132 11.00000  0.04664   3.34
C022  1  0.55080  0.56417  0.52882 11.00000  0.03342   3.31
C023  1 -0.27445 -0.02747  0.59413 11.00000  0.11731   3.31
C024  1  0.62029  0.49770  0.37601 11.00000  0.03706   3.26
C025  1  1.29590  0.63429  0.01330 11.00000  0.02279   3.24
C026  1  0.38483  1.08128  0.74325 11.00000  0.07713   3.21
C027  1  1.29826  0.80726  0.49483 11.00000  0.03892   3.16
HKLF 4
END
