TITL 23_a.res in P1
REM Old TITL 23 in P1
REM SHELXT solution in P1: R1 0.377, Rweak 0.530, Alpha 0.000
REM <I/s>   0.000 for    0 systematic absences,  Orientation as input
REM Flack x = -0.257 ( 0.595 ) from   213 Parsons' quotients
REM Formula found by SHELXT:  C49 N10 O14 Cl2

CELL  0.71073   4.9200  11.6800  19.6900   90.000   84.720   90.000
ZERR   15.000   0.0010   0.0023   0.0039    0.030    0.030    0.030
LATT -1
SFAC C N O CL
UNIT 15 15 15 15
L.S. 10
BOND
LIST 6
FMAP 2
PLAN 20
CL01  4  0.37543  0.13252  0.40094 11.00000  0.09012  14.51
O002  3  0.57669  0.56307  0.61528 11.00000  0.04950  12.47
N003  2  1.32916  0.41705  0.10443 11.00000  0.05929  11.61
C004  1  0.98890  0.72749  0.76912 11.00000  0.00619  11.09
O005  3  0.80505  0.60563  0.62074 11.00000  0.03779  10.83
CL06  4  1.21392  1.12279  0.65041 11.00000  0.12193   9.98
O007  3  1.13657  0.70358  0.81172 11.00000  0.05604   9.26
N008  2  1.12223  0.36899  0.09403 11.00000  0.03071   8.79
O009  3  1.24864  0.40180  0.05968 11.00000  0.02688   8.78
O00A  3  0.21462 -0.02235  0.16991 11.00000  0.04535   8.58
N00B  2  0.51749  0.53086  0.72101 11.00000  0.05246   8.12
O00C  3  0.21712  1.02921  0.94035 11.00000  0.08838   7.68
O00D  3 -0.61240 -0.31897  0.27053 11.00000  0.04281   7.66
N00E  2  0.20509  0.05206  0.39642 11.00000  0.08053   7.31
C00F  1  0.64701  0.89643  0.76114 11.00000  0.04015   7.21
N00G  2  1.04295  0.20560  0.52164 11.00000  0.02511   7.13
C00H  1 -0.02704  1.09704  0.90568 11.00000  0.02105   7.06
C00I  1  0.91452  0.33899  0.23106 11.00000  0.04264   7.04
C00J  1 -0.26241 -0.17875  0.29327 11.00000  0.02150   7.01
N00K  2 -0.02019  0.08744  0.40498 11.00000  0.03999   6.83
O00L  3  0.59119  0.81568  0.94677 11.00000  0.06138   6.66
N00M  2  0.31860  0.60943  0.69672 11.00000  0.04088   6.54
N00N  2  0.63979  0.87845  0.64517 11.00000  0.03323   6.52
C00O  1  0.81391  1.23291  0.75186 11.00000  0.01405   6.32
C00P  1  0.54772  0.97504  0.66699 11.00000  0.02286   6.31
C00Q  1  1.34917  0.62156  0.13939 11.00000  0.08662   6.25
C00R  1  0.85362  0.38232  0.60064 11.00000  0.04390   6.18
C00S  1 -0.55344 -0.28154  0.23656 11.00000  0.01957   6.08
C00T  1  1.05826  0.47338  0.42406 11.00000  0.04195   6.02
C00U  1  0.67831  0.88980  0.69318 11.00000  0.03077   5.98
C00V  1  0.96855  0.77446  0.70090 11.00000  0.02478   5.87
C00W  1  0.86089  0.33036  0.53889 11.00000  0.05830   5.78
C00X  1  0.66333  0.73745  0.92731 11.00000  0.09724   5.75
C00Y  1  1.20036  0.38626  0.17574 11.00000  0.01348   5.75
C00Z  1  0.57602  1.31897  0.76701 11.00000  0.03759   5.58
O010  3  0.73318  0.12133  0.18632 11.00000  0.07840   5.50
C011  1  0.47527  0.80246  0.65211 11.00000  0.05008   5.49
C012  1  1.16624  0.48868  0.16808 11.00000  0.05445   5.26
C013  1  0.83481  0.83133  0.66360 11.00000  0.03338   5.22
C014  1  0.63155  0.22415  0.56237 11.00000  0.03694   5.14
O015  3  1.00887  0.31417  0.61732 11.00000  0.06247   5.08
C016  1  0.96288  0.55640  0.56967 11.00000  0.03706   4.97
C017  1  0.25552  0.03500  0.30672 11.00000  0.06385   4.85
C018  1  1.31983  0.38919  0.57958 11.00000  0.08077   4.81
C019  1  0.13881  0.84207  0.90865 11.00000  0.04508   4.79
C01A  1  0.26386  0.97637  0.52877 11.00000  0.03169   4.76
C01B  1 -0.27798 -0.18164  0.20959 11.00000  0.04483   4.73
O01C  3  0.52885  0.88937  0.83563 11.00000  0.05590   4.71
O01D  3 -0.13689 -0.23078  0.28159 11.00000  0.09733   4.65
C01E  1  0.68475  0.63469  0.74587 11.00000  0.02491   4.65
C01F  1  0.46464  0.95778  0.59913 11.00000  0.05335   4.62
O01G  3  1.61240  0.51554  0.00845 11.00000  0.08006   4.59
C01H  1 -0.02631 -0.09910  0.35564 11.00000  0.05777   4.51
C01I  1  1.01717  0.63012  0.45388 11.00000  0.04644   4.39
C01J  1  0.76378  0.38874  0.05608 11.00000  0.04678   4.38
N01K  2 -0.45518 -0.24191  0.39992 11.00000  0.06696   4.29
C01L  1  1.09278  0.70201  0.63556 11.00000  0.07031   4.29
C01M  1  0.64359  0.86776  0.57180 11.00000  0.05269   4.18
C01N  1  0.94691  0.24910  0.06777 11.00000  0.04609   4.14
O01O  3  1.05492  0.32269  0.27968 11.00000  0.08881   4.02
C01P  1  0.94637  1.16369  0.78637 11.00000  0.04303   3.91
C01Q  1 -0.22237  1.20340  0.91582 11.00000  0.05462   3.78
N01R  2  0.81039  0.30064  0.48720 11.00000  0.03667   3.77
C01S  1  1.55264  0.56587  0.07333 11.00000  0.06320   3.66
C01T  1  0.33210  0.18615  0.32420 11.00000  0.08139   3.60
C01U  1  0.29178  0.50257  0.74910 11.00000  0.02643   3.55
C01V  1  1.18241  0.47086  0.30444 11.00000  0.04193   3.50
C01W  1  0.55339  0.98626  0.50896 11.00000  0.07238   3.49
C01X  1  0.59217  0.19738  0.16300 11.00000  0.03318   3.47
C01Y  1 -0.48236  1.20377  0.99641 11.00000  0.08050   3.46
C01Z  1  0.68102  0.26099  0.27764 11.00000  0.03642   3.40
C020  1  1.13310  0.54351  0.00359 11.00000  0.05927   3.39
C021  1  0.29115  1.28579  0.87101 11.00000  0.06443   3.23
C022  1  0.43073  0.00462  0.32638 11.00000  0.04099   3.01
C023  1  0.93713  1.05782  0.74482 11.00000  0.07117   3.01
HKLF 4
END
