TITL 25_b.res in P1
REM Old TITL 25 in P1
REM SHELXT solution in P1: R1 0.381, Rweak 0.055, Alpha 0.000
REM <I/s>   0.000 for    0 systematic absences,  Orientation as input
REM Flack x =  0.240 ( 0.708 ) from   175 Parsons' quotients
REM Formula found by SHELXT:  C4 N O3 Cl

CELL  0.71073   4.9200  11.3600  21.8800   90.000   86.760   90.000
ZERR   16.000   0.0010   0.0023   0.0044    0.030    0.030    0.030
LATT -1
SFAC C N O CL
UNIT 16 16 16 16
L.S. 10
BOND
LIST 6
FMAP 2
PLAN 20
CL01  4  0.59493  0.45066  0.35534 11.00000  0.05134  15.32
O002  3  0.44464  0.50259  0.32287 11.00000  0.09374  11.08
O003  3  0.65307  0.40407  0.36319 11.00000  0.08477  10.36
O004  3  0.47899  0.40041  0.41832 11.00000  0.03087   9.66
C005  1  0.72235  0.27805  0.48975 11.00000  0.11888   5.18
C006  1  0.79491  0.58290  0.59945 11.00000  0.15604   4.92
C007  1  0.70354  0.72195  0.52416 11.00000  0.14654   4.46
N008  2  0.36340  0.32674  0.67713 11.00000  0.09431   4.30
C009  1  0.20509  0.58311  0.39837 11.00000  0.08546   3.23
HKLF 4
END
