TITL 26_a.res in P1
REM Old TITL 26 in P1
REM SHELXT solution in P1: R1 0.393, Rweak 0.407, Alpha 0.000
REM <I/s>   0.000 for    0 systematic absences,  Orientation as input
REM Flack x =  0.427 ( 3.005 ) from    14 Parsons' quotients
REM Formula found by SHELXT:  C36 N11 O20 Cl4

CELL  0.71073   4.9100  11.7400  20.3700   90.000   85.660   90.000
ZERR   16.000   0.0010   0.0023   0.0041    0.030    0.030    0.030
LATT -1
SFAC C N O CL
UNIT 16 16 16 16
L.S. 10
BOND
LIST 6
FMAP 2
PLAN 20
CL01  4  0.60680  0.96842  0.87001 11.00000  0.08073  17.46
CL02  4  0.54772  0.31885 -0.03718 11.00000  0.12161  13.79
O003  3  1.15665  0.13048  0.02312 11.00000  0.00297  12.09
C004  1  0.83603  1.05685  0.73730 11.00000  0.03262  11.55
C005  1  0.79362  0.30491  0.04369 11.00000  0.00010  11.26
O006  3  0.67953  0.32060  0.04140 11.00000  0.03679  10.93
CL07  4  0.92992  0.37316 -0.15950 11.00000  0.09525  10.90
N008  2  1.20189  0.46062 -0.02680 11.00000  0.09687  10.68
O009  3  0.32489  0.21081  0.35687 11.00000  0.03533  10.37
O00A  3  1.35118  0.46148  0.00880 11.00000  0.07047   9.89
CL0B  4  0.37251  0.42893  0.61713 11.00000  0.13488   9.52
O00C  3  0.72292  1.02094  0.78831 11.00000  0.01151   9.27
O00D  3  1.32159  0.10506  0.11278 11.00000  0.07785   9.22
O00E  3  1.07560  0.70549  0.67898 11.00000  0.04033   8.89
O00F  3  0.36567  0.38644  0.27217 11.00000  0.06987   8.59
O00G  3  1.07794  0.23877 -0.05740 11.00000  0.00010   8.53
N00H  2  1.24857  0.07502  0.05813 11.00000  0.00010   8.52
O00I  3  1.23126  0.19590 -0.10215 11.00000  0.01394   8.14
O00J  3  0.65814  0.85032  0.69770 11.00000  0.04010   8.00
N00K  2  1.25793  0.37651  0.01861 11.00000  0.04623   7.99
O00L  3  1.15497  0.80672  0.71677 11.00000  0.06735   7.91
O00M  3  0.75664  0.93619  0.89931 11.00000  0.03728   7.64
O00N  3  0.51003  0.90618  1.14625 11.00000  0.11629   7.62
O00O  3 -0.10169  0.64734  0.39104 11.00000  0.11609   7.46
O00P  3  0.53190  0.87922  1.00454 11.00000  0.04105   7.42
N00Q  2  1.43778  0.51150 -0.10214 11.00000  0.09818   7.37
N00R  2  0.95348  0.78907  0.62389 11.00000  0.08447   7.25
N00S  2  1.01401  0.18442  0.04772 11.00000  0.04278   7.10
C00T  1  0.72772  0.88420  1.03116 11.00000  0.03962   7.05
N00U  2 -0.27856  0.57090  0.45685 11.00000  0.07256   6.87
N00V  2  0.21650  0.40341  0.22449 11.00000  0.06014   6.80
N00W  2  0.96850  0.17133  0.17550 11.00000  0.01501   6.72
C00X  1  0.27917  0.49118  0.35638 11.00000  0.05205   6.43
C00Y  1  0.49915 -0.01269  0.39747 11.00000  0.03381   6.43
C00Z  1  0.15192  0.40460  0.31941 11.00000  0.06769   6.41
O010  3  0.69627  0.25380  0.19833 11.00000  0.12249   6.28
C011  1  1.38311  0.61551  0.19859 11.00000  0.04100   6.25
C012  1 -0.06687  0.15497  0.48320 11.00000  0.01703   6.24
C013  1  0.35098  0.95117  0.86610 11.00000  0.04264   6.22
C014  1  0.24380  0.84044  1.17399 11.00000  0.03198   6.08
O015  3  0.91772  0.37799  0.04236 11.00000  0.03417   6.06
C016  1  0.12981  0.62945  0.33533 11.00000  0.06258   6.01
C017  1  0.41319  0.89417  1.10086 11.00000  0.01106   5.82
C018  1  1.15715  0.42376 -0.17399 11.00000  0.03856   5.71
C019  1  0.14443  0.25188  0.38523 11.00000  0.05722   5.50
O01A  3  0.52604  0.62250  0.59145 11.00000  0.07047   5.42
C01B  1  0.19836  0.48424  0.41780 11.00000  0.15027   5.35
C01C  1  0.25283  0.66117  0.46091 11.00000  0.04615   5.32
C01D  1  0.51108  0.72479  1.06034 11.00000  0.03025   5.24
C01E  1  0.90675  0.33493  0.18720 11.00000  0.07570   5.12
N01F  2  0.92402  1.07878  0.72041 11.00000  0.04608   4.92
C01G  1  0.43314  0.73842  0.52146 11.00000  0.04219   4.89
C01H  1  0.00615  0.22804  0.52766 11.00000  0.02738   4.83
C01I  1  1.36597  0.70604  0.80613 11.00000  0.01481   4.70
C01J  1  0.81818  0.65149  0.61662 11.00000  0.07101   4.60
C01K  1  0.40958  0.11086  0.42258 11.00000  0.03065   4.53
C01L  1  0.37349  0.36296  0.14528 11.00000  0.04543   4.42
O01M  3  0.81428  0.90251  1.09061 11.00000  0.08334   4.38
C01N  1  0.24233 -0.09936  0.34366 11.00000  0.04258   4.35
C01O  1  0.99364  0.84502  0.82121 11.00000  0.03548   4.03
C01P  1 -0.43778  0.23793  0.49545 11.00000  0.04961   4.03
C01Q  1  0.47831  1.09936  0.70876 11.00000  0.05674   3.93
C01R  1  1.00096  0.53337  0.12749 11.00000  0.02914   3.83
C01S  1  0.06842  0.18228  0.41480 11.00000  0.04471   3.78
C01T  1  1.07063  0.11841 -0.11857 11.00000  0.01612   3.36
N01U  2  0.98501 -0.00586  0.24380 11.00000  0.04939   3.29
C01V  1  0.32643  0.85734  0.58372 11.00000  0.04203   3.29
C01W  1  1.38129  0.56575  0.74837 11.00000  0.07985   3.22
C01X  1  0.50816  0.27860  0.20096 11.00000  0.03019   3.13
C01Y  1  0.15968  0.13786  0.50880 11.00000  0.10029   3.07
C01Z  1  0.39494  0.75127  0.99949 11.00000  0.01150   3.01
HKLF 4
END
