TITL 29_a.res in P1
REM Old TITL 29 in P1
REM SHELXT solution in P1: R1 0.409, Rweak 0.345, Alpha 0.000
REM <I/s>   0.000 for    0 systematic absences,  Orientation as input
REM Flack x = -1.793 ( 1.276 ) from    19 Parsons' quotients
REM Formula found by SHELXT:  C51 N17 O19 Cl6

CELL  0.71073   4.9100  11.8000  22.4100   90.000   85.360   90.000
ZERR   17.000   0.0010   0.0024   0.0045    0.030    0.030    0.030
LATT -1
SFAC C N O CL
UNIT 17 17 17 17
L.S. 10
BOND
LIST 6
FMAP 2
PLAN 20
CL01  4  0.34098  0.75277  0.62790 11.00000  0.11290  17.17
CL02  4  0.22503  0.74701  0.65821 11.00000  0.10048  14.42
CL03  4  0.47257  0.41205  0.71930 11.00000  0.09084  14.25
CL04  4  0.68232  0.61812  0.58793 11.00000  0.09812  13.49
C005  1  0.21330  0.83135  0.55405 11.00000  0.02701  13.04
O006  3  0.31858 -0.01907  0.80326 11.00000  0.23961  12.22
N007  2  0.13367  0.72779  0.68688 11.00000  0.03060  12.17
O008  3  0.04448  0.73857  0.78090 11.00000  0.05908  12.02
O009  3  0.16726  0.76078  0.74849 11.00000  0.04988  11.95
O00A  3  0.81351  0.57349  0.55621 11.00000  0.01814  11.78
N00B  2  0.07970  0.28437  0.70369 11.00000  0.04652  11.35
N00C  2  0.29284  0.12211  0.84896 11.00000  0.00473  11.05
N00D  2 -0.06847  0.96504  0.40279 11.00000  0.04425  10.67
N00E  2 -0.31654  0.14055  0.71953 11.00000  0.09486  10.08
CL0F  4  1.25674  0.24817 -0.05626 11.00000  0.16277  10.08
C00G  1 -0.06644  0.18494  0.67788 11.00000  0.02204  10.01
N00H  2  0.47306  0.03720  0.82327 11.00000  0.01726   9.87
CL0I  4  0.28398  0.42521  0.32850 11.00000  0.20915   9.52
O00J  3  0.80340  0.51493  0.86709 11.00000  0.06181   9.38
O00K  3  0.04464  0.23941  0.59069 11.00000  0.05090   9.25
O00L  3  0.59069  1.05578  0.57305 11.00000  0.16349   9.22
O00M  3  0.21910  0.85311  0.33712 11.00000  0.09214   9.21
O00N  3 -0.02534  0.90238  0.59026 11.00000  0.06405   8.84
O00O  3  0.00149  0.44723  0.24845 11.00000  0.08080   8.42
O00P  3  0.11155  0.62923  0.17837 11.00000  0.04666   8.28
N00Q  2  0.36078  0.71621  0.91111 11.00000  0.03623   8.24
O00R  3  1.05855  0.29592  0.01053 11.00000  0.05038   8.22
O00S  3 -0.35773  0.85521  0.33248 11.00000  0.05060   8.17
O00T  3  0.89360  0.21994  0.31602 11.00000  0.07467   8.14
O00U  3  0.24015  0.31852  0.55747 11.00000  0.03134   8.01
O00V  3  0.19753  0.69683  0.89845 11.00000  0.07148   7.70
O00W  3  0.35453  0.37557  0.77203 11.00000  0.06236   7.60
C00X  1  0.44266  0.40641  0.44857 11.00000  0.13087   7.60
N00Y  2 -0.38034  0.17235  0.78688 11.00000  0.00712   7.15
N00Z  2  0.61060  0.44148  0.89111 11.00000  0.12155   7.13
N010  2  1.43403  0.14361  0.01902 11.00000  0.04081   7.07
N011  2  0.75820  0.38217  0.89164 11.00000  0.07151   6.93
N012  2  0.73711  0.68295  0.46388 11.00000  0.04959   6.84
N013  2  0.69610 -0.04617  0.77159 11.00000  0.03701   6.84
N014  2  0.30286  0.36374  0.68412 11.00000  0.04572   6.82
N015  2  0.46756  0.90397  0.57847 11.00000  0.09347   6.80
O016  3  0.28105  0.44236  0.41055 11.00000  0.09311   6.59
N017  2  0.65503  0.36325  0.41981 11.00000  0.04251   6.54
C018  1  0.52894  0.67586  0.96428 11.00000  0.03354   6.47
C019  1 -0.43403  0.01892  0.70826 11.00000  0.04105   6.43
C01A  1  0.81687  0.23854  0.17984 11.00000  0.05117   6.38
C01B  1  0.45839  0.58314  0.63693 11.00000  0.06859   6.31
C01C  1  0.09891  0.79579  0.12776 11.00000  0.03601   6.27
C01D  1 -0.23610  0.90416  0.39038 11.00000  0.05508   6.15
C01E  1  0.97242  0.51717  0.50222 11.00000  0.02912   6.14
C01F  1  1.11016  0.18093  0.10885 11.00000  0.07366   6.10
C01G  1  0.19255  0.56506  0.22317 11.00000  0.05753   6.09
C01H  1  0.05420  0.83921  0.52903 11.00000  0.10942   5.91
C01I  1  0.45501  0.09253  0.87361 11.00000  0.01401   5.90
C01J  1  0.78798 -0.03696  0.91906 11.00000  0.04612   5.86
C01K  1 -0.20713  0.93073  0.47750 11.00000  0.03051   5.84
C01L  1  0.88349 -0.02293  0.99195 11.00000  0.02790   5.82
C01M  1  0.99761 -0.08636  1.00441 11.00000  0.05599   5.78
C01N  1  0.63954  0.46119  0.82402 11.00000  0.03999   5.74
C01O  1  0.48732  0.82792  0.25177 11.00000  0.06147   5.65
C01P  1  0.81884  0.00565  0.81165 11.00000  0.03276   5.63
C01Q  1  0.31243  0.67891  0.81692 11.00000  0.03526   5.51
C01R  1 -0.08233  0.24151  0.77848 11.00000  0.04965   5.50
C01S  1  0.94951  0.02758  0.85396 11.00000  0.07398   5.43
C01T  1  1.06034  0.21914  0.28099 11.00000  0.08597   5.42
C01U  1  0.02377  0.64524  1.04246 11.00000  0.10166   5.41
C01V  1 -0.03991  0.81414  0.28496 11.00000  0.03595   5.33
C01W  1  0.07029  0.83962  0.36744 11.00000  0.01541   5.31
C01X  1  0.53099  0.15686  0.25623 11.00000  0.09059   5.16
C01Y  1  0.10225  0.26254  0.63260 11.00000  0.03536   5.14
C01Z  1  0.19879  0.88243  0.38558 11.00000  0.01836   5.13
C020  1  0.07175  0.50761  0.14737 11.00000  0.03901   5.10
C021  1 -0.23847  0.48216  1.01366 11.00000  0.04713   5.02
C022  1  0.20675  0.54716  0.67643 11.00000  0.03611   4.92
C023  1  0.41943  0.46251  0.24732 11.00000  0.05719   4.66
C024  1  0.60694 -0.11332  0.85533 11.00000  0.04233   4.61
O025  3  0.10491  0.46806  0.64466 11.00000  0.18659   4.57
C026  1  0.65168  1.11332  0.54521 11.00000  0.04771   4.55
C027  1 -0.10706  0.85585  0.16791 11.00000  0.03314   4.53
C028  1  0.17469  0.16434  0.80362 11.00000  0.01718   4.24
C029  1  0.02675  0.24862  0.47592 11.00000  0.08399   4.20
C02A  1 -0.05299  0.86311  0.70043 11.00000  0.04894   4.15
C02B  1  0.25771  0.76783  0.22902 11.00000  0.04004   4.02
C02C  1  0.75039 -0.05060  0.84903 11.00000  0.05743   3.88
C02D  1  0.26477  0.94613  0.25069 11.00000  0.04235   3.81
N02E  2  0.79340 -0.08671  0.96526 11.00000  0.08070   3.64
C02F  1  0.31632  0.57173  0.68748 11.00000  0.05904   3.46
C02G  1 -0.22070  0.60175  1.05626 11.00000  0.03597   3.35
C02H  1  0.68094  0.30622  0.21555 11.00000  0.06784   3.32
C02I  1  0.20245  0.97455  0.18195 11.00000  0.02528   3.17
C02J  1  0.09532  0.85796  0.43442 11.00000  0.06057   3.12
C02K  1  0.27499  0.68883  0.96291 11.00000  0.05912   3.06
C02L  1  0.37779  0.54169  0.94109 11.00000  0.07432   3.03
HKLF 4
END
