TITL 2_a.res in P1
REM Old TITL 2 in P1
REM SHELXT solution in P1: R1 0.308, Rweak 0.437, Alpha 0.000
REM <I/s>   0.000 for    0 systematic absences,  Orientation as input
REM Flack x = -0.018 ( 0.693 ) from   144 Parsons' quotients
REM Formula found by SHELXT:  C46 N11 O6 Cl2

CELL  0.71073   4.9200  11.6200  20.0500   90.000   84.220   90.000
ZERR   15.000   0.0010   0.0023   0.0040    0.030    0.030    0.030
LATT -1
SFAC C N O CL
UNIT 15 15 15 15
L.S. 10
BOND
LIST 6
FMAP 2
PLAN 20
CL01  4  0.31172  0.70208  0.62684 11.00000  0.05462  23.56
N002  2  0.31162  0.72028  0.70887 11.00000  0.00767  12.46
N003  2  0.48013  0.77699  0.62503 11.00000  0.00058  12.22
N004  2  0.43575  0.64679  0.67020 11.00000  0.00010  11.43
O005  3  0.28307  0.36788 -0.00355 11.00000  0.02240  11.03
CL06  4  0.94833  0.54343  0.19371 11.00000  0.13007  10.03
C007  1  1.01264  0.80499  0.94939 11.00000  0.01974   9.18
O008  3  0.79788  0.48396  0.66607 11.00000  0.01341   8.62
C009  1  0.58202  0.75732  0.92138 11.00000  0.00253   8.43
N00A  2 -0.23845  0.93124  0.65087 11.00000  0.00010   8.15
N00B  2  0.51611  0.40166  0.78892 11.00000  0.05352   7.38
N00C  2 -0.07784  0.79565  0.79291 11.00000  0.08961   7.32
N00D  2 -0.04982  0.89365  0.65798 11.00000  0.04795   7.22
N00E  2 -0.06216  0.73327  0.73848 11.00000  0.04867   6.96
O00F  3  0.60175  0.13541  0.17628 11.00000  0.01797   6.73
C00G  1  0.55936  0.08315  0.56939 11.00000  0.05414   6.44
C00H  1  1.03661  0.20684  0.58295 11.00000  0.02877   6.41
C00I  1  0.17597  0.69091  0.76440 11.00000  0.02693   6.35
C00J  1  0.56210  0.45447  0.30630 11.00000  0.01284   5.98
C00K  1  0.65300  0.19107  0.54902 11.00000  0.01527   5.94
C00L  1  0.14291  0.39331  0.54494 11.00000  0.05036   5.92
C00M  1  1.32572  0.87895  0.96029 11.00000  0.07639   5.79
O00N  3 -0.43616  0.92229  0.64802 11.00000  0.02404   5.68
C00O  1  0.91105  0.35127  0.74263 11.00000  0.02471   5.56
C00P  1  0.77408  0.32804  0.64299 11.00000  0.01729   5.53
C00Q  1  0.58481  0.36965  0.70995 11.00000  0.07463   5.44
C00R  1  0.42329  0.35520  0.04344 11.00000  0.02566   5.36
C00S  1  0.65695  0.60752  0.61361 11.00000  0.00010   5.33
C00T  1  0.27010  0.49623  0.54714 11.00000  0.02112   5.24
C00U  1 -0.31078  0.88831  0.70900 11.00000  0.01531   5.19
C00V  1  0.62567  0.14265  0.42539 11.00000  0.00405   5.19
N00W  2  0.23631  0.47492  0.45781 11.00000  0.01732   5.13
C00X  1  0.23491  0.59764  0.42202 11.00000  0.03205   5.10
C00Y  1  0.66159  0.53854  0.32744 11.00000  0.00499   5.07
C00Z  1 -0.50314  0.84492  0.78949 11.00000  0.04397   4.90
C010  1  0.77814  0.54302  0.79457 11.00000  0.00010   4.79
C011  1  0.41511  0.41132  0.85247 11.00000  0.00010   4.68
C012  1  1.03562  0.13412  0.19741 11.00000  0.03598   4.65
C013  1  0.26425  0.52243  0.64774 11.00000  0.00010   4.65
C014  1  0.66258  0.27444  0.57510 11.00000  0.00618   4.62
C015  1  0.77785  0.17303  0.58918 11.00000  0.00051   4.58
C016  1  1.50314  0.97533  1.00355 11.00000  0.02138   4.53
C017  1  0.94608  0.23067  0.65011 11.00000  0.01672   4.51
C018  1  0.94671  0.56007  0.70356 11.00000  0.09107   4.33
O019  3  0.74152  0.87064  0.90149 11.00000  0.07473   4.30
C01A  1  0.76447  0.65378  0.86431 11.00000  0.00954   4.13
C01B  1  0.97874  0.67776  0.17418 11.00000  0.01824   4.02
C01C  1  0.62976  0.37936  0.53469 11.00000  0.00010   3.94
C01D  1 -0.10690  0.80935  0.45686 11.00000  0.09542   3.93
C01E  1  0.27322  0.58769  0.53409 11.00000  0.00661   3.90
O01F  3  1.12334  0.73650  0.96544 11.00000  0.06857   3.88
C01G  1  0.84124  0.33673  0.47544 11.00000  0.00181   3.79
C01H  1  0.45515  0.86764  0.55919 11.00000  0.04864   3.64
N01I  2  0.67523  0.62524  0.29544 11.00000  0.04866   3.58
C01J  1  0.78265  0.02467  0.50210 11.00000  0.00010   3.53
C01K  1  0.37656  0.15715  0.09103 11.00000  0.00865   3.51
C01L  1  0.78468  0.05269  0.08489 11.00000  0.04267   3.44
C01M  1  0.05829  0.91154  0.55890 11.00000  0.00010   3.42
C01N  1  0.66666  0.19334  0.21148 11.00000  0.02061   3.42
C01O  1 -0.17796  0.76131  0.68357 11.00000  0.00010   3.39
C01P  1  0.99322  0.48755  0.86834 11.00000  0.03018   3.20
N01Q  2  0.94671  0.26044  0.84585 11.00000  0.04662   3.20
C01R  1  0.61134  0.49278  0.57587 11.00000  0.04460   3.08
C01S  1  0.72591  0.23757  0.32650 11.00000  0.08782   3.08
C01T  1  0.65319  0.22408  0.07936 11.00000  0.05394   3.01
HKLF 4
END
