TITL 30_a.res in P1
REM Old TITL 30 in P1
REM SHELXT solution in P1: R1 0.417, Rweak 0.375, Alpha 0.000
REM <I/s>   0.000 for    0 systematic absences,  Orientation as input
REM Flack x =  0.034 ( 1.143 ) from    16 Parsons' quotients
REM Formula found by SHELXT:  C49 N15 O25 Cl13

CELL  0.71073   4.9100  11.8000  22.1500   90.000   85.160   90.000
ZERR   17.000   0.0010   0.0024   0.0044    0.030    0.030    0.030
LATT -1
SFAC C N O CL
UNIT 17 17 17 17
L.S. 10
BOND
LIST 6
FMAP 2
PLAN 20
CL01  4 -0.30836  0.72234  0.57831 11.00000  0.08888  21.06
CL02  4 -0.08693  0.79383  0.62086 11.00000  0.10635  20.87
CL03  4  0.32686  0.55127  0.74554 11.00000  0.07996  17.72
CL04  4  0.61130  0.43292  0.72370 11.00000  0.08291  17.15
CL05  4  1.51068  0.03911  0.72324 11.00000  0.06896  16.88
CL06  4  1.37745 -0.01005  0.81339 11.00000  0.09034  16.72
CL07  4  0.08744  0.85035  0.62637 11.00000  0.11506  15.61
CL08  4 -0.07933  0.20228  0.24043 11.00000  0.09728  15.01
CL09  4  0.52268  0.15337  0.50432 11.00000  0.10754  14.93
CL0A  4  1.69769  0.04326  0.73083 11.00000  0.10902  14.49
CL0B  4  0.09690  0.23623  0.20403 11.00000  0.12798  13.83
CL0C  4  0.94844  0.25998  0.74192 11.00000  0.09867  13.64
CL0D  4  0.44058  0.49099  0.75465 11.00000  0.11607  13.58
N00E  2  0.14540  0.60258  0.76756 11.00000  0.12034  11.66
N00F  2  0.40285  0.59058  0.69339 11.00000  0.02321  11.57
C00G  1  0.23921  0.64523  0.06148 11.00000  0.02076  11.50
N00H  2  0.55461  0.96735 -0.01227 11.00000  0.01186  11.48
O00I  3  0.63582  0.45013  0.65958 11.00000  0.09455  10.94
O00J  3  1.49986  0.06336  0.84052 11.00000  0.09515  10.79
O00K  3  0.09830  0.87943  0.71041 11.00000  0.06696  10.03
O00L  3  0.40197  0.19109  0.45129 11.00000  0.03971  10.02
N00M  2  0.22718  0.53933  0.68182 11.00000  0.03723  10.00
O00N  3  0.59998  0.69631  0.65846 11.00000  0.07778   9.69
O00O  3  0.32496  0.46548  0.87545 11.00000  0.07804   9.40
O00P  3  1.20769  0.10372  0.67500 11.00000  0.11014   9.29
O00Q  3  0.45340  0.36559  1.06521 11.00000  0.08667   9.23
O00R  3 -0.67372  0.83499  0.31513 11.00000  0.11499   9.12
O00S  3 -0.09198  0.35263  0.61021 11.00000  0.05044   9.08
C00T  1 -0.10634  0.40149  0.58223 11.00000  0.02385   8.91
O00U  3 -0.00464  0.28215  0.11354 11.00000  0.07043   8.56
N00V  2 -0.64705  0.52721  0.36611 11.00000  0.06419   8.54
O00W  3 -0.07900  0.64853  0.18200 11.00000  0.11578   8.49
O00X  3  0.48883  0.04245  0.36532 11.00000  0.06804   8.40
O00Y  3  0.66545  0.04728  0.59695 11.00000  0.04157   8.37
O00Z  3  0.21727  0.28571  0.52556 11.00000  0.04392   8.27
N010  2  0.23403  0.52174  0.77803 11.00000  0.03052   8.24
N011  2  0.10878  0.66154  0.72082 11.00000  0.10547   8.15
O012  3  0.21187  0.91932  0.63940 11.00000  0.06653   8.11
N013  2  0.36087  0.60134  0.82315 11.00000  0.09034   8.11
O014  3 -0.55137  0.39074  0.19466 11.00000  0.07146   8.05
O015  3 -0.28529  0.92227  0.25995 11.00000  0.10836   7.94
O016  3  0.48115  0.36193  0.65289 11.00000  0.07560   7.89
C017  1 -0.32280  0.26620  0.27292 11.00000  0.06550   7.84
O018  3  1.09867  0.30590  0.84544 11.00000  0.04842   7.64
N019  2  0.95036  0.27330  0.82442 11.00000  0.07272   7.51
O01A  3 -0.69520  0.66285  0.46410 11.00000  0.06220   7.47
N01B  2  0.53698  0.53627  0.84609 11.00000  0.04899   7.44
C01C  1  0.80251  0.48108  0.39757 11.00000  0.06213   7.12
N01D  2  0.72004  0.37682  0.44652 11.00000  0.02762   7.09
N01E  2  0.48241  0.48609  0.97632 11.00000  0.02908   7.03
N01F  2  0.70674  0.31606  0.80215 11.00000  0.01735   6.95
N01G  2  0.24372  0.88166  0.59866 11.00000  0.03735   6.86
O01H  3  0.93824 -0.02345  0.50935 11.00000  0.07029   6.69
C01I  1  1.00559 -0.05927  0.44033 11.00000  0.04472   6.68
N01J  2  1.28716  0.10540  0.85306 11.00000  0.04753   6.67
C01K  1  0.40079  0.92064  0.19474 11.00000  0.06354   6.47
C01L  1  0.31202  0.91874  0.03281 11.00000  0.03644   6.37
C01M  1  1.24876  0.25750  0.93736 11.00000  0.04256   6.09
C01N  1  0.02362  0.51397  0.47226 11.00000  0.05098   6.01
C01O  1  0.63081  0.23952  1.03753 11.00000  0.08740   5.99
C01P  1  0.64132  0.77474  0.04612 11.00000  0.02229   5.84
C01Q  1  0.20363  0.56279  0.23665 11.00000  0.03770   5.83
C01R  1  0.15033  0.84855  0.12012 11.00000  0.02881   5.79
C01S  1 -0.43988  0.75163  0.51886 11.00000  0.03771   5.78
C01T  1 -0.39676  0.74665  0.32443 11.00000  0.05324   5.77
C01U  1 -0.76760  0.59985  0.37713 11.00000  0.04505   5.74
O01V  3 -0.55852  0.25145  0.26762 11.00000  0.09837   5.65
C01W  1  0.57024  0.32531  0.51991 11.00000  0.01637   5.57
C01X  1  0.29853  0.56635  0.58657 11.00000  0.05657   5.54
C01Y  1  0.16026  0.68746  0.82156 11.00000  0.05497   5.15
O01Z  3  0.82397  0.53451  0.34486 11.00000  0.03819   5.11
C020  1  0.08658  0.88500  0.77332 11.00000  0.04252   5.08
C021  1 -0.16860  0.85630  0.85339 11.00000  0.02571   4.96
O022  3  0.08684  0.61511  0.10028 11.00000  0.04460   4.91
C023  1  0.46138  0.76084  0.12529 11.00000  0.08366   4.81
C024  1 -0.03925  0.56988  0.93712 11.00000  0.06084   4.77
C025  1 -0.46000  0.82885  0.28187 11.00000  0.04306   4.73
C026  1 -0.28409  0.31502  0.16019 11.00000  0.05471   4.60
C027  1  0.06527  1.00222  0.27721 11.00000  0.03841   4.60
C028  1  0.84134  0.11612  0.64838 11.00000  0.01683   4.54
C029  1 -0.41813  0.79921  0.42678 11.00000  0.05919   4.54
C02A  1  0.56087  0.18342  0.56822 11.00000  0.01112   4.52
C02B  1  0.13525  0.47060  0.54935 11.00000  0.03981   4.44
C02C  1 -0.53781  0.73176  0.26193 11.00000  0.09357   4.42
C02D  1  0.84920  0.98038  0.04600 11.00000  0.07148   4.24
C02E  1  0.18653  0.95194  0.18811 11.00000  0.08218   4.21
C02F  1 -0.32326  0.68359  0.25662 11.00000  0.02906   3.98
C02G  1  0.26071  0.77461  0.68361 11.00000  0.04790   3.95
C02H  1  0.76315  0.72346  0.04790 11.00000  0.03439   3.89
C02I  1  0.44762  0.75708 -0.06158 11.00000  0.06262   3.87
C02J  1  0.25718  0.41791  0.60371 11.00000  0.03764   3.82
C02K  1 -0.50098  0.78216  0.35741 11.00000  0.02951   3.80
C02L  1 -0.37331  0.44107  0.23159 11.00000  0.04918   3.70
C02M  1  1.76760  0.14226  0.88725 11.00000  0.05558   3.70
C02N  1  0.37523  1.05927  0.06188 11.00000  0.07496   3.70
C02O  1  0.44087 -0.02848  0.50066 11.00000  0.02408   3.36
C02P  1  0.77870  1.01498  0.09649 11.00000  0.02823   3.23
C02Q  1 -0.55387  0.39521  0.34476 11.00000  0.04567   3.22
C02R  1  0.81893  0.74620  0.00077 11.00000  0.06938   3.19
C02S  1  0.22305  0.37884  0.50708 11.00000  0.01439   3.09
C02T  1  0.33308  0.96428 -0.06521 11.00000  0.04349   3.02
C02U  1  1.12359  0.16520  0.81795 11.00000  0.04241   3.00
HKLF 4
END
