TITL 5_a.res in P1
REM Old TITL 5 in P1
REM SHELXT solution in P1: R1 0.259, Rweak 0.224, Alpha 0.000
REM <I/s>   0.000 for    0 systematic absences,  Orientation as input
REM Flack x =  0.320 ( 0.089 ) from   129 Parsons' quotients
REM Formula found by SHELXT:  C40 N8 O27 Cl12 Br3

CELL  0.71073   4.9100  11.6100  19.9900   90.000   84.220   90.000
ZERR   15.000   0.0010   0.0023   0.0040    0.030    0.030    0.030
LATT -1
SFAC C N O CL BR
UNIT 15 15 15 15 0
L.S. 10
BOND
LIST 6
FMAP 2
PLAN 20
BR01  5  0.41864  0.45678  0.75878 11.00000  0.03555  43.82
BR02  5  0.10032  0.57882  0.62925 11.00000  0.05300  41.98
BR03  5  0.30035  0.40522  0.71717 11.00000  0.06840  28.29
CL04  4  0.75740  0.73431  0.55159 11.00000  0.03310  21.75
CL05  4 -0.02450  0.60909  0.58930 11.00000  0.00010  21.13
CL06  4  0.24302  0.42043  0.75389 11.00000  0.06905  19.81
CL07  4  0.27735 -0.02364  0.58414 11.00000  0.03915  18.00
CL08  4  0.81844  0.84005  0.48632 11.00000  0.03618  15.90
CL09  4  0.93003  1.27904 -0.03884 11.00000  0.04624  15.73
CL0A  4  0.59925  0.39117  0.70485 11.00000  0.06529  14.86
CL0B  4  0.45071  0.11615  0.53933 11.00000  0.11622  14.80
CL0C  4  1.04558  0.53961  0.36322 11.00000  0.06607  13.90
CL0D  4 -0.00744  0.09201  0.65509 11.00000  0.05411  13.59
CL0E  4  1.33919  0.47265  0.29974 11.00000  0.04424  12.68
O00F  3  0.85714  0.38959  0.44117 11.00000  0.01058  12.35
O00G  3  0.06550  0.66326  0.72943 11.00000  0.02518  11.93
O00H  3  0.60248  0.48196  0.56102 11.00000  0.00010  11.66
N00I  2  0.19963  0.36002  0.58907 11.00000  0.03984  11.36
O00J  3 -0.53777  0.02019  0.69960 11.00000  0.00010  10.97
N00K  2  0.89292  0.88177  0.42827 11.00000  0.00010  10.81
CL0L  4 -0.28151  0.61235  0.94508 11.00000  0.09968  10.81
O00M  3 -0.21892  0.00941  0.75821 11.00000  0.00167  10.77
N00N  2  1.47155  1.11127  0.12579 11.00000  0.02566  10.73
O00O  3  1.20272  1.04510  0.14389 11.00000  0.00398  10.42
O00P  3  1.39012  1.08755  0.30185 11.00000  0.02704  10.39
O00Q  3  0.91793  1.01500  0.08451 11.00000  0.00726  10.32
O00R  3  0.62571  1.19700 -0.03277 11.00000  0.00230  10.20
N00S  2  0.42337  0.75964  0.74678 11.00000  0.00010  10.18
O00T  3  0.20148  0.74782  1.03884 11.00000  0.00010  10.15
O00U  3  0.17382  0.75481  0.73293 11.00000  0.00287  10.00
O00V  3  0.53671  0.48012  0.69571 11.00000  0.04702   9.89
O00W  3  0.89167  0.45798  0.32636 11.00000  0.00061   9.85
O00X  3  1.45784  1.08401  0.19543 11.00000  0.00456   9.67
O00Y  3  0.74175  0.41695  0.55417 11.00000  0.00055   9.52
O00Z  3  0.72848  0.58296  0.81201 11.00000  0.00957   9.19
C010  1 -0.32311  0.10052  0.73679 11.00000  0.00010   9.16
O011  3  0.22654 -0.13174  0.60365 11.00000  0.00010   9.13
O012  3  0.56634  0.27828  0.42535 11.00000  0.01356   9.10
O013  3  0.52611  0.36203  0.64693 11.00000  0.00010   8.89
O014  3 -0.21152  0.20061  0.83088 11.00000  0.02536   8.46
O015  3  0.12318  0.64768  0.51722 11.00000  0.00010   8.24
O016  3  0.16896  0.88608  0.96637 11.00000  0.00010   8.21
O017  3  1.13582  0.99509  0.21053 11.00000  0.01687   7.88
N018  2  0.62467  0.90066  0.46846 11.00000  0.00010   7.77
N019  2 -0.04509  0.25873  0.81868 11.00000  0.00078   7.62
O01A  3 -0.22409  0.22315  0.73679 11.00000  0.01127   7.36
N01B  2  0.82344  0.75235  0.44698 11.00000  0.00010   7.11
C01C  1  0.07421  0.33707  0.82151 11.00000  0.00010   6.67
C01D  1  0.70176  0.77139  0.11242 11.00000  0.00057   6.46
C01E  1  1.53777  0.42922  0.17070 11.00000  0.02302   6.44
C01F  1 -0.00892  0.38729  0.68461 11.00000  0.05356   5.69
C01G  1  1.33076  0.41478  0.22336 11.00000  0.00010   5.62
C01H  1  0.61448  0.13688  0.60071 11.00000  0.00010   5.43
C01I  1  0.46024 -0.17648  0.62880 11.00000  0.00010   5.34
C01J  1  0.36921  0.85233  0.92394 11.00000  0.00010   5.28
C01K  1  0.36991  1.07903  0.40882 11.00000  0.00925   5.27
C01L  1  1.01996  1.03970  0.34165 11.00000  0.04260   5.26
C01M  1  0.15709  0.18105  0.49627 11.00000  0.00010   5.24
C01N  1  0.27811  0.69783  0.87030 11.00000  0.00010   5.23
C01O  1  0.26876  0.44803  0.59151 11.00000  0.00136   5.18
C01P  1  1.05501  0.72352  0.20056 11.00000  0.00119   5.01
C01Q  1  0.67244  0.85954  0.85466 11.00000  0.02665   5.00
C01R  1  0.33203  0.16319  0.89397 11.00000  0.02045   4.95
C01S  1  0.69534  0.37685  0.34222 11.00000  0.00010   4.91
C01T  1  0.48450  0.78323  0.48104 11.00000  0.00010   4.88
C01U  1  1.17777  0.52206  0.13093 11.00000  0.00010   4.87
C01V  1  0.04461  0.08595  0.51934 11.00000  0.00010   4.84
C01W  1  0.44271  0.85773  0.78567 11.00000  0.00010   4.80
O01X  3  0.96783  1.11034  0.32915 11.00000  0.01904   4.70
C01Y  1  0.05171  0.75877  0.97790 11.00000  0.05530   4.65
N01Z  2  0.13292  0.26277  0.61520 11.00000  0.00707   4.65
C020  1  0.99191  1.17556  0.02914 11.00000  0.00010   4.57
C021  1  0.82861  0.44187  0.77139 11.00000  0.00010   4.52
C022  1  0.51004  0.33123  0.49783 11.00000  0.00010   4.36
C023  1  0.55462  0.74046  0.83596 11.00000  0.00010   4.33
C024  1  1.49408  0.36851  0.18657 11.00000  0.00010   4.29
C025  1  0.63395  0.81158  0.72515 11.00000  0.00010   4.19
C026  1  1.47444  0.60207  0.29160 11.00000  0.00010   4.15
C027  1  0.16996  0.21050  0.82525 11.00000  0.05552   4.12
C028  1  0.93229  0.88320  0.10360 11.00000  0.01422   4.12
O029  3  0.99523  0.39928  0.08376 11.00000  0.04400   4.07
C02A  1  1.20105  0.67117  0.30378 11.00000  0.00237   4.01
C02B  1  1.27459  1.19542  0.17369 11.00000  0.00010   3.97
C02C  1  0.42567  0.84928  0.83477 11.00000  0.00010   3.94
C02D  1  0.18903  0.68489  0.48130 11.00000  0.00010   3.93
C02E  1  0.76730  1.03342  0.40174 11.00000  0.00010   3.90
C02F  1  1.10928  0.52241  0.04310 11.00000  0.00010   3.88
O02G  3  0.42649 -0.27904  0.63845 11.00000  0.01778   3.75
C02H  1 -0.01327  0.02022  0.58294 11.00000  0.00010   3.73
C02I  1  1.11841  0.45705  0.49005 11.00000  0.00010   3.70
HKLF 4
END
