TITL 6_a.res in P1
REM Old TITL 6 in P1
REM SHELXT solution in P1: R1 0.328, Rweak 0.356, Alpha 0.000
REM <I/s>   0.000 for    0 systematic absences,  Orientation as input
REM Flack x =  0.382 ( 0.527 ) from   109 Parsons' quotients
REM Formula found by SHELXT:  C41 N18 O10 Cl4

CELL  0.71073   4.9900  11.5400  20.1900   90.000   84.150   90.000
ZERR   15.000   0.0010   0.0023   0.0040    0.030    0.030    0.030
LATT -1
SFAC C N O CL
UNIT 15 15 15 15
L.S. 10
BOND
LIST 6
FMAP 2
PLAN 20
CL01  4  0.96040  0.46078  0.64144 11.00000  0.04841  19.32
CL02  4 -0.27894  0.49940  0.71426 11.00000  0.03936  14.42
CL03  4  1.12934  0.41673  0.59029 11.00000  0.04074  13.97
N004  2  0.87720  0.55950  0.62064 11.00000  0.00010  10.80
C005  1 -0.15545  0.56368  0.75414 11.00000  0.00010   9.96
CL06  4  0.43116  0.74686  0.41854 11.00000  0.06311   9.63
O007  3  0.23356  0.85605  0.89712 11.00000  0.00010   9.29
C008  1 -0.20451  0.72754  0.87944 11.00000  0.00010   9.24
O009  3  1.35350  0.34088  0.62748 11.00000  0.05133   9.02
N00A  2  0.76819  0.30128  0.41723 11.00000  0.00110   8.99
O00B  3  0.08683  0.65326  0.71515 11.00000  0.01015   8.85
N00C  2 -0.43788  0.68433  0.89069 11.00000  0.00010   8.52
O00D  3  0.37056  0.25203  0.43152 11.00000  0.01762   8.11
O00E  3  0.65442  0.14941  0.58600 11.00000  0.03150   8.05
O00F  3  0.58184  0.07269  0.22102 11.00000  0.02625   8.00
N00G  2 -0.35038  0.62366  0.76271 11.00000  0.03410   7.45
N00H  2  0.35264  0.03387  0.18145 11.00000  0.02330   7.29
N00I  2  0.04112  0.91853  0.81974 11.00000  0.01204   7.10
N00J  2  0.65634  0.21364  0.34083 11.00000  0.02587   7.03
N00K  2  0.22268  0.64949  0.54189 11.00000  0.00010   7.01
N00L  2  0.56352  0.35269  0.41045 11.00000  0.01155   6.97
N00M  2  0.83657  0.31580  0.52215 11.00000  0.08155   6.58
N00N  2  0.87386  0.52886  0.54000 11.00000  0.00216   6.58
C00O  1  0.47877  0.69450  0.59850 11.00000  0.07192   6.40
N00P  2  0.21920  0.36082  0.10318 11.00000  0.00015   6.39
N00Q  2  0.58230  0.76197  0.48343 11.00000  0.00071   6.26
O00R  3  0.25039  0.85535  0.52417 11.00000  0.05766   6.22
C00S  1  1.22997  0.25687  0.65615 11.00000  0.00010   5.93
C00T  1  0.41684  0.73095  0.51801 11.00000  0.02152   5.83
C00U  1  0.30287  0.07056  0.11605 11.00000  0.00733   5.81
C00V  1  0.65161  0.59229  0.63675 11.00000  0.00909   5.78
C00W  1  0.50586  0.43713  0.79297 11.00000  0.00010   5.72
C00X  1  0.69896  0.27615  0.46756 11.00000  0.01489   5.65
C00Y  1  0.29277  0.34682  0.77178 11.00000  0.00010   5.63
C00Z  1  1.43788  0.14982  0.73654 11.00000  0.00010   5.40
C010  1  1.02024  0.02943  0.73748 11.00000  0.01059   5.37
C011  1  0.39586  0.22603  0.48858 11.00000  0.03255   5.34
C012  1  0.12967  0.58141  0.77670 11.00000  0.00010   5.27
N013  2  0.45284  0.38612  0.21828 11.00000  0.10268   5.23
C014  1  0.39094  0.73193  0.80407 11.00000  0.01529   5.20
C015  1 -0.37737  0.92413  0.66880 11.00000  0.03535   5.13
N016  2  0.41717  0.75362  0.23717 11.00000  0.00010   5.11
C017  1  0.00998  0.68201  0.65715 11.00000  0.04838   5.04
C018  1  0.64549  0.19637  0.16932 11.00000  0.00416   4.95
C019  1  0.06900  0.78194  0.91872 11.00000  0.00939   4.89
C01A  1  0.56514  0.78693  0.55446 11.00000  0.00102   4.80
C01B  1  0.26535  0.63095  0.83440 11.00000  0.01011   4.68
C01C  1  0.39638  0.72812  0.73590 11.00000  0.04564   4.42
C01D  1 -0.02270  0.29797  0.77315 11.00000  0.00521   4.40
C01E  1  0.35505  0.08698  0.30947 11.00000  0.04213   4.24
C01F  1  0.40876  0.11169  0.34840 11.00000  0.00296   4.22
C01G  1  0.70508  0.60910  0.52140 11.00000  0.12677   4.22
O01H  3  1.03473  0.16188  0.70005 11.00000  0.04259   4.21
C01I  1  0.95200  0.36585  0.57910 11.00000  0.01007   4.21
N01J  2  0.79024  0.02472  0.41430 11.00000  0.03079   4.17
C01K  1 -0.34864  0.18600  0.84044 11.00000  0.01232   4.04
C01L  1  0.76538  0.15903  0.05000 11.00000  0.00010   3.97
N01M  2  0.14683  0.66379  0.13003 11.00000  0.01774   3.93
C01N  1  0.88216 -0.01176  0.14698 11.00000  0.07472   3.86
C01O  1  0.54519  1.01176  0.93750 11.00000  0.04376   3.75
C01P  1 -0.21091  0.72176  0.97568 11.00000  0.04177   3.72
C01Q  1  0.83094  0.53681  0.47686 11.00000  0.01944   3.67
C01R  1  0.19873  0.13351  0.02432 11.00000  0.04989   3.54
C01S  1  0.42700  0.14902  0.22144 11.00000  0.00010   3.45
C01T  1  0.12973  0.70792  0.60040 11.00000  0.00572   3.38
N01U  2  0.12124  0.51583  0.28926 11.00000  0.04860   3.32
C01V  1  0.38001  0.83319  0.81741 11.00000  0.00010   3.30
C01W  1 -0.21211  0.34830  0.69978 11.00000  0.01160   3.28
O01X  3  0.44595  0.13924  0.49569 11.00000  0.07154   3.28
C01Y  1  0.07324  0.87081  0.58168 11.00000  0.03317   3.27
C01Z  1  0.73899  0.42328  0.53411 11.00000  0.01223   3.24
O020  3  0.58959  0.51134  0.50455 11.00000  0.05456   3.23
C021  1  0.60005  0.12949  0.11146 11.00000  0.01245   3.17
HKLF 4
END
