TITL 7_a.res in P1
REM Old TITL 7 in P1
REM SHELXT solution in P1: R1 0.216, Rweak 0.365, Alpha 0.000
REM <I/s>   0.000 for    0 systematic absences,  Orientation as input
REM Flack x = -0.621 ( 0.418 ) from   188 Parsons' quotients
REM Formula found by SHELXT:  C36 N7 O13 Cl4

CELL  0.71073   4.9200  11.6500  20.0200   90.000   83.930   90.000
ZERR   15.000   0.0010   0.0023   0.0040    0.030    0.030    0.030
LATT -1
SFAC C N O CL
UNIT 15 15 15 15
L.S. 10
BOND
LIST 6
FMAP 2
PLAN 20
CL01  4  0.72081  0.31875  0.54409 11.00000  0.07982  26.99
CL02  4 -0.11228  0.43428  0.79383 11.00000  0.08239  16.10
CL03  4  0.48285  0.63239  0.52326 11.00000  0.16789  15.66
CL04  4  0.62568  0.69874  0.45481 11.00000  0.10161  14.87
O005  3 -0.04790  0.45883  0.85022 11.00000  0.07170  11.89
C006  1  0.63995  0.64703  0.54991 11.00000  0.03669   9.83
O007  3  0.48776  0.25875  0.70675 11.00000  0.03448   9.75
O008  3  0.57367  0.63455  0.31090 11.00000  0.06892   9.31
N009  2  0.37163  0.58384  0.57882 11.00000  0.02951   9.08
O00A  3  0.51352  0.89109  0.20259 11.00000  0.07497   8.57
O00B  3  0.35126  0.09724  0.78064 11.00000  0.04961   8.42
O00C  3  0.43682  0.64574  0.62795 11.00000  0.07043   8.25
O00D  3  0.83513  0.76645  0.12581 11.00000  0.06252   8.18
O00E  3  0.89972  1.01880  0.37801 11.00000  0.09445   7.26
O00F  3  0.57952  0.26095  0.10445 11.00000  0.03850   7.22
C00G  1  0.56185  0.22500  0.65764 11.00000  0.03124   6.99
N00H  2  0.44732  0.23597  0.82084 11.00000  0.05969   6.92
N00I  2  0.42144  0.45758  0.34764 11.00000  0.05243   6.75
N00J  2  1.19117  0.94056  0.10637 11.00000  0.07389   6.74
N00K  2  0.21230  0.40422  0.67188 11.00000  0.05378   6.58
C00L  1  0.40815  0.37445  0.61594 11.00000  0.01648   6.38
C00M  1  0.61317  0.34141  0.90164 11.00000  0.04732   6.36
C00N  1  0.91651  0.26546  0.48271 11.00000  0.01504   6.28
C00O  1  0.06021  0.49253  0.72863 11.00000  0.01860   6.08
C00P  1  0.35089  0.20169  0.15779 11.00000  0.03428   6.07
C00Q  1  0.74209  0.27404  0.04701 11.00000  0.06889   6.07
O00R  3  0.31927  0.11534  0.90992 11.00000  0.08618   5.96
N00S  2  0.21405  0.69066  0.97368 11.00000  0.01413   5.94
C00T  1  0.76580  0.62527  0.26778 11.00000  0.02585   5.93
C00U  1 -0.02059  0.11727  0.81486 11.00000  0.10599   5.92
C00V  1  0.78048  0.39177  0.58110 11.00000  0.06620   5.80
C00W  1  0.60331  0.86692  0.60790 11.00000  0.04458   5.77
C00X  1  0.20614  0.54739  0.69698 11.00000  0.02152   5.73
C00Y  1  1.15970  0.88025  0.36495 11.00000  0.01616   5.67
N00Z  2  0.27884  0.57610  0.44113 11.00000  0.13012   5.51
C010  1  0.92866  1.01610  0.02632 11.00000  0.06618   5.44
C011  1  0.38095  0.56793  0.27289 11.00000  0.05643   5.40
C012  1  0.82387  0.75193  0.22985 11.00000  0.03507   5.39
C013  1  0.73124 -0.05870  0.88269 11.00000  0.03051   5.32
C014  1  0.62745  0.67127  0.10539 11.00000  0.02510   5.18
C015  1  0.10611 -0.06879  0.73864 11.00000  0.06677   5.03
C016  1 -0.17732  0.15784  0.25627 11.00000  0.02999   4.81
C017  1  0.37042  0.10009  0.89119 11.00000  0.10445   4.81
O018  3  0.40277  1.02390  0.52798 11.00000  0.04121   4.81
O019  3  0.73206  0.71148  0.59369 11.00000  0.04104   4.68
C01A  1  0.38553  0.03744  0.70710 11.00000  0.04472   4.54
C01B  1  0.16947  0.09137  0.72097 11.00000  0.08101   4.44
O01C  3 -0.19117  0.36394  0.23328 11.00000  0.05786   4.44
C01D  1 -0.04960  0.38964  0.13556 11.00000  0.05782   4.34
C01E  1  0.48170  0.56311  0.39556 11.00000  0.03787   4.26
C01F  1  0.02527  0.44994  0.31823 11.00000  0.02703   4.25
C01G  1  0.18304  0.48204  0.94574 11.00000  0.05000   3.78
C01H  1  0.02445  0.11639  0.19309 11.00000  0.05055   3.68
C01I  1  0.71283  0.23211  0.84272 11.00000  0.03158   3.62
C01J  1  0.82393  0.76677  0.31971 11.00000  0.06535   3.56
C01K  1  0.18837  0.86500  0.54930 11.00000  0.05340   3.27
C01L  1  0.22545  0.21190  0.61866 11.00000  0.08996   3.26
C01M  1  0.18614  0.29766  0.08493 11.00000  0.05081   3.17
C01N  1  0.39797  1.06879  0.47205 11.00000  0.04852   3.06
C01O  1  0.35581  0.34728  0.30651 11.00000  0.05285   3.04
HKLF 4
END
