TITL 8_a.res in P1
REM Old TITL 8 in P1
REM SHELXT solution in P1: R1 0.295, Rweak 0.406, Alpha 0.000
REM <I/s>   0.000 for    0 systematic absences,  Orientation as input
REM Flack x = -0.206 ( 0.654 ) from    81 Parsons' quotients
REM Formula found by SHELXT:  C35 N6 O18 Cl3

CELL  0.71073   4.9000  11.6500  19.8300   90.000   84.000   90.000
ZERR   15.000   0.0010   0.0023   0.0040    0.030    0.030    0.030
LATT -1
SFAC C N O CL
UNIT 15 15 15 15
L.S. 10
BOND
LIST 6
FMAP 2
PLAN 20
CL01  4 -0.15158  0.11138  0.32834 11.00000  0.08947  18.98
O002  3  0.65301  0.39775  0.08644 11.00000  0.03422  12.17
O003  3  0.04325  0.18989  0.31408 11.00000  0.03976  11.88
N004  2 -0.44490  0.02419  0.49882 11.00000  0.05766  10.55
O005  3  0.91926  0.40236  0.04238 11.00000  0.06334  10.43
O006  3 -0.56581  0.02343  0.59136 11.00000  0.04624  10.20
O007  3  0.33992  0.31335  0.51279 11.00000  0.04881  10.08
CL08  4  0.89189  0.79550  0.67301 11.00000  0.10335   9.79
CL09  4  0.41473  1.02706  0.14876 11.00000  0.15959   9.50
O00A  3  0.14328  0.20158  0.16808 11.00000  0.08004   9.19
O00B  3  0.74945  0.68953  0.20928 11.00000  0.09965   9.03
O00C  3  1.04522  0.85015  0.19819 11.00000  0.03758   8.64
O00D  3 -0.28956 -0.06585  0.50653 11.00000  0.04570   8.44
C00E  1  1.58640  0.97848  0.74704 11.00000  0.06487   8.43
O00F  3  0.23877  0.23090  0.08562 11.00000  0.06644   8.37
C00G  1  0.86459  0.78573  0.17021 11.00000  0.05254   8.20
O00H  3  0.24556  0.49921  0.72178 11.00000  0.05066   7.93
O00I  3  0.86110  0.54510  0.33431 11.00000  0.04771   7.74
O00J  3  1.58296  1.02979  0.83215 11.00000  0.06498   7.73
O00K  3  0.61586  0.55192  0.53070 11.00000  0.07233   7.59
O00L  3  0.34046  0.58594  0.81181 11.00000  0.07645   7.28
C00M  1  0.23931  0.34517  0.45898 11.00000  0.11537   7.27
N00N  2 -0.53781  0.09155  0.46792 11.00000  0.03845   7.15
C00O  1 -0.04125  0.39670  0.70863 11.00000  0.04623   7.09
O00P  3  1.39663  0.90746  0.73641 11.00000  0.10832   6.98
N00Q  2  0.08993 -0.20967  0.38811 11.00000  0.06986   6.88
C00R  1  1.65396  1.09742  0.87830 11.00000  0.04590   6.45
N00S  2  0.38671  0.64895 -0.00018 11.00000  0.15547   6.44
C00T  1  0.95221  0.63730  0.57556 11.00000  0.05163   6.42
C00U  1  0.69017  0.56388  0.27837 11.00000  0.04825   6.38
C00V  1  0.80410  0.41772  0.18427 11.00000  0.04074   6.26
C00W  1  0.38724  0.39858  0.33243 11.00000  0.05765   6.19
N00X  2  0.52514  0.45843  0.32435 11.00000  0.08479   6.10
C00Y  1  0.10007  0.30776  0.71967 11.00000  0.06926   6.03
C00Z  1  0.62346  0.48584  0.48418 11.00000  0.06526   5.91
C010  1  0.48050  0.30349  0.20300 11.00000  0.04862   5.88
C011  1 -0.65396 -0.06017  0.54668 11.00000  0.04041   5.86
N012  2  1.04982  0.97396  1.00018 11.00000  0.06135   5.83
C013  1  0.55452  0.54743  0.11002 11.00000  0.07740   5.46
C014  1  0.10555  0.21422  0.41095 11.00000  0.05055   5.43
C015  1  1.21659  1.11357  0.91121 11.00000  0.03831   5.42
O016  3 -0.21670  0.44315  0.66402 11.00000  0.10108   5.41
C017  1 -0.38647  0.01814  0.44045 11.00000  0.01409   5.40
C018  1 -0.04071 -0.13360  0.43986 11.00000  0.04697   5.31
C019  1 -0.08343  0.36697  0.75455 11.00000  0.05098   5.27
C01A  1  0.56405  0.62363  0.43368 11.00000  0.02374   5.12
C01B  1  0.69587  0.25398  0.68839 11.00000  0.06742   5.01
C01C  1  0.16842  0.33041  0.61104 11.00000  0.03060   4.96
C01D  1  0.90893  0.43569  0.00927 11.00000  0.03311   4.75
O01E  3  0.72356  0.67722  0.51151 11.00000  0.05198   4.74
C01F  1 -0.23648 -0.04768  0.36871 11.00000  0.05524   4.68
C01G  1 -0.00700  0.22205  0.58690 11.00000  0.04365   4.67
C01H  1 -0.18482  0.10820  0.44171 11.00000  0.05988   4.37
C01I  1  0.87796  0.67748  0.14639 11.00000  0.09425   4.05
C01J  1  0.75360  0.59269  0.53167 11.00000  0.04698   3.85
C01K  1  0.40820  0.33990  0.69882 11.00000  0.02803   3.73
C01L  1 -0.28071  0.46226  0.84816 11.00000  0.04173   3.65
C01M  1  1.13105  1.20967  0.93844 11.00000  0.07817   3.61
C01N  1 -0.22963  0.09660  0.27776 11.00000  0.04618   3.46
C01O  1  1.10101  0.85711  0.79123 11.00000  0.12488   3.38
C01P  1  0.72237  0.54162  0.17413 11.00000  0.05827   3.30
C01Q  1  0.62366  0.93862  0.16763 11.00000  0.05137   3.06
HKLF 4
END
