TITL 0620_expF_1_0_expS_1_2_0620_a.res in I-4
REM Old TITL 0620 in I4(1)/a
REM SHELXT solution in I-4: R1 0.342, Rweak 0.121, Alpha 0.212
REM <I/s>   0.000 for    0 systematic absences,  Orientation as input
REM Flack x = -9.990 ( 9.990 ) from    88 Parsons' quotients
REM Formula found by SHELXT:  C37 N16 O6

CELL  0.71073  26.6550  26.6550   7.5900   90.000   90.000   90.000
ZERR  108.000   0.0038   0.0038   0.0015    0.000    0.000    0.000
LATT -2
SYMM -X, -Y, Z
SYMM Y, -X, -Z
SYMM -Y, X, -Z
SFAC C H N O
UNIT 108 108 108 108
L.S. 10
BOND
LIST 6
FMAP 2
PLAN 20
N001  3  0.41463  0.47048 -0.11767 11.00000  0.16351  10.95
C002  1  0.36994  0.55833 -0.26775 11.00000  0.15647  10.42
N003  3  0.38199  0.49867 -0.10966 11.00000  0.17243   9.33
N004  3  0.44998  0.49784 -0.36629 11.00000  0.13047   9.22
N005  3  0.44458  0.46122 -0.23633 11.00000  0.14916   9.02
O006  4  0.07889  0.45760  1.14265 11.00000  0.13331   8.74
N007  3  0.40805  0.53465 -0.38137 11.00000  0.16059   8.03
C008  1  0.23534  0.52228  0.22585 11.00000  0.14978   7.73
N009  3  0.32121  0.51324 -0.02270 11.00000  0.19318   7.57
C00A  1  0.09003  0.52265  0.84995 11.00000  0.12776   7.02
C00B  1  0.03826  0.49132  1.13701 11.00000  0.11076   6.52
C00C  1  0.28756  0.49465  0.25183 11.00000  0.09186   6.43
C00D  1  0.50000  0.50000 -0.50000 10.25000  0.12084   6.43
C00E  1  0.40306  0.49431 -0.26505 11.00000  0.23052   6.04
O00F  4  0.23689  0.54163  0.05695 11.00000  0.22332   5.89
C00G  1  0.29555  0.48883  0.41655 11.00000  0.14015   5.83
C00H  1  0.04946  0.53045  0.99808 11.00000  0.12491   5.78
C00I  1  0.20248  0.53041  0.33383 11.00000  0.15590   5.62
C00J  1  0.24989  0.47738  0.55158 11.00000  0.15519   5.54
C00K  1  0.32028  0.50010  0.10114 11.00000  0.16888   5.44
C00L  1  0.11421  0.45636  1.02213 11.00000  0.10495   5.32
C00M  1  0.00000  0.50000  1.25000 10.25000  0.08364   5.13
N00N  3  0.37271  0.52968 -0.20478 11.00000  0.24639   4.79
C00O  1  0.12096  0.48889  0.90305 11.00000  0.11810   4.66
C00P  1  0.20239  0.50397  0.50234 11.00000  0.20079   4.58
C00Q  1  0.25446  0.44767  0.73624 11.00000  0.16190   4.03
C00R  1  0.18580  0.35160  0.33920 11.00000  0.27866   3.80
N00S  3  0.23620  0.35633  0.24204 11.00000  0.32922   3.66
O00T  4  0.09381  0.56842  0.78362 11.00000  0.33313   3.60
C00U  1  0.15792  0.50482  0.59526 11.00000  0.13188   3.52
C00V  1  0.16151  0.48557  0.75038 11.00000  0.14082   3.42
HKLF 4
END
