TITL 0620_expF_1_3_expS_0_7_0620_b.res in I-4
REM Old TITL 0620 in I4(1)/a
REM SHELXT solution in I-4: R1 0.423, Rweak 0.099, Alpha 0.136
REM <I/s>   0.000 for    0 systematic absences,  Orientation as input
REM Flack x = -9.990 ( 9.990 ) from   119 Parsons' quotients
REM Formula found by SHELXT:  C80 N13 O8

CELL  0.71073  26.6550  26.6550   7.5900   90.000   90.000   90.000
ZERR  108.000   0.0038   0.0038   0.0015    0.000    0.000    0.000
LATT -2
SYMM -X, -Y, Z
SYMM Y, -X, -Z
SYMM -Y, X, -Z
SFAC C H N O
UNIT 108 108 108 108
L.S. 10
BOND
LIST 6
FMAP 2
PLAN 20
N001  3  0.50000  0.50000 -0.50000 10.25000  0.16193  12.15
N002  3  0.47200  0.59557 -0.06050 11.00000  0.29338   9.55
N003  3  0.50773  0.62313 -0.14688 11.00000  0.27308   8.97
C004  1  0.50886  0.53302 -0.38594 11.00000  0.21554   7.50
C005  1  0.53816  0.62341 -0.26250 11.00000  0.22532   7.04
N006  3  0.53445  0.58319 -0.39733 11.00000  0.23196   6.53
C007  1  0.47414  0.70363  0.43627 11.00000  0.21024   5.87
C008  1  0.46349  0.54832 -0.23337 11.00000  0.25205   5.56
C009  1  0.49086  0.70032  0.29182 11.00000  0.32479   5.54
C00A  1  0.48613  0.56734 -0.24258 11.00000  0.36730   5.46
C00B  1  0.47237  0.91198  1.17812 11.00000  0.25736   5.30
C00C  1  0.49726  0.66962  0.10008 11.00000  0.29701   5.26
C00D  1  0.47876  0.73774  0.55862 11.00000  0.29040   4.76
C00E  1  0.49600  0.95591  1.10793 11.00000  0.27639   4.66
C00F  1  0.52047  0.74853  0.21542 11.00000  0.26704   4.50
O00G  4  0.52382  0.90853  0.91093 11.00000  0.34680   4.50
C00H  1  0.51625  0.67167 -0.04230 11.00000  0.36016   4.48
C00I  1  0.48084  0.82614  0.72483 11.00000  0.31386   4.04
C00J  1  0.50528  0.78902  0.51883 11.00000  0.26771   3.72
O00K  4  0.33477  0.77577  0.27630 11.00000  0.44488   3.65
C00L  1  0.47520  0.64249  0.21761 11.00000  0.41167   3.48
C00M  1  0.51079  0.77037  0.38389 11.00000  0.29401   3.43
C00N  1  0.30937  0.78953  0.46388 11.00000  0.40592   3.24
C00O  1  0.48093  0.87694  0.89511 11.00000  0.40200   3.23
C00P  1  0.44172  0.75364  0.71785 11.00000  0.30617   3.18
C00Q  1  0.44999  0.89132  1.04398 11.00000  0.26219   3.09
HKLF 4
END
