TITL 0620_expF_1_2_expS_0_6_0620_a.res in I-4
REM Old TITL 0620 in I4(1)/a
REM SHELXT solution in I-4: R1 0.372, Rweak 0.018, Alpha 0.158
REM <I/s>   0.000 for    0 systematic absences,  Orientation as input
REM Flack x = -9.990 ( 9.990 ) from   128 Parsons' quotients
REM Formula found by SHELXT:  C37 N16 O4

CELL  0.71073  26.6550  26.6550   7.5900   90.000   90.000   90.000
ZERR  108.000   0.0038   0.0038   0.0015    0.000    0.000    0.000
LATT -2
SYMM -X, -Y, Z
SYMM Y, -X, -Z
SYMM -Y, X, -Z
SFAC C H N O
UNIT 108 108 108 108
L.S. 10
BOND
LIST 6
FMAP 2
PLAN 20
N001  3  0.45269  0.87536 -0.02383 11.00000  0.23430   8.72
N002  3  0.46413  0.91219 -0.15459 11.00000  0.18442   7.69
C003  1  0.52825  0.91030  0.13068 11.00000  0.17655   7.25
N004  3  0.47446  0.59435  1.08784 11.00000  0.25502   6.86
N005  3  0.48988  0.87516  0.13022 11.00000  0.27112   6.66
C006  1  0.50895  0.62594  1.14413 11.00000  0.22097   6.63
N007  3  0.53985  0.57699  1.38924 11.00000  0.21989   6.57
C008  1  0.52510  0.66700  1.00842 11.00000  0.18871   6.47
C009  1  0.52433  0.76199  0.79073 11.00000  0.18265   6.46
C00A  1  0.49494  0.96037 -0.15133 11.00000  0.20163   6.36
C00B  1  0.49887  0.79913  0.48539 11.00000  0.21994   6.02
C00C  1  0.53582  0.94489 -0.00909 11.00000  0.18239   5.99
C00D  1  0.50710  0.53925  1.36740 11.00000  0.16724   5.98
C00E  1  0.50000  1.00000 -0.25000 10.25000  0.18376   5.80
C00F  1  0.54463  0.61398  1.25558 11.00000  0.16985   5.72
C00G  1  0.46716  0.74647  0.44229 11.00000  0.21475   5.70
C00H  1  0.50000  0.50000  1.50000 10.25000  0.22010   5.67
C00I  1  0.46519  0.54302  1.22656 11.00000  0.20176   5.35
C00J  1  0.46923  0.70610  0.57990 11.00000  0.26412   5.08
C00K  1  0.52698  0.79193  0.65417 11.00000  0.22090   5.06
C00L  1  0.45899  0.73565  0.28275 11.00000  0.18175   4.83
O00M  4  0.55149  0.75373  0.95173 11.00000  0.37225   4.46
C00N  1  0.49745  0.82967  0.32188 11.00000  0.22517   3.88
O00O  4  0.55895  0.89977  0.23108 11.00000  0.53685   3.63
C00P  1  0.49552  0.71454  0.72972 11.00000  0.26333   3.59
C00Q  1  0.48285  0.65058  0.83894 11.00000  0.24418   3.48
C00R  1  0.45441  0.64095  0.64761 11.00000  0.35478   3.20
N00S  3  0.64504  0.82734  0.17238 11.00000  0.44987   3.19
N00T  3  0.63887  0.73894  0.48810 11.00000  0.37391   3.18
N00U  3  0.65502  0.65747  0.80523 11.00000  0.42454   3.16
HKLF 4
END
