TITL 0620_expF_1_1_expS_1_5_0620_a.res in I-4
REM Old TITL 0620 in I4(1)/a
REM SHELXT solution in I-4: R1 0.446, Rweak 0.155, Alpha 0.158
REM <I/s>   0.000 for    0 systematic absences,  Orientation as input
REM Flack x = -3.162 ( 9.990 ) from    45 Parsons' quotients
REM Formula found by SHELXT:  C37 N8 O10

CELL  0.71073  26.6550  26.6550   7.5900   90.000   90.000   90.000
ZERR  108.000   0.0038   0.0038   0.0015    0.000    0.000    0.000
LATT -2
SYMM -X, -Y, Z
SYMM Y, -X, -Z
SYMM -Y, X, -Z
SFAC C H N O
UNIT 108 108 108 108
L.S. 10
BOND
LIST 6
FMAP 2
PLAN 20
N001  3  0.46699  0.88160  0.98091 11.00000  0.12046   9.45
N002  3  0.49893  0.87802  0.85829 11.00000  0.13306   8.84
N003  3  0.46241  0.91857  1.13938 11.00000  0.09849   8.25
N004  3  0.49246  0.95863  1.10830 11.00000  0.13101   7.60
C005  1  0.50000  1.00000  1.25000 10.25000  0.12534   6.98
C006  1  0.47439  0.58849 -0.12017 11.00000  0.10462   6.09
O007  4  0.50695  0.79865  0.49876 11.00000  0.23820   6.04
C008  1  0.53106  0.94457  0.99584 11.00000  0.08940   5.87
C009  1  0.53855  0.58715 -0.39618 11.00000  0.12649   5.78
C00A  1  0.52638  0.75775  0.19883 11.00000  0.09889   5.74
O00B  4  0.49439  0.82968  0.65844 11.00000  0.17856   5.55
C00C  1  0.47854  0.73654  0.50170 11.00000  0.16968   5.50
O00D  4  0.52355  0.79319  0.33252 11.00000  0.19501   5.42
C00E  1  0.46844  0.54126 -0.24111 11.00000  0.13873   5.29
C00F  1  0.49007  0.82961  0.78914 11.00000  0.14325   5.00
O00G  4  0.54918  0.76785  0.02906 11.00000  0.23619   4.93
C00H  1  0.49931  0.54205 -0.37690 11.00000  0.08431   4.72
C00I  1  0.47445  0.70815  0.41043 11.00000  0.16012   4.72
C00J  1  0.55115  0.62238 -0.25872 11.00000  0.13352   4.68
C00K  1  0.50000  0.50000 -0.50000 10.25000  0.15193   4.56
O00L  4  0.64405  0.72226  0.48570 11.00000  0.22206   4.51
C00M  1  0.52647  0.90933  0.85804 11.00000  0.17660   4.29
C00N  1  0.50916  0.62574 -0.12538 11.00000  0.14247   4.27
C00O  1  0.51776  0.66792 -0.01458 11.00000  0.16245   3.93
C00P  1  0.44839  0.88977  1.07370 11.00000  0.13538   3.87
C00Q  1  0.67827  0.69206  0.44398 11.00000  0.31360   3.86
C00R  1  0.50238  0.71656  0.25099 11.00000  0.14207   3.47
C00S  1  0.51065  0.84599  0.54293 11.00000  0.15849   3.32
C00T  1  0.45384  0.74797  0.71835 11.00000  0.14314   3.07
HKLF 4
END
