TITL 0620_expF_1_3_expS_1_0_0620_b.res in I-4
REM Old TITL 0620 in I4(1)/a
REM SHELXT solution in I-4: R1 0.428, Rweak 0.158, Alpha 0.175
REM <I/s>   0.000 for    0 systematic absences,  Orientation as input
REM Flack x = -9.990 ( 9.990 ) from    91 Parsons' quotients
REM Formula found by SHELXT:  C72 N9 O16

CELL  0.71073  26.6550  26.6550   7.5900   90.000   90.000   90.000
ZERR  108.000   0.0038   0.0038   0.0015    0.000    0.000    0.000
LATT -2
SYMM -X, -Y, Z
SYMM Y, -X, -Z
SYMM -Y, X, -Z
SFAC C H N O
UNIT 108 108 108 108
L.S. 10
BOND
LIST 6
FMAP 2
PLAN 20
N001  3  0.50000  0.50000  1.50000 10.25000  0.16871  10.32
O002  4  0.52690  0.41329  1.08783 11.00000  0.28679   8.35
O003  4  0.53566  0.44713  1.23597 11.00000  0.20580   7.57
N004  3  0.46419  0.37709  1.25360 11.00000  0.24080   7.20
C005  1  0.49895  0.45568  1.36704 11.00000  0.17626   6.74
C006  1  0.50586  0.12081  0.12483 11.00000  0.28113   6.40
C007  1  0.54002  0.09118 -0.15312 11.00000  0.20337   6.39
C008  1  0.49288  0.37503  1.12500 11.00000  0.18675   6.38
C009  1  0.55518  0.11447 -0.01645 11.00000  0.20864   6.05
C00A  1  0.53152  0.26914  0.46051 11.00000  0.27297   5.82
C00B  1  0.46301  0.41725  1.39295 11.00000  0.17976   5.65
C00C  1  0.50645  0.05020 -0.12848 11.00000  0.28306   5.63
C00D  1  0.47637  0.24655  0.77330 11.00000  0.20120   5.63
C00E  1  0.52331  0.16814  0.23860 11.00000  0.23951   5.35
C00F  1  0.46918  0.08847  0.11466 11.00000  0.25467   4.95
O00G  4  0.54501  0.25595  0.28503 11.00000  0.36435   4.79
C00H  1  0.50206  0.29520  0.72750 11.00000  0.33524   4.69
C00I  1  0.52538  0.30239  0.57694 11.00000  0.22690   4.68
C00J  1  0.51447  0.34442  0.83074 11.00000  0.31907   4.25
N00K  3  0.64529  0.23022  0.71839 11.00000  0.39523   4.19
C00L  1  0.48860  0.21607  0.62908 11.00000  0.33160   4.12
C00M  1  0.50237  0.21288  0.48242 11.00000  0.21850   3.94
C00N  1  0.44859  0.23952  0.93161 11.00000  0.28152   3.87
C00O  1  0.48748  0.32940  0.99718 11.00000  0.25966   3.47
O00P  4  0.49834  0.16856  0.39781 11.00000  0.38611   3.09
HKLF 4
END
