TITL 0620_expF_1_2_expS_1_2_0620_a.res in I-4
REM Old TITL 0620 in I4(1)/a
REM SHELXT solution in I-4: R1 0.393, Rweak 0.090, Alpha 0.195
REM <I/s>   0.000 for    0 systematic absences,  Orientation as input
REM Flack x = -3.364 ( 9.990 ) from    97 Parsons' quotients
REM Formula found by SHELXT:  C49 N61 O16

CELL  0.71073  26.6550  26.6550   7.5900   90.000   90.000   90.000
ZERR  108.000   0.0038   0.0038   0.0015    0.000    0.000    0.000
LATT -2
SYMM -X, -Y, Z
SYMM Y, -X, -Z
SYMM -Y, X, -Z
SFAC C H N O
UNIT 108 108 108 108
L.S. 10
BOND
LIST 6
FMAP 2
PLAN 20
N001  3  0.54283  0.62240  1.26522 11.00000  0.23951  10.00
N002  3  0.52160  0.91190  0.14292 11.00000  0.17749   9.94
O003  4  0.45894  0.91865 -0.14464 11.00000  0.18874   9.43
N004  3  0.52157  0.76224  0.81066 11.00000  0.21345   9.16
N005  3  0.50406  0.62918  1.12936 11.00000  0.22396   9.00
N006  3  0.50000  1.00000 -0.25000 10.25000  0.14691   8.96
N007  3  0.49081  0.95955 -0.12950 11.00000  0.16082   8.90
N008  3  0.53445  0.58757  1.40061 11.00000  0.17161   8.01
N009  3  0.49678  0.54626  1.37209 11.00000  0.18671   7.97
N00A  3  0.47345  0.59242  1.10548 11.00000  0.16757   7.90
O00B  4  0.47939  0.83365  0.22930 11.00000  0.26579   7.58
N00C  3  0.48772  0.82425  0.32865 11.00000  0.25342   7.41
N00D  3  0.53243  0.95385  0.00763 11.00000  0.15069   7.34
N00E  3  0.52605  0.79416  0.68466 11.00000  0.21600   7.24
N00F  3  0.45673  0.88120 -0.01325 11.00000  0.14601   7.23
C00G  1  0.46003  0.55711  1.23277 11.00000  0.18400   6.96
N00H  3  0.49525  0.79799  0.46637 11.00000  0.20777   6.88
N00I  3  0.48509  0.87910  0.10912 11.00000  0.16751   6.76
O00J  4  0.54151  0.76587  0.95914 11.00000  0.21870   6.40
C00K  1  0.47863  0.71190  0.57779 11.00000  0.21247   6.12
C00L  1  0.49848  0.71747  0.74494 11.00000  0.15749   5.80
C00M  1  0.46925  0.74853  0.45461 11.00000  0.15230   5.78
C00N  1  0.49094  0.61670  1.25824 11.00000  0.30414   5.72
C00O  1  0.51799  0.84495  0.42644 11.00000  0.15470   4.45
C00P  1  0.52702  0.80469  0.56441 11.00000  0.25626   4.29
O00Q  4  0.45017  0.75420  0.27997 11.00000  0.30274   4.22
C00R  1  0.50000  0.50000  1.50000 10.25000  0.18092   3.98
C00S  1  0.51758  0.67953  1.04031 11.00000  0.24802   3.90
C00T  1  0.43897  0.62465  0.80139 11.00000  0.38161   3.88
N00U  3  0.64282  0.73175  0.51744 11.00000  0.28288   3.44
C00V  1  0.49607  0.67655  0.93270 11.00000  0.27631   3.37
C00W  1  0.35307  0.85093  0.41191 11.00000  0.37176   3.17
C00X  1  0.36073  0.82712  0.60606 11.00000  0.29318   3.00
HKLF 4
END
