TITL 0620_expF_1_3_expS_0_9_0620_b.res in I4(1)
REM Old TITL 0620 in I4(1)/a
REM SHELXT solution in I4(1): R1 0.383, Rweak 0.016, Alpha 0.196
REM <I/s>   0.000 for    0 systematic absences,  Orientation as input
REM Flack x = -9.990 ( 9.990 ) from    98 Parsons' quotients
REM Formula found by SHELXT:  C39 N20 O4

CELL  0.71073  26.6550  26.6550   7.5900   90.000   90.000   90.000
ZERR  108.000   0.0038   0.0038   0.0015    0.000    0.000    0.000
LATT -2
SYMM 1/2-X, 1/2-Y, 1/2+Z
SYMM -Y, 1/2+X, 1/4+Z
SYMM 1/2+Y, -X, 3/4+Z
SFAC C H N O
UNIT 108 108 108 108
L.S. 10
BOND
LIST 6
FMAP 2
PLAN 20
N001  3  0.40796  0.47639  0.66082 11.00000  0.23677   9.71
N002  3  0.37486  0.51038  0.61929 11.00000  0.25520   8.31
N003  3  0.41380  0.53867  0.35816 11.00000  0.24343   7.67
N004  3  0.49835  0.45622  0.12603 11.00000  0.24370   7.22
N005  3  0.46193  0.38134  0.01542 11.00000  0.24839   7.19
N006  3  0.53373  0.41479 -0.10600 11.00000  0.26386   7.13
N007  3  0.25682  0.47801  1.30889 11.00000  0.23942   7.06
C008  1  0.38025  0.54465  0.49305 11.00000  0.21211   7.01
N009  3  0.46204  0.41631  0.16347 11.00000  0.19354   6.79
C00A  1  0.30223  0.47058  1.17713 11.00000  0.23478   6.75
C00B  1  0.45168  0.46168  0.53089 11.00000  0.22288   6.61
C00C  1  0.50000  0.50000  0.25863 10.50000  0.18943   6.45
C00D  1  0.29533  0.50203  0.99910 11.00000  0.23989   6.33
C00E  1  0.45946  0.50909  0.39300 11.00000  0.18380   6.27
C00F  1  0.53504  0.45017  0.00362 11.00000  0.18154   5.69
C00G  1  0.47550  0.33569 -0.20597 11.00000  0.30540   5.31
C00H  1  0.24013  0.53429  0.97515 11.00000  0.26290   5.27
C00I  1  0.50012  0.37399 -0.09951 11.00000  0.24894   5.17
C00J  1  0.51009  0.32796 -0.33551 11.00000  0.35794   5.16
O00K  4  0.26198  0.45932  1.47871 11.00000  0.34794   5.12
C00L  1  0.33161  0.51480  0.75301 11.00000  0.25428   4.73
C00M  1  0.54574  0.40491 -0.24257 11.00000  0.34902   4.70
C00N  1  0.21622  0.50517  1.24796 11.00000  0.29673   4.59
C00O  1  0.53540  0.36280 -0.47871 11.00000  0.27586   4.43
C00P  1  0.27873  0.48426  1.10475 11.00000  0.34588   4.01
C00Q  1  0.21011  0.52560  1.06877 11.00000  0.28810   4.01
N00R  3  0.35458  0.16483 -0.08143 11.00000  0.43241   3.86
N00S  3  0.35089  0.26812  0.29924 11.00000  0.40015   3.82
C00T  1  0.35904  0.21561  0.09824 11.00000  0.33758   3.81
C00U  1  0.34071  0.49589  0.89849 11.00000  0.26589   3.62
C00V  1  0.24158  0.54659  0.80906 11.00000  0.26181   3.60
O00W  4  0.43972  0.34641  0.05246 11.00000  0.47524   3.47
HKLF 4
END
