TITL 0620_expF_1_2_expS_0_9_0620_b.res in I4(1)
REM Old TITL 0620 in I4(1)/a
REM SHELXT solution in I4(1): R1 0.361, Rweak 0.026, Alpha 0.122
REM <I/s>   0.000 for    0 systematic absences,  Orientation as input
REM Flack x = -9.990 ( 9.990 ) from   104 Parsons' quotients
REM Formula found by SHELXT:  C29 N20 O12

CELL  0.71073  26.6550  26.6550   7.5900   90.000   90.000   90.000
ZERR  108.000   0.0038   0.0038   0.0015    0.000    0.000    0.000
LATT -2
SYMM 1/2-X, 1/2-Y, 1/2+Z
SYMM -Y, 1/2+X, 1/4+Z
SYMM 1/2+Y, -X, 3/4+Z
SFAC C H N O
UNIT 108 108 108 108
L.S. 10
BOND
LIST 6
FMAP 2
PLAN 20
O001  4  0.58821  0.02649 -0.24170 11.00000  0.26986   9.79
N002  3  0.62284 -0.00807 -0.19955 11.00000  0.21360   8.29
O003  4  0.54258  0.08388  0.26066 11.00000  0.20908   7.71
N004  3  0.54844  0.12008  0.39947 11.00000  0.23005   7.63
C005  1  0.52851  0.28955  0.99487 11.00000  0.18962   7.36
N006  3  0.50963  0.04061  0.28412 11.00000  0.19943   7.28
N007  3  0.52002  0.16211  0.62981 11.00000  0.25893   7.08
N008  3  0.47961  0.24217  1.18771 11.00000  0.26681   6.84
N009  3  0.61928 -0.03754 -0.07185 11.00000  0.19423   6.62
N00A  3  0.51137  0.28915  1.16129 11.00000  0.29691   6.59
N00B  3  0.58509 -0.03596  0.05825 11.00000  0.21575   6.57
C00C  1  0.46121  0.04533  0.42759 11.00000  0.15088   5.99
C00D  1  0.52916  0.25774  0.84945 11.00000  0.16175   5.92
C00E  1  0.49868  0.16310  0.79117 11.00000  0.24639   5.90
C00F  1  0.55086  0.02848 -0.08652 11.00000  0.16202   5.65
C00G  1  0.54158 -0.00296  0.03593 11.00000  0.14957   5.65
C00H  1  0.47030  0.08894  0.53927 11.00000  0.16635   5.49
O00I  4  0.54397  0.25734  0.67319 11.00000  0.28374   5.19
C00J  1  0.50000  0.00000  0.16412 10.50000  0.15685   5.17
C00K  1  0.49898  0.12682  0.52935 11.00000  0.21829   5.14
N00L  3  0.46744  0.13000  0.92598 11.00000  0.32044   4.32
C00M  1  0.47157  0.20187  1.08872 11.00000  0.24964   4.11
O00N  4  0.54718  0.35637  0.93308 11.00000  0.54092   3.96
O00O  4  0.45379  0.23700  1.35107 11.00000  0.28534   3.82
C00P  1  0.50286  0.21290  0.91481 11.00000  0.22757   3.75
O00Q  4  0.64261  0.23659  0.15889 11.00000  0.40401   3.51
C00R  1  0.48834  0.15020  0.78857 11.00000  0.32597   3.42
N00S  3  0.65100  0.32065  0.50737 11.00000  0.33593   3.25
C00T  1  0.64274  0.28969  0.36521 11.00000  0.28725   3.23
C00U  1  0.67490 -0.01049 -0.35107 11.00000  0.21746   3.17
C00V  1  0.67427  0.21568 -0.02111 11.00000  0.38475   3.01
HKLF 4
END
