TITL 0620_expF_1_0_expS_1_4_0620_a.res in I4(1)
REM Old TITL 0620 in I4(1)/a
REM SHELXT solution in I4(1): R1 0.357, Rweak 0.072, Alpha 0.206
REM <I/s>   0.000 for    0 systematic absences,  Orientation as input
REM Flack x = -9.990 ( 9.990 ) from    40 Parsons' quotients
REM Formula found by SHELXT:  C34 N18 O13

CELL  0.71073  26.6550  26.6550   7.5900   90.000   90.000   90.000
ZERR  108.000   0.0038   0.0038   0.0015    0.000    0.000    0.000
LATT -2
SYMM 1/2-X, 1/2-Y, 1/2+Z
SYMM -Y, 1/2+X, 1/4+Z
SYMM 1/2+Y, -X, 3/4+Z
SFAC C H N O
UNIT 108 108 108 108
L.S. 10
BOND
LIST 6
FMAP 2
PLAN 20
N001  3  0.95794  0.37514  1.51497 11.00000  0.13517  12.62
N002  3  0.99126  0.38162  1.63052 11.00000  0.15597  12.13
O003  4  0.91363  0.53654  1.15567 11.00000  0.13038  11.43
N004  3  1.02321  0.40999  1.66808 11.00000  0.14176  10.98
O005  4  0.95365  0.50325  1.15117 11.00000  0.13509   9.80
N006  3  0.75869  0.46541  0.19930 11.00000  0.13763   9.43
O007  4  0.95070  0.46722  1.01924 11.00000  0.11705   9.02
N008  3  0.99152  0.45821  1.40634 11.00000  0.12104   8.75
C009  1  0.91420  0.46968  0.88499 11.00000  0.06500   8.67
N00A  3  0.95676  0.42160  1.36494 11.00000  0.11579   8.10
O00B  4  0.88032  0.54148  1.04032 11.00000  0.16061   8.09
O00C  4  1.00000  0.50000  1.29798 10.50000  0.15430   7.96
N00D  3  1.03982  0.45428  1.54446 11.00000  0.16883   7.69
N00E  3  0.83607  0.51243  0.76710 11.00000  0.18136   6.91
N00F  3  0.70772  0.51905  0.41895 11.00000  0.11058   6.80
C00G  1  0.71181  0.49401  0.26119 11.00000  0.09220   6.34
C00H  1  0.74356  0.54644  0.72634 11.00000  0.15496   6.32
C00I  1  0.74000  0.51972  0.54530 11.00000  0.09875   6.04
C00J  1  0.79285  0.46969  0.34457 11.00000  0.14051   5.99
C00K  1  0.87366  0.50447  0.90345 11.00000  0.10616   5.97
C00L  1  0.79486  0.49153  0.51031 11.00000  0.12257   5.21
C00M  1  0.82094  0.50428  0.66570 11.00000  0.23321   5.12
O00N  4  0.75992  0.45561  0.05142 11.00000  0.17800   5.12
C00O  1  0.84939  0.47826  0.58862 11.00000  0.19814   4.42
C00P  1  0.66542  0.49980  0.16878 11.00000  0.16203   4.34
C00Q  1  0.67533  0.47788 -0.00226 11.00000  0.14734   4.01
C00R  1  0.73005  0.64864  1.06844 11.00000  0.24773   3.87
C00S  1  0.72963  0.35539 -0.48105 11.00000  0.23224   3.71
O00T  4  0.89517  0.43238  0.83163 11.00000  0.34564   3.61
C00U  1  0.66831  0.36244 -0.66808 11.00000  0.20697   3.52
C00V  1  0.67093  0.54482  0.49217 11.00000  0.19688   3.29
C00W  1  0.80271  0.64884  1.32467 11.00000  0.25889   3.21
C00X  1  0.74445  0.37402 -0.27390 11.00000  0.23832   3.06
HKLF 4
END
