TITL 0620_expF_1_0_expS_0_5_0620_b.res in I-4
REM Old TITL 0620 in I4(1)/a
REM SHELXT solution in I-4: R1 0.327, Rweak 0.071, Alpha 0.212
REM <I/s>   0.000 for    0 systematic absences,  Orientation as input
REM Flack x = -9.990 ( 9.990 ) from   138 Parsons' quotients
REM Formula found by SHELXT:  C29 N16 O16

CELL  0.71073  26.6550  26.6550   7.5900   90.000   90.000   90.000
ZERR  108.000   0.0038   0.0038   0.0015    0.000    0.000    0.000
LATT -2
SYMM -X, -Y, Z
SYMM Y, -X, -Z
SYMM -Y, X, -Z
SFAC C H N O
UNIT 108 108 108 108
L.S. 10
BOND
LIST 6
FMAP 2
PLAN 20
N001  3  0.46347  0.37904  1.25088 11.00000  0.15110  12.21
O002  4  0.53138  0.40731  1.10096 11.00000  0.19616  11.41
N003  3  0.46665  0.41129  1.38210 11.00000  0.11418  10.11
O004  4  0.53391  0.43611  1.24576 11.00000  0.21020   9.65
N005  3  0.50083  0.45502  1.36224 11.00000  0.17051   8.45
N006  3  0.51042  0.12068  0.11570 11.00000  0.17840   8.37
C007  1  0.52693  0.25215  0.46602 11.00000  0.11269   7.74
O008  4  0.49777  0.38021  1.15092 11.00000  0.29100   7.47
O009  4  0.48491  0.23895  0.80993 11.00000  0.22804   7.46
N00A  3  0.54141  0.07758 -0.14518 11.00000  0.15276   7.42
N00B  3  0.51253  0.04556 -0.14011 11.00000  0.16817   7.29
C00C  1  0.50000  0.50000  1.50000 10.25000  0.15381   7.27
N00D  3  0.50916  0.28619  0.75495 11.00000  0.17727   7.03
O00E  4  0.47276  0.20313  0.65128 11.00000  0.24733   6.94
N00F  3  0.47235  0.08901  0.15553 11.00000  0.17291   6.62
C00G  1  0.52145  0.16629  0.23822 11.00000  0.22756   6.42
C00H  1  0.48940  0.15980  0.40306 11.00000  0.18127   6.05
C00I  1  0.52319  0.28915  0.58751 11.00000  0.17595   5.88
O00J  4  0.45740  0.24467  0.95776 11.00000  0.22155   5.69
O00K  4  0.43878  0.35578  1.30825 11.00000  0.28982   5.32
C00L  1  0.46042  0.03915  0.01533 11.00000  0.11576   4.90
C00M  1  0.48163  0.32652  0.99871 11.00000  0.22917   4.77
C00N  1  0.51241  0.32609  0.87315 11.00000  0.24369   4.76
C00O  1  0.54411  0.12113 -0.00774 11.00000  0.15477   4.74
C00P  1  0.46378  0.11404  0.50288 11.00000  0.25935   4.60
C00Q  1  0.50504  0.20980  0.50844 11.00000  0.17689   4.53
O00R  4  0.53597  0.26175  0.27830 11.00000  0.31908   4.42
C00S  1  0.50000  0.00000 -0.25000 10.25000  0.12716   4.21
C00T  1  0.53636  0.34158  0.73758 11.00000  0.26987   4.16
C00U  1  0.54678  0.38257  0.87389 11.00000  0.29218   3.47
C00V  1  0.54054  0.36776  0.56816 11.00000  0.28926   3.36
C00W  1  0.46006  0.17810  0.71970 11.00000  0.27202   3.33
HKLF 4
END
