TITL 0620_expF_1_3_expS_1_3_0620_a.res in I-4
REM Old TITL 0620 in I4(1)/a
REM SHELXT solution in I-4: R1 0.457, Rweak 0.145, Alpha 0.176
REM <I/s>   0.000 for    0 systematic absences,  Orientation as input
REM Flack x = -9.990 ( 9.990 ) from    77 Parsons' quotients
REM Formula found by SHELXT:  C88 N37 O4

CELL  0.71073  26.6550  26.6550   7.5900   90.000   90.000   90.000
ZERR  108.000   0.0038   0.0038   0.0015    0.000    0.000    0.000
LATT -2
SYMM -X, -Y, Z
SYMM Y, -X, -Z
SYMM -Y, X, -Z
SFAC C H N O
UNIT 108 108 108 108
L.S. 10
BOND
LIST 6
FMAP 2
PLAN 20
N001  3  0.08246  0.53508  0.13915 11.00000  0.19644   8.60
N002  3  0.37775  0.54630  1.25784 11.00000  0.19857   8.59
N003  3  0.00000  0.50000 -0.25000 10.25000  0.12773   8.30
N004  3  0.37349  0.51144  1.13943 11.00000  0.22454   7.81
N005  3  0.23312  0.52642  0.78792 11.00000  0.27825   7.55
N006  3  0.29113  0.48955  0.75073 11.00000  0.25261   6.75
N007  3  0.41384  0.53880  1.38263 11.00000  0.20395   6.73
C008  1  0.03527  0.49251 -0.12402 11.00000  0.13294   6.58
C009  1  0.44855  0.50053  1.37029 11.00000  0.20414   6.57
N00A  3  0.05513  0.53380  0.00545 11.00000  0.19577   6.54
C00B  1  0.41011  0.47716  1.11437 11.00000  0.17347   6.46
C00C  1  0.12421  0.48022  0.07088 11.00000  0.20320   6.19
C00D  1  0.08212  0.46292 -0.16039 11.00000  0.10990   5.99
C00E  1  0.33303  0.49714  0.84683 11.00000  0.22865   5.94
C00F  1  0.20871  0.52331  0.66233 11.00000  0.19699   5.86
C00G  1  0.45372  0.46043  1.23633 11.00000  0.18943   5.66
C00H  1  0.16736  0.47992  0.24423 11.00000  0.19028   5.33
C00I  1  0.11283  0.45549 -0.04315 11.00000  0.16066   5.29
C00J  1  0.29448  0.48175  0.58102 11.00000  0.22597   5.19
C00K  1  0.25015  0.47534  0.44537 11.00000  0.15909   4.92
C00L  1  0.32539  0.50997  1.01202 11.00000  0.24191   4.88
C00M  1  0.10669  0.50835  0.15607 11.00000  0.20179   4.70
C00N  1  0.26519  0.45382  0.28322 11.00000  0.17210   4.67
C00O  1  0.24968  0.54163  0.95284 11.00000  0.24088   4.41
C00P  1  0.08702  0.54198  0.28530 11.00000  0.30283   4.23
C00Q  1  0.34408  0.64275  0.87607 11.00000  0.27060   4.01
C00R  1  0.32614  0.62452  0.71677 11.00000  0.26430   3.70
O00S  4  0.22404  0.36246  0.74276 11.00000  0.32104   3.61
C00T  1  0.18421  0.49338  0.36623 11.00000  0.26304   3.48
C00U  1  0.20954  0.49827  0.50307 11.00000  0.17571   3.33
C00V  1  0.18255  0.32067  0.66537 11.00000  0.38814   3.26
N00W  3  0.21734  0.63900  0.33359 11.00000  0.39935   3.23
N00X  3  0.32450  0.58742  0.62478 11.00000  0.34731   3.18
HKLF 4
END
