TITL 0620_expF_1_2_expS_1_4_0620_a.res in I4(1)/a
REM Old TITL 0620 in I4(1)/a
REM SHELXT solution in I4(1)/a: R1 0.503, Rweak 0.061, Alpha 0.146
REM <I/s>   0.000 for    0 systematic absences,  Orientation as input
REM Formula found by SHELXT:  C37 N16 O8

CELL  0.71073  26.6550  26.6550   7.5900   90.000   90.000   90.000
ZERR  108.000   0.0038   0.0038   0.0015    0.000    0.000    0.000
LATT  2
SYMM 1/2-X, -Y, 1/2+Z
SYMM 3/4-Y, 1/4+X, 1/4+Z
SYMM 3/4+Y, 3/4-X, 3/4+Z
SFAC C H N O
UNIT 108 108 108 108
L.S. 10
BOND
LIST 6
FMAP 2
PLAN 20
N001  3  0.54659  0.36745  0.63628 11.00000  0.13463   7.80
N002  3  0.47513  0.33841  0.49309 11.00000  0.13610   7.51
N003  3  0.50881  0.37016  0.51433 11.00000  0.17312   7.38
C004  1  0.50397  0.29151  0.74675 11.00000  0.08691   7.34
N005  3  0.54063  0.33494  0.76224 11.00000  0.10990   7.07
C006  1  0.46879  0.30317  0.62159 11.00000  0.10996   6.64
C007  1  0.47390  0.49152 -0.16044 11.00000  0.12405   6.23
C008  1  0.47644  0.46003 -0.03922 11.00000  0.12941   5.47
C009  1  0.51517  0.42055  0.36600 11.00000  0.13077   5.25
C00A  1  0.50000  0.25000  0.87500 10.25000  0.09505   4.94
C00B  1  0.49686  0.45650  0.12862 11.00000  0.13545   4.79
O00C  4  0.44699  0.49370 -0.33414 11.00000  0.21723   4.68
C00D  1  0.49646  0.41830  0.24235 11.00000  0.16486   4.64
C00E  1  0.50727  0.38013  0.61670 11.00000  0.26138   3.59
O00F  4  0.49148  0.40073  0.14816 11.00000  0.40058   3.21
C00G  1  0.50152  0.38290  0.44746 11.00000  0.22697   3.08
HKLF 4
END
