TITL 0620_expF_1_0_expS_0_8_0620_b.res in I4(1)
REM Old TITL 0620 in I4(1)/a
REM SHELXT solution in I4(1): R1 0.349, Rweak 0.108, Alpha 0.200
REM <I/s>   0.000 for    0 systematic absences,  Orientation as input
REM Flack x = -5.248 ( 9.990 ) from   137 Parsons' quotients
REM Formula found by SHELXT:  C33 N12 O6

CELL  0.71073  26.6550  26.6550   7.5900   90.000   90.000   90.000
ZERR  108.000   0.0038   0.0038   0.0015    0.000    0.000    0.000
LATT -2
SYMM 1/2-X, 1/2-Y, 1/2+Z
SYMM -Y, 1/2+X, 1/4+Z
SYMM 1/2+Y, -X, 3/4+Z
SFAC C H N O
UNIT 108 108 108 108
L.S. 10
BOND
LIST 6
FMAP 2
PLAN 20
N001  3  0.97282  0.59155  1.31865 11.00000  0.19286   8.20
N002  3  0.74195  0.52876  0.21303 11.00000  0.17866   8.18
O003  4  0.87717  0.54666  0.67766 11.00000  0.21637   7.62
O004  4  1.03676  0.58156  1.01876 11.00000  0.20360   7.33
N005  3  0.70614  0.51906  0.06159 11.00000  0.18828   7.32
N006  3  0.91396  0.53813  0.81316 11.00000  0.16538   7.21
N007  3  1.03975  0.61639  1.15624 11.00000  0.18930   7.04
C008  1  0.95481  0.54582  1.20459 11.00000  0.15506   6.91
N009  3  1.00707  0.61951  1.27565 11.00000  0.17171   6.89
C00A  1  1.00578  0.54566  1.06785 11.00000  0.13762   6.70
C00B  1  0.91172  0.46747  0.53184 11.00000  0.13024   6.41
C00C  1  0.95393  0.50566  0.80565 11.00000  0.12206   6.33
C00D  1  0.88115  0.50597  0.53913 11.00000  0.18694   5.97
C00E  1  0.94679  0.47076  0.67351 11.00000  0.12069   5.94
C00F  1  0.71396  0.50188 -0.08126 11.00000  0.17721   5.84
C00G  1  0.67887  0.48853 -0.31865 11.00000  0.25318   5.02
C00H  1  1.00000  0.50000  0.93825 10.50000  0.12625   4.95
C00I  1  0.83056  0.49444  0.30944 11.00000  0.19542   4.85
C00J  1  0.79158  0.50084  0.17149 11.00000  0.17097   4.61
C00K  1  0.83496  0.51945  0.45577 11.00000  0.21836   4.27
C00L  1  0.66504  0.51851 -0.12967 11.00000  0.22835   4.12
O00M  4  0.74486  0.54064  0.37732 11.00000  0.21964   4.07
C00N  1  0.75570  0.49244 -0.10038 11.00000  0.21163   3.51
C00O  1  0.79325  0.48258  0.00063 11.00000  0.19144   3.46
C00P  1  0.68462  0.54537  0.12925 11.00000  0.26767   3.43
C00Q  1  0.87591  0.46434  0.23436 11.00000  0.30807   3.17
HKLF 4
END
