TITL 0620_expF_1_5_expS_0_8_0620_a.res in I4(1)
REM Old TITL 0620 in I4(1)/a
REM SHELXT solution in I4(1): R1 0.473, Rweak 0.179, Alpha 0.180
REM <I/s>   0.000 for    0 systematic absences,  Orientation as input
REM Flack x = -9.990 ( 9.990 ) from   113 Parsons' quotients
REM Formula found by SHELXT:  C32 N19 O10

CELL  0.71073  26.6550  26.6550   7.5900   90.000   90.000   90.000
ZERR  108.000   0.0038   0.0038   0.0015    0.000    0.000    0.000
LATT -2
SYMM 1/2-X, 1/2-Y, 1/2+Z
SYMM -Y, 1/2+X, 1/4+Z
SYMM 1/2+Y, -X, 3/4+Z
SFAC C H N O
UNIT 108 108 108 108
L.S. 10
BOND
LIST 6
FMAP 2
PLAN 20
O001  4  1.02944  0.41193  1.57074 11.00000  0.34440  10.46
N002  3  0.99237  0.38366  1.52259 11.00000  0.30270   9.43
O003  4  0.95493  0.38419  1.40313 11.00000  0.32320   8.72
N004  3  0.75432  0.48162  0.12001 11.00000  0.30349   8.63
N005  3  0.70949  0.50729  0.19561 11.00000  0.29439   8.43
N006  3  0.95411  0.50448  1.03429 11.00000  0.24492   8.03
O007  4  0.95380  0.41888  1.25038 11.00000  0.30726   8.02
N008  3  1.00000  0.50000  1.17099 10.50000  0.24779   7.67
N009  3  0.91372  0.53603  1.05418 11.00000  0.23488   7.40
N00A  3  0.69568  0.53019  0.34389 11.00000  0.29612   7.40
N00B  3  0.87300  0.54914  0.93785 11.00000  0.28086   6.83
N00C  3  0.91015  0.47074  0.77231 11.00000  0.30946   6.60
C00D  1  0.84987  0.48953  0.48396 11.00000  0.26641   6.42
C00E  1  0.82647  0.50771  0.62741 11.00000  0.21997   6.38
C00F  1  0.87434  0.50581  0.84222 11.00000  0.31029   6.34
C00G  1  0.94492  0.46558  0.91079 11.00000  0.23547   6.13
C00H  1  0.99336  0.45944  1.30443 11.00000  0.20809   5.70
C00I  1  0.79279  0.48223  0.25964 11.00000  0.29876   5.66
C00J  1  0.75995  0.45371 -0.05575 11.00000  0.27843   5.13
C00K  1  0.85168  0.50813  0.72638 11.00000  0.32021   5.07
C00L  1  0.73688  0.52479  0.42802 11.00000  0.26371   4.56
C00M  1  0.79500  0.50373  0.42701 11.00000  0.25452   4.28
C00N  1  1.03399  0.45034  1.44036 11.00000  0.23922   4.28
C00O  1  0.66981  0.47749 -0.10413 11.00000  0.28386   4.20
N00P  3  0.68596  0.66456 -0.25577 11.00000  0.44733   4.17
C00Q  1  0.66487  0.69740 -0.43505 11.00000  0.38470   4.01
C00R  1  0.66094  0.50348  0.05717 11.00000  0.26318   3.89
C00S  1  0.69668  0.63748 -0.10595 11.00000  0.37060   3.81
C00T  1  0.64412  0.72557 -0.57074 11.00000  0.33153   3.56
O00U  4  0.74244  0.53951  0.59330 11.00000  0.37511   3.25
O00V  4  0.71750  0.63143  0.04103 11.00000  0.49642   3.20
HKLF 4
END
