TITL 0620_expF_1_1_expS_0_8_0620_b.res in I-4
REM Old TITL 0620 in I4(1)/a
REM SHELXT solution in I-4: R1 0.353, Rweak 0.072, Alpha 0.188
REM <I/s>   0.000 for    0 systematic absences,  Orientation as input
REM Flack x = -6.967 ( 9.990 ) from   116 Parsons' quotients
REM Formula found by SHELXT:  C33 N14 O10

CELL  0.71073  26.6550  26.6550   7.5900   90.000   90.000   90.000
ZERR  108.000   0.0038   0.0038   0.0015    0.000    0.000    0.000
LATT -2
SYMM -X, -Y, Z
SYMM Y, -X, -Z
SYMM -Y, X, -Z
SFAC C H N O
UNIT 108 108 108 108
L.S. 10
BOND
LIST 6
FMAP 2
PLAN 20
N001  3  0.46843  0.88150  0.98987 11.00000  0.26915   9.09
N002  3  0.49230  0.87073  0.87084 11.00000  0.20400   8.73
N003  3  0.52383  0.91223  0.87545 11.00000  0.18297   8.56
O004  4  0.46385  0.54725 -0.23560 11.00000  0.20116   7.63
N005  3  0.50741  0.94785  1.11780 11.00000  0.23325   7.61
N006  3  0.46154  0.91035  1.14555 11.00000  0.20463   7.30
N007  3  0.46693  0.58919 -0.08835 11.00000  0.21906   6.68
C008  1  0.50642  0.54305 -0.37281 11.00000  0.11246   6.42
C009  1  0.52790  0.75516  0.22185 11.00000  0.19584   6.40
C00A  1  0.53930  0.58256 -0.38929 11.00000  0.13975   6.28
C00B  1  0.52484  0.78691  0.36153 11.00000  0.20213   6.27
C00C  1  0.50779  0.83398  0.61436 11.00000  0.20337   5.89
C00D  1  0.53178  0.94750  0.98909 11.00000  0.16609   5.71
C00E  1  0.48787  0.83379  0.75445 11.00000  0.17102   5.68
C00F  1  0.54209  0.62108 -0.26824 11.00000  0.12611   5.55
C00G  1  0.47710  0.74207  0.55665 11.00000  0.20727   5.54
O00H  4  0.45517  0.75237  0.72568 11.00000  0.28192   5.49
C00I  1  0.50827  0.62476 -0.14196 11.00000  0.19534   5.21
C00J  1  0.50871  0.78912  0.50684 11.00000  0.16812   4.91
C00K  1  0.50943  0.71667  0.26168 11.00000  0.31328   4.82
C00L  1  0.51821  0.67309  0.00737 11.00000  0.22391   4.56
C00M  1  0.50000  1.00000  1.25000 10.25000  0.20101   4.39
C00N  1  0.46830  0.70261  0.44375 11.00000  0.21452   4.33
O00O  4  0.54340  0.92374  0.77281 11.00000  0.54419   4.19
C00P  1  0.50000  0.50000 -0.50000 10.25000  0.21895   4.02
C00Q  1  0.42773  0.87037  1.01440 11.00000  0.35155   3.87
C00R  1  0.47960  0.65053  0.16405 11.00000  0.30763   3.59
O00S  4  0.54533  0.75915  0.05119 11.00000  0.30553   3.34
O00T  4  0.53586  0.85760  0.27882 11.00000  0.51172   3.32
N00U  3  0.39145  0.84002  1.40071 11.00000  0.45868   3.19
HKLF 4
END
