TITL 0620_expF_1_3_expS_0_6_0620_b.res in I-4
REM Old TITL 0620 in I4(1)/a
REM SHELXT solution in I-4: R1 0.391, Rweak 0.027, Alpha 0.142
REM <I/s>   0.000 for    0 systematic absences,  Orientation as input
REM Flack x = -5.016 ( 9.990 ) from   122 Parsons' quotients
REM Formula found by SHELXT:  C69 N37 O8

CELL  0.71073  26.6550  26.6550   7.5900   90.000   90.000   90.000
ZERR  108.000   0.0038   0.0038   0.0015    0.000    0.000    0.000
LATT -2
SYMM -X, -Y, Z
SYMM Y, -X, -Z
SYMM -Y, X, -Z
SFAC C H N O
UNIT 108 108 108 108
L.S. 10
BOND
LIST 6
FMAP 2
PLAN 20
N001  3  0.91072  0.47137  0.84880 11.00000  0.24022   9.73
N002  3  1.00000  0.50000  1.25000 10.25000  0.21148   8.79
N003  3  0.86774  0.54394  1.01769 11.00000  0.31113   8.68
N004  3  0.87843  0.50452  0.88761 11.00000  0.33349   8.43
N005  3  0.91589  0.53635  1.13982 11.00000  0.27859   7.14
N006  3  0.94945  0.46389  0.98730 11.00000  0.17584   7.07
N007  3  0.78834  0.48931  0.51275 11.00000  0.33185   6.87
C008  1  0.95543  0.49753  1.12383 11.00000  0.18652   6.80
C009  1  0.74571  0.52099  0.54042 11.00000  0.23605   6.37
C00A  1  0.58411  0.46084 -0.39660 11.00000  0.17653   5.76
C00B  1  0.58959  0.53044 -0.12328 11.00000  0.23396   5.74
N00C  3  0.71122  0.52649  0.44334 11.00000  0.30774   5.70
C00D  1  0.66735  0.47271 -0.01805 11.00000  0.25247   5.37
C00E  1  0.79632  0.47226  0.35552 11.00000  0.30966   5.30
C00F  1  0.83849  0.48093  0.62552 11.00000  0.30632   5.17
C00G  1  0.53890  0.48706 -0.37151 11.00000  0.23663   5.05
C00H  1  0.76000  0.46586  0.18498 11.00000  0.30104   5.02
C00I  1  0.76505  0.45570  0.02166 11.00000  0.26525   4.15
O00J  4  0.67071  0.49742  0.14458 11.00000  0.38896   4.12
N00K  3  0.74297  0.35393  0.47828 11.00000  0.38053   3.97
C00L  1  0.62396  0.49081 -0.14181 11.00000  0.22836   3.86
C00M  1  0.83029  0.51428  0.77386 11.00000  0.30114   3.86
C00N  1  0.50000  0.50000 -0.50000 10.25000  0.25380   3.58
N00O  3  0.84061  0.65930  1.61666 11.00000  0.40630   3.44
C00P  1  0.70653  0.49139  0.27648 11.00000  0.24191   3.40
C00Q  1  0.61532  0.45505 -0.25750 11.00000  0.17827   3.38
C00R  1  0.83755  0.63384  1.41573 11.00000  0.36891   3.18
O00S  4  0.59298  0.54610  0.04965 11.00000  0.45762   3.05
C00T  1  0.86773  0.46016  0.50463 11.00000  0.28503   3.03
C00U  1  0.83182  0.56677  1.32247 11.00000  0.41044   3.02
HKLF 4
END
