TITL 0620_expF_1_0_expS_0_5_0620_a.res in I4(1)
REM Old TITL 0620 in I4(1)/a
REM SHELXT solution in I4(1): R1 0.321, Rweak 0.033, Alpha 0.219
REM <I/s>   0.000 for    0 systematic absences,  Orientation as input
REM Flack x = -9.990 ( 9.990 ) from   139 Parsons' quotients
REM Formula found by SHELXT:  C35 N20 O10

CELL  0.71073  26.6550  26.6550   7.5900   90.000   90.000   90.000
ZERR  108.000   0.0038   0.0038   0.0015    0.000    0.000    0.000
LATT -2
SYMM 1/2-X, 1/2-Y, 1/2+Z
SYMM -Y, 1/2+X, 1/4+Z
SYMM 1/2+Y, -X, 3/4+Z
SFAC C H N O
UNIT 108 108 108 108
L.S. 10
BOND
LIST 6
FMAP 2
PLAN 20
O001  4  0.90556  0.47375  0.74158 11.00000  0.19175  10.31
N002  3  1.02712  0.62179  1.41274 11.00000  0.16767   9.37
N003  3  1.03569  0.58609  1.23006 11.00000  0.11259   9.04
O004  4  0.95271  0.45960  0.85858 11.00000  0.21488   8.81
N005  3  0.89105  0.51079  0.75573 11.00000  0.22888   8.21
N006  3  0.78542  0.48860  0.23919 11.00000  0.20909   8.12
N007  3  1.00523  0.54140  1.24220 11.00000  0.12548   8.08
O008  4  0.91763  0.53486  1.02747 11.00000  0.16044   7.76
N009  3  0.76358  0.48467  0.07883 11.00000  0.16535   7.52
N00A  3  0.88829  0.54518  0.89799 11.00000  0.15470   7.42
C00B  1  0.75181  0.52420  0.40388 11.00000  0.12687   7.38
N00C  3  0.95406  0.50923  0.99937 11.00000  0.16375   7.20
C00D  1  1.00088  0.62323  1.50240 11.00000  0.15468   6.74
C00E  1  0.72575  0.50609  0.14596 11.00000  0.19176   6.54
N00F  3  0.96788  0.58703  1.50219 11.00000  0.12508   6.51
C00G  1  0.84201  0.52155  0.65895 11.00000  0.19710   5.98
C00H  1  0.68280  0.48525 -0.13620 11.00000  0.16204   5.89
O00I  4  0.74323  0.53178  0.58931 11.00000  0.25699   5.86
C00J  1  1.00000  0.50000  1.11507 10.50000  0.09682   5.81
C00K  1  0.97257  0.55312  1.36771 11.00000  0.09979   5.77
O00L  4  0.68244  0.52300 -0.04762 11.00000  0.33954   5.70
C00M  1  0.70573  0.52403  0.29118 11.00000  0.16401   4.86
C00N  1  0.79495  0.50272  0.39156 11.00000  0.14619   4.76
C00O  1  0.83814  0.49663  0.49574 11.00000  0.14768   4.70
C00P  1  0.63912  0.52936  0.09892 11.00000  0.33730   4.56
C00Q  1  0.71538  0.35413 -0.64507 11.00000  0.20620   4.15
C00R  1  1.04407  0.62353  1.32851 11.00000  0.15648   4.09
C00S  1  1.00254  0.58914  1.31361 11.00000  0.22045   3.78
C00T  1  0.76452  0.45351 -0.07352 11.00000  0.18694   3.74
C00U  1  0.80785  0.46831  0.16405 11.00000  0.21258   3.66
N00V  3  0.70347  0.52491  0.10957 11.00000  0.23867   3.46
C00W  1  0.94889  0.59968  1.64507 11.00000  0.23470   3.08
C00X  1  0.78369  0.36578 -0.38242 11.00000  0.27928   3.01
HKLF 4
END
