TITL 0620_expF_1_1_expS_1_0_0620_a.res in I4(1)
REM Old TITL 0620 in I4(1)/a
REM SHELXT solution in I4(1): R1 0.343, Rweak 0.103, Alpha 0.218
REM <I/s>   0.000 for    0 systematic absences,  Orientation as input
REM Flack x = -9.990 ( 9.990 ) from   114 Parsons' quotients
REM Formula found by SHELXT:  C35 N14 O12

CELL  0.71073  26.6550  26.6550   7.5900   90.000   90.000   90.000
ZERR  108.000   0.0038   0.0038   0.0015    0.000    0.000    0.000
LATT -2
SYMM 1/2-X, 1/2-Y, 1/2+Z
SYMM -Y, 1/2+X, 1/4+Z
SYMM 1/2+Y, -X, 3/4+Z
SFAC C H N O
UNIT 108 108 108 108
L.S. 10
BOND
LIST 6
FMAP 2
PLAN 20
O001  4  0.62113  0.45709  1.11824 11.00000  0.21382   9.05
N002  3  0.53060  0.41613  0.49741 11.00000  0.15749   8.38
N003  3  0.53533  0.45102  0.62782 11.00000  0.14652   8.17
O004  4  0.58553  0.45984  0.99397 11.00000  0.18555   7.86
N005  3  0.49632  0.37615  0.50585 11.00000  0.16105   7.66
N006  3  0.52806  0.29911 -0.03658 11.00000  0.20816   7.56
N007  3  0.49943  0.45540  0.76642 11.00000  0.18263   7.50
C008  1  0.59295  0.52455  1.27608 11.00000  0.16673   6.64
C009  1  0.46267  0.41845  0.78094 11.00000  0.14753   6.54
C00A  1  0.52236  0.25660 -0.17146 11.00000  0.17220   6.50
C00B  1  0.49788  0.30133  0.15805 11.00000  0.22080   6.12
C00C  1  0.62471  0.48267  1.21682 11.00000  0.19468   6.03
C00D  1  0.53907  0.49228  1.00494 11.00000  0.14303   6.02
C00E  1  0.46932  0.24054  0.16431 11.00000  0.18346   5.99
N00F  3  0.52662  0.17288 -0.39295 11.00000  0.19723   5.61
C00G  1  0.45606  0.38045  0.64262 11.00000  0.17464   5.48
C00H  1  0.50000  0.50000  0.89583 10.50000  0.13218   5.32
C00I  1  0.50576  0.17028 -0.26159 11.00000  0.22422   5.21
C00J  1  0.54833  0.53637  1.15559 11.00000  0.16079   4.86
C00K  1  0.50048  0.21705 -0.11404 11.00000  0.16920   4.57
O00L  4  0.45646  0.23387  0.33654 11.00000  0.26809   4.55
O00M  4  0.54850  0.24776 -0.33235 11.00000  0.28000   4.47
N00N  3  0.63828  0.23099  0.11996 11.00000  0.30705   4.41
C00O  1  0.50980  0.29741  0.09882 11.00000  0.26933   4.34
O00P  4  0.58538  0.54911  1.39295 11.00000  0.42269   4.30
C00Q  1  0.49366  0.33267  0.39051 11.00000  0.21780   4.13
O00R  4  0.62756  0.15868 -0.08627 11.00000  0.47903   3.92
C00S  1  0.66183  0.14921 -0.28136 11.00000  0.30544   3.86
C00T  1  0.47894  0.21025  0.05211 11.00000  0.19525   3.80
C00U  1  0.47463  0.14305 -0.15858 11.00000  0.23541   3.74
C00V  1  0.50936  0.33467  0.25870 11.00000  0.21937   3.30
HKLF 4
END
