TITL 0620_expF_1_3_expS_1_3_0620_b.res in I4(1)
REM Old TITL 0620 in I4(1)/a
REM SHELXT solution in I4(1): R1 0.496, Rweak 0.053, Alpha 0.190
REM <I/s>   0.000 for    0 systematic absences,  Orientation as input
REM Flack x = -9.990 ( 9.990 ) from    77 Parsons' quotients
REM Formula found by SHELXT:  C41 N10 O8

CELL  0.71073  26.6550  26.6550   7.5900   90.000   90.000   90.000
ZERR  108.000   0.0038   0.0038   0.0015    0.000    0.000    0.000
LATT -2
SYMM 1/2-X, 1/2-Y, 1/2+Z
SYMM -Y, 1/2+X, 1/4+Z
SYMM 1/2+Y, -X, 3/4+Z
SFAC C H N O
UNIT 108 108 108 108
L.S. 10
BOND
LIST 6
FMAP 2
PLAN 20
N001  3  0.58660  0.52095  0.50841 11.00000  0.21020   7.94
O002  4  0.62343  0.49295  0.47972 11.00000  0.22233   6.92
N003  3  0.49179  0.46068 -0.01415 11.00000  0.20617   6.67
C004  1  0.71214  0.52521  1.02211 11.00000  0.16030   6.56
N005  3  0.45716  0.38117 -0.11904 11.00000  0.18044   6.53
C006  1  0.55278  0.53090  0.38327 11.00000  0.25059   6.44
C007  1  0.45967  0.41572  0.00350 11.00000  0.11577   6.39
C008  1  0.53361  0.42114 -0.25322 11.00000  0.17999   6.29
C009  1  0.74248  0.52366  1.16454 11.00000  0.16155   6.15
C00A  1  0.61900  0.46634  0.35485 11.00000  0.18279   6.14
C00B  1  0.49695  0.37087 -0.24549 11.00000  0.15879   6.04
C00C  1  0.49207  0.34564 -0.37120 11.00000  0.15923   5.88
N00D  3  0.58341  0.46771  0.21378 11.00000  0.21000   5.68
C00E  1  0.50445  0.34076 -0.52856 11.00000  0.18642   5.37
C00F  1  0.75661  0.46890  0.86007 11.00000  0.24205   5.33
C00G  1  0.54057  0.49765  0.23803 11.00000  0.18379   5.28
C00H  1  0.70406  0.50820  0.86640 11.00000  0.24592   5.16
C00I  1  0.50000  0.50000  0.11271 10.50000  0.15468   5.09
C00J  1  0.53739  0.45433 -0.14856 11.00000  0.13528   4.87
N00K  3  0.61791  0.51656  0.32559 11.00000  0.31032   4.68
C00L  1  0.76241  0.55274  1.33789 11.00000  0.24620   4.38
O00M  4  0.76974  0.45327  0.66552 11.00000  0.26961   3.93
C00N  1  0.67290  0.48676  0.62308 11.00000  0.29119   3.75
O00O  4  0.67049  0.56014  1.06431 11.00000  0.34019   3.73
C00P  1  0.51938  0.39994 -0.35900 11.00000  0.26350   3.62
O00Q  4  0.85284  0.72289  1.52305 11.00000  0.34083   3.60
C00R  1  0.52295  0.36121 -0.65846 11.00000  0.25975   3.33
C00S  1  0.84768  0.64510  1.26838 11.00000  0.26662   3.30
C00T  1  0.85468  0.71526  1.37860 11.00000  0.22794   3.24
C00U  1  0.85903  0.76766  1.65846 11.00000  0.24032   3.02
HKLF 4
END
