TITL 0620_expF_1_5_expS_1_1_0620_b.res in I4(1)
REM Old TITL 0620 in I4(1)/a
REM SHELXT solution in I4(1): R1 0.641, Rweak 0.218, Alpha 0.233
REM <I/s>   0.000 for    0 systematic absences,  Orientation as input
REM Flack x = -1.584 ( 9.990 ) from    84 Parsons' quotients
REM Formula found by SHELXT:  C20 N9 O8

CELL  0.71073  26.6550  26.6550   7.5900   90.000   90.000   90.000
ZERR  108.000   0.0038   0.0038   0.0015    0.000    0.000    0.000
LATT -2
SYMM 1/2-X, 1/2-Y, 1/2+Z
SYMM -Y, 1/2+X, 1/4+Z
SYMM 1/2+Y, -X, 3/4+Z
SFAC C H N O
UNIT 108 108 108 108
L.S. 10
BOND
LIST 6
FMAP 2
PLAN 20
N001  3  0.50000  0.50000  0.58338 10.50000  0.29210  11.45
O002  4  0.59057  0.51631  0.96305 11.00000  0.39680   9.94
O003  4  0.49966  0.46079  0.45144 11.00000  0.28667   9.69
O004  4  0.47047  0.41495  0.49121 11.00000  0.32361   7.76
N005  3  0.52730  0.47949  0.72003 11.00000  0.29366   6.80
N006  3  0.51808  0.26712  0.54341 11.00000  0.29031   6.72
C007  1  0.49011  0.19823  0.56849 11.00000  0.24176   6.16
C008  1  0.48473  0.21036  0.73672 11.00000  0.24245   6.05
C009  1  0.49850  0.24087  0.86856 11.00000  0.32260   5.84
C00A  1  0.52730  0.43562  0.26247 11.00000  0.30676   5.46
C00B  1  0.47997  0.33105  0.04890 11.00000  0.29740   5.31
C00C  1  0.58811  0.45697  0.72823 11.00000  0.22897   5.25
C00D  1  0.51887  0.25051  0.63050 11.00000  0.23108   5.14
C00E  1  0.52294  0.28969  0.71725 11.00000  0.21498   4.69
N00F  3  0.50715  0.38657  0.24819 11.00000  0.25747   4.62
O00G  4  0.49752  0.24928  0.41845 11.00000  0.32959   3.31
C00H  1  0.49755  0.31640  0.21819 11.00000  0.36245   3.28
C00I  1  0.55032  0.41627  0.03695 11.00000  0.41409   3.26
N00J  3  0.64462  0.41554  0.48144 11.00000  0.32530   3.09
HKLF 4
END
