TITL 0620_expF_1_5_expS_0_8_0620_b.res in I-4
REM Old TITL 0620 in I4(1)/a
REM SHELXT solution in I-4: R1 0.524, Rweak 0.109, Alpha 0.150
REM <I/s>   0.000 for    0 systematic absences,  Orientation as input
REM Flack x = -9.990 ( 9.990 ) from   112 Parsons' quotients
REM Formula found by SHELXT:  C49 N13 O20

CELL  0.71073  26.6550  26.6550   7.5900   90.000   90.000   90.000
ZERR  108.000   0.0038   0.0038   0.0015    0.000    0.000    0.000
LATT -2
SYMM -X, -Y, Z
SYMM Y, -X, -Z
SYMM -Y, X, -Z
SFAC C H N O
UNIT 108 108 108 108
L.S. 10
BOND
LIST 6
FMAP 2
PLAN 20
O001  4  0.47861  0.59017  1.08626 11.00000  0.34049   9.55
N002  3  0.50000  0.50000  1.50000 10.25000  0.16230   8.64
N003  3  0.51648  0.61960  1.13760 11.00000  0.33435   7.83
O004  4  0.54514  0.61885  1.27545 11.00000  0.32580   7.76
N005  3  0.49459  0.70536  0.75064 11.00000  0.30744   6.96
C006  1  0.50699  0.53440  1.37829 11.00000  0.18404   6.72
N007  3  0.53812  0.57698  1.41924 11.00000  0.25844   6.63
C008  1  0.51944  0.75794  0.78441 11.00000  0.26692   5.50
C009  1  0.47604  0.70521  0.57753 11.00000  0.27322   5.49
C00A  1  0.47068  0.55581  1.24290 11.00000  0.24668   5.37
O00B  4  0.50362  0.79187  0.59990 11.00000  0.50194   5.02
C00C  1  0.52417  0.90695  0.09179 11.00000  0.36219   4.73
C00D  1  0.45713  0.91185 -0.13245 11.00000  0.34060   4.63
C00E  1  0.48559  0.82560  0.23229 11.00000  0.27101   4.59
C00F  1  0.50000  1.00000 -0.25000 10.25000  0.24472   4.50
C00G  1  0.48475  0.65755  0.84978 11.00000  0.32492   4.37
C00H  1  0.49911  0.88301  0.09752 11.00000  0.36972   4.30
C00I  1  0.49752  0.95720 -0.13022 11.00000  0.29859   4.15
C00J  1  0.58011  0.74469  0.96544 11.00000  0.38511   3.87
C00K  1  0.51307  0.66547  0.98822 11.00000  0.28795   3.65
O00L  4  0.55349  0.90585  0.25113 11.00000  0.50850   3.37
O00M  4  0.50101  0.83466  0.40319 11.00000  0.36086   3.34
HKLF 4
END
