TITL 0620_expF_1_4_expS_1_4_0620_c.res in I-4
REM Old TITL 0620 in I4(1)/a
REM SHELXT solution in I-4: R1 0.552, Rweak 0.219, Alpha 0.155
REM <I/s>   0.000 for    0 systematic absences,  Orientation as input
REM Flack x = -9.990 ( 9.990 ) from    67 Parsons' quotients
REM Formula found by SHELXT:  C56 N45 O4

CELL  0.71073  26.6550  26.6550   7.5900   90.000   90.000   90.000
ZERR  108.000   0.0038   0.0038   0.0015    0.000    0.000    0.000
LATT -2
SYMM -X, -Y, Z
SYMM Y, -X, -Z
SYMM -Y, X, -Z
SFAC C H N O
UNIT 108 108 108 108
L.S. 10
BOND
LIST 6
FMAP 2
PLAN 20
N001  3  0.00000  0.50000 -0.25000 10.25000  0.12228   9.46
N002  3  0.24222  0.51878  0.77255 11.00000  0.27208   7.53
N003  3  0.12307  0.48917  0.09318 11.00000  0.25305   7.45
N004  3  0.08175  0.53418  0.14897 11.00000  0.23452   7.33
N005  3  0.38466  0.54243  1.24334 11.00000  0.23310   7.24
N006  3  0.08741  0.46462 -0.13844 11.00000  0.19875   7.08
C007  1  0.04473  0.49773 -0.10656 11.00000  0.13398   7.03
N008  3  0.12383  0.45337 -0.01796 11.00000  0.21963   6.77
C009  1  0.19517  0.53924  0.72193 11.00000  0.28121   6.69
N00A  3  0.41544  0.54160  1.39526 11.00000  0.20418   6.67
C00B  1  0.41218  0.47956  1.10818 11.00000  0.16760   6.14
N00C  3  0.37366  0.50597  1.11447 11.00000  0.23206   5.81
C00D  1  0.15023  0.51138  0.41007 11.00000  0.25535   5.76
C00E  1  0.05527  0.53185  0.01928 11.00000  0.16173   5.63
N00F  3  0.17752  0.49319  0.26319 11.00000  0.30994   5.47
N00G  3  0.24230  0.55278  0.93932 11.00000  0.32016   5.38
C00H  1  0.44795  0.50488  1.38423 11.00000  0.22416   5.35
C00I  1  0.28345  0.49138  0.74121 11.00000  0.23382   5.11
C00J  1  0.20058  0.49778  0.46319 11.00000  0.19603   5.06
N00K  3  0.27989  0.64636  0.51065 11.00000  0.32825   4.86
C00L  1  0.25574  0.47719  0.45418 11.00000  0.21368   4.73
C00M  1  0.45411  0.46744  1.22454 11.00000  0.18849   4.40
C00N  1  0.20977  0.50765  0.59796 11.00000  0.25733   4.00
C00O  1  0.33310  0.51493  1.02130 11.00000  0.19511   3.92
C00P  1  0.28629  0.48084  0.58479 11.00000  0.21427   3.56
O00Q  4  0.25291  0.46140  0.27424 11.00000  0.27545   3.35
C00R  1  0.32966  0.50002  0.87763 11.00000  0.25958   3.06
HKLF 4
END
