TITL 0620_expF_1_1_expS_1_4_0620_b.res in I-4
REM Old TITL 0620 in I4(1)/a
REM SHELXT solution in I-4: R1 0.439, Rweak 0.133, Alpha 0.156
REM <I/s>   0.000 for    0 systematic absences,  Orientation as input
REM Flack x = -9.990 ( 9.990 ) from    70 Parsons' quotients
REM Formula found by SHELXT:  C65 N17 O12

CELL  0.71073  26.6550  26.6550   7.5900   90.000   90.000   90.000
ZERR  108.000   0.0038   0.0038   0.0015    0.000    0.000    0.000
LATT -2
SYMM -X, -Y, Z
SYMM Y, -X, -Z
SYMM -Y, X, -Z
SFAC C H N O
UNIT 108 108 108 108
L.S. 10
BOND
LIST 6
FMAP 2
PLAN 20
N001  3  0.59142  0.52654 -0.10937 11.00000  0.13894   8.71
N002  3  0.71245  0.50044  0.27956 11.00000  0.13145   7.05
C003  1  0.62473  0.45284 -0.25313 11.00000  0.12965   6.89
N004  3  0.50000  0.50000 -0.50000 10.25000  0.18042   6.81
N005  3  0.56051  0.53855 -0.23316 11.00000  0.17748   6.63
C006  1  0.91588  0.54443  1.14482 11.00000  0.11955   6.43
N007  3  0.62625  0.49616 -0.15124 11.00000  0.18253   6.37
C008  1  0.76100  0.48718  0.20650 11.00000  0.18890   5.95
C009  1  0.71229  0.51668  0.42641 11.00000  0.14641   5.92
C00A  1  0.59034  0.46296 -0.37680 11.00000  0.11271   5.80
C00B  1  0.54719  0.49900 -0.35871 11.00000  0.10523   5.67
C00C  1  0.88492  0.54266  0.99922 11.00000  0.11372   5.56
C00D  1  0.95151  0.50752  1.14138 11.00000  0.11777   5.42
C00E  1  0.91531  0.47550  0.83683 11.00000  0.17084   5.20
O00F  4  0.80437  0.46900  0.32065 11.00000  0.30516   5.19
C00G  1  0.74794  0.52808  0.54060 11.00000  0.13197   5.16
C00H  1  0.82236  0.51554  0.75286 11.00000  0.13061   4.78
C00I  1  0.88405  0.51309  0.87277 11.00000  0.12285   4.47
C00J  1  0.65987  0.50484  0.15697 11.00000  0.25405   4.45
C00K  1  0.76246  0.45262  0.04401 11.00000  0.13065   4.40
O00L  4  0.74927  0.54637  0.72216 11.00000  0.32853   3.63
O00M  4  0.83516  0.50089  0.59283 11.00000  0.23909   3.33
C00N  1  0.65942  0.48734 -0.03054 11.00000  0.17866   3.29
C00O  1  0.95207  0.47196  0.99573 11.00000  0.14414   3.26
C00P  1  1.00000  0.50000  1.25000 10.25000  0.13884   3.14
HKLF 4
END
