TITL 0620_expF_1_5_expS_1_0_0620_a.res in I-4
REM Old TITL 0620 in I4(1)/a
REM SHELXT solution in I-4: R1 0.532, Rweak 0.217, Alpha 0.225
REM <I/s>   0.000 for    0 systematic absences,  Orientation as input
REM Flack x = -9.990 ( 9.990 ) from    93 Parsons' quotients
REM Formula found by SHELXT:  C48 N13 O36

CELL  0.71073  26.6550  26.6550   7.5900   90.000   90.000   90.000
ZERR  108.000   0.0038   0.0038   0.0015    0.000    0.000    0.000
LATT -2
SYMM -X, -Y, Z
SYMM Y, -X, -Z
SYMM -Y, X, -Z
SFAC C H N O
UNIT 108 108 108 108
L.S. 10
BOND
LIST 6
FMAP 2
PLAN 20
O001  4  0.04004  0.48671  0.37405 11.00000  0.33797   9.87
O002  4  0.37298  0.50200  0.58485 11.00000  0.27819   9.82
O003  4  0.09201  0.50525  0.59650 11.00000  0.38822   9.61
O004  4  0.10751  0.46447  0.44104 11.00000  0.37934   9.36
O005  4  0.40934  0.46086  0.44236 11.00000  0.31821   9.29
O006  4  0.28373  0.47302  0.04488 11.00000  0.33463   8.15
O007  4  0.20762  0.49900 -0.01095 11.00000  0.32846   8.05
N008  3  0.00000  0.50000  0.25000 10.25000  0.36793   6.67
N009  3  0.32622  0.50807  0.44544 11.00000  0.36356   6.59
C00A  1  0.23990  0.49353  0.19125 11.00000  0.34599   6.42
N00B  3  0.42036  0.53576  0.90261 11.00000  0.23155   6.28
C00C  1  0.41338  0.49737  0.78441 11.00000  0.24685   5.87
O00D  4  0.05547  0.39149  0.57414 11.00000  0.31002   5.46
C00E  1  0.24614  0.53778  0.22460 11.00000  0.35767   5.33
C00F  1  0.41323  0.44687  0.88932 11.00000  0.43038   4.98
C00G  1  0.28506  0.41072  0.36105 11.00000  0.44849   4.73
C00H  1  0.16803  0.40260  0.07923 11.00000  0.28062   4.31
C00I  1  0.19066  0.38681 -0.07021 11.00000  0.29426   3.83
C00J  1  0.28697  0.37918  0.47040 11.00000  0.43302   3.74
N00K  3  0.28241  0.64718  0.01954 11.00000  0.37748   3.62
C00L  1  0.39079  0.54690  1.03224 11.00000  0.34891   3.59
O00M  4  0.42288  0.49315  0.63631 11.00000  0.30351   3.51
C00N  1  0.25639  0.40761  0.54155 11.00000  0.32393   3.47
C00O  1  0.18371  0.55907  0.45557 11.00000  0.35749   3.33
C00P  1  0.38553  0.46976  0.89275 11.00000  0.48376   3.31
HKLF 4
END
