TITL 0620_expF_1_4_expS_1_4_0620_b.res in I4(1)
REM Old TITL 0620 in I4(1)/a
REM SHELXT solution in I4(1): R1 0.546, Rweak 0.132, Alpha 0.162
REM <I/s>   0.000 for    0 systematic absences,  Orientation as input
REM Flack x = -9.990 ( 9.990 ) from    69 Parsons' quotients
REM Formula found by SHELXT:  C35 N12 O14

CELL  0.71073  26.6550  26.6550   7.5900   90.000   90.000   90.000
ZERR  108.000   0.0038   0.0038   0.0015    0.000    0.000    0.000
LATT -2
SYMM 1/2-X, 1/2-Y, 1/2+Z
SYMM -Y, 1/2+X, 1/4+Z
SYMM 1/2+Y, -X, 3/4+Z
SFAC C H N O
UNIT 108 108 108 108
L.S. 10
BOND
LIST 6
FMAP 2
PLAN 20
O001  4  0.52451  0.40834  0.52095 11.00000  0.24326   8.54
N002  3  0.48796  0.37440  0.56583 11.00000  0.20755   7.84
N003  3  0.61633  0.45852  1.15876 11.00000  0.23124   7.40
N004  3  0.58470  0.46074  1.03085 11.00000  0.18449   7.32
N005  3  0.45376  0.38115  0.69761 11.00000  0.19553   7.06
N006  3  0.45871  0.41913  0.83158 11.00000  0.19901   6.88
N007  3  0.53477  0.26488 -0.12127 11.00000  0.27833   6.58
C008  1  0.54608  0.49436  1.04811 11.00000  0.16029   6.58
C009  1  0.52500  0.29538  0.00769 11.00000  0.17309   6.47
O00A  4  0.50514  0.28582  0.17286 11.00000  0.26252   6.41
C00B  1  0.49260  0.46798  0.78367 11.00000  0.15179   6.24
C00C  1  0.50000  0.50000  0.92731 10.50000  0.14364   6.16
C00D  1  0.48553  0.24351  0.22740 11.00000  0.15351   5.95
C00E  1  0.58589  0.52866  1.28969 11.00000  0.22295   5.92
C00F  1  0.62734  0.49546  1.28919 11.00000  0.20374   5.69
C00G  1  0.53016  0.45362  0.64655 11.00000  0.17738   5.43
C00H  1  0.55276  0.53147  1.16710 11.00000  0.19665   5.15
C00I  1  0.66513  0.49444  1.39453 11.00000  0.19177   5.11
O00J  4  0.53803  0.25749 -0.29406 11.00000  0.31996   5.00
C00K  1  0.48725  0.33498  0.42542 11.00000  0.23560   4.97
C00L  1  0.67673  0.49396  1.52260 11.00000  0.22030   4.39
C00M  1  0.50703  0.33268  0.29457 11.00000  0.26490   4.29
O00N  4  0.72083  0.35080 -0.09636 11.00000  0.29082   4.13
C00O  1  0.71826  0.33477 -0.24503 11.00000  0.39022   3.98
C00P  1  0.63950  0.32196 -0.48585 11.00000  0.39824   3.95
O00Q  4  0.48081  0.22653  0.11016 11.00000  0.27561   3.86
C00R  1  0.66926  0.36933 -0.22196 11.00000  0.30510   3.80
O00S  4  0.45923  0.24315  0.38613 11.00000  0.31536   3.79
C00T  1  0.70354  0.49372  1.66733 11.00000  0.22881   3.73
C00U  1  0.64362  0.52021  1.62450 11.00000  0.24508   3.41
O00V  4  0.63588  0.30253 -0.66733 11.00000  0.37624   3.26
HKLF 4
END
