TITL 0620_expF_1_2_expS_0_9_0620_a.res in I4(1)/a
REM Old TITL 0620 in I4(1)/a
REM SHELXT solution in I4(1)/a: R1 0.442, Rweak 0.072, Alpha 0.140
REM <I/s>   0.000 for    0 systematic absences,  Orientation as input
REM Formula found by SHELXT:  C37 N12 O4

CELL  0.71073  26.6550  26.6550   7.5900   90.000   90.000   90.000
ZERR  108.000   0.0038   0.0038   0.0015    0.000    0.000    0.000
LATT  2
SYMM 1/2-X, -Y, 1/2+Z
SYMM 3/4-Y, 1/4+X, 1/4+Z
SYMM 3/4+Y, 3/4-X, 3/4+Z
SFAC C H N O
UNIT 108 108 108 108
L.S. 10
BOND
LIST 6
FMAP 2
PLAN 20
N001  3  0.41258  0.22604  0.26976 11.00000  0.21424   7.28
N002  3  0.41676  0.28655 -0.02687 11.00000  0.18545   7.18
N003  3  0.38397  0.30352  0.09323 11.00000  0.24682   6.96
C004  1  0.25718  0.22778  0.90202 11.00000  0.23026   6.42
C005  1  0.45754  0.25271  0.00577 11.00000  0.14491   6.36
C006  1  0.44674  0.21604  0.13310 11.00000  0.16406   6.04
C007  1  0.37558  0.25825  0.25971 11.00000  0.21113   6.03
C008  1  0.29695  0.22181  0.80282 11.00000  0.20774   5.62
C009  1  0.50000  0.25000 -0.12500 10.25000  0.12792   5.43
C00A  1  0.28907  0.24710  0.64463 11.00000  0.19923   5.26
C00B  1  0.33129  0.24604  0.50647 11.00000  0.22545   4.72
C00C  1  0.32818  0.26371  0.36440 11.00000  0.18583   4.71
O00D  4  0.25156  0.20140  1.06646 11.00000  0.34699   4.29
C00E  1  0.37481  0.26455  0.14904 11.00000  0.25209   3.33
HKLF 4
END
