TITL 0620_expF_1_1_expS_1_3_0620_b.res in I-4
REM Old TITL 0620 in I4(1)/a
REM SHELXT solution in I-4: R1 0.452, Rweak 0.174, Alpha 0.249
REM <I/s>   0.000 for    0 systematic absences,  Orientation as input
REM Flack x = -0.789 ( 9.990 ) from    97 Parsons' quotients
REM Formula found by SHELXT:  C52 N21 O20

CELL  0.71073  26.6550  26.6550   7.5900   90.000   90.000   90.000
ZERR  108.000   0.0038   0.0038   0.0015    0.000    0.000    0.000
LATT -2
SYMM -X, -Y, Z
SYMM Y, -X, -Z
SYMM -Y, X, -Z
SFAC C H N O
UNIT 108 108 108 108
L.S. 10
BOND
LIST 6
FMAP 2
PLAN 20
N001  3  1.00000  0.50000  1.25000 10.25000  0.09300   9.68
N002  3  0.91191  0.46810  0.87111 11.00000  0.11350   8.90
C003  1  0.58084  0.45722 -0.39281 11.00000  0.12124   7.80
N004  3  0.87637  0.49887  0.89800 11.00000  0.19221   7.37
N005  3  0.87516  0.53994  1.00075 11.00000  0.16806   7.13
C006  1  0.95621  0.47131  0.98333 11.00000  0.09152   7.02
N007  3  0.78755  0.49508  0.48714 11.00000  0.18836   6.68
N008  3  0.95523  0.49896  1.12279 11.00000  0.12303   6.53
C009  1  0.79333  0.48004  0.33891 11.00000  0.17882   6.31
C00A  1  0.73876  0.52097  0.53776 11.00000  0.11487   5.60
C00B  1  0.66653  0.48480  0.00949 11.00000  0.11892   5.47
O00C  4  0.54473  0.48506 -0.38946 11.00000  0.28155   5.45
C00D  1  0.90760  0.53559  1.13944 11.00000  0.13710   5.33
C00E  1  0.61661  0.48632 -0.11160 11.00000  0.12881   5.24
C00F  1  0.74300  0.47695  0.22511 11.00000  0.22280   5.11
C00G  1  0.61613  0.45844 -0.26691 11.00000  0.11918   4.90
C00H  1  0.90160  0.46951  0.74679 11.00000  0.23188   4.71
C00I  1  0.82564  0.47507  0.54683 11.00000  0.30413   4.47
C00J  1  0.87441  0.46188  0.57493 11.00000  0.26283   3.61
O00K  4  0.75204  0.45662  0.02854 11.00000  0.23353   3.61
O00L  4  0.66167  0.49973  0.16262 11.00000  0.24832   3.58
O00M  4  0.73682  0.54700  0.70699 11.00000  0.28882   3.57
C00N  1  0.70499  0.52276  0.41927 11.00000  0.18497   3.48
O00O  4  0.61050  0.58355 -0.03291 11.00000  0.52880   3.34
HKLF 4
END
