TITL 0620_expF_1_5_expS_1_1_0620_a.res in I-4
REM Old TITL 0620 in I4(1)/a
REM SHELXT solution in I-4: R1 0.629, Rweak 0.408, Alpha 0.214
REM <I/s>   0.000 for    0 systematic absences,  Orientation as input
REM Flack x = -9.990 ( 9.990 ) from    85 Parsons' quotients
REM Formula found by SHELXT:  C24 N25 O9

CELL  0.71073  26.6550  26.6550   7.5900   90.000   90.000   90.000
ZERR  108.000   0.0038   0.0038   0.0015    0.000    0.000    0.000
LATT -2
SYMM -X, -Y, Z
SYMM Y, -X, -Z
SYMM -Y, X, -Z
SFAC C H N O
UNIT 108 108 108 108
L.S. 10
BOND
LIST 6
FMAP 2
PLAN 20
N001  3  0.50000  1.00000  0.25000 10.25000  0.17942  10.88
O002  4  0.50000  0.50000  0.50000 10.25000  0.39893   9.71
O003  4  0.49023  0.96948  0.08315 11.00000  0.28459   9.53
O004  4  0.52955  0.93709 -0.10909 11.00000  0.36447   7.26
N005  3  0.48962  0.60653  0.86163 11.00000  0.37249   6.57
C006  1  0.47159  0.92563  0.15526 11.00000  0.29686   6.53
N007  3  0.46548  0.71906  0.41566 11.00000  0.44195   5.94
C008  1  0.47594  0.74230  0.49976 11.00000  0.46164   5.64
C009  1  0.50413  0.74459  0.17953 11.00000  0.23464   5.62
C00A  1  0.50465  0.80493  0.48254 11.00000  0.38875   5.59
N00B  3  0.45058  0.89100  0.00915 11.00000  0.28669   5.59
N00C  3  0.50524  0.59263  0.69624 11.00000  0.33060   4.99
C00D  1  0.50389  0.77252  0.30167 11.00000  0.32900   4.15
N00E  3  0.39301  0.84554  0.43907 11.00000  0.46421   3.83
C00F  1  0.52917  0.58963  0.57352 11.00000  0.23399   3.21
N00G  3  0.65152  0.72628  0.42358 11.00000  0.38265   3.20
HKLF 4
END
