TITL 2_expF_1_4_expS_0_8_2_a.res in P2(1)/n
REM Old TITL 1 in P2/n
REM SHELXT solution in P2(1)/n: R1 0.302, Rweak 0.019, Alpha 0.049
REM <I/s>   1.544 for  106 systematic absences,  Orientation as input
REM Formula found by SHELXT:  C9 N O

CELL  0.71073   7.0400   9.2900  11.5500   90.000   97.870   90.000
ZERR   16.000   0.0014   0.0019   0.0023    0.000    0.030    0.000
LATT  1
SYMM 1/2-X, 1/2+Y, 1/2-Z
SFAC C N O
UNIT 16 16 16
L.S. 10
BOND
LIST 6
FMAP 2
PLAN 20
N001  2  0.34003  0.07606  0.27882 11.00000  0.04714   6.50
C002  1  0.44717  0.44730  0.66040 11.00000  0.03936   6.36
C003  1  0.21746  0.26346  0.39033 11.00000  0.04671   6.07
C004  1  0.41023  0.35550  0.56200 11.00000  0.04221   6.04
C005  1  0.53860  0.17113  0.44468 11.00000  0.04780   5.96
C006  1  0.32368  0.51374  0.72098 11.00000  0.04710   5.94
O007  3  0.14500  0.50528  0.69122 11.00000  0.06567   5.92
C008  1  0.36627  0.16811  0.37099 11.00000  0.04615   5.81
C009  1  0.23810  0.35893  0.48475 11.00000  0.05010   5.81
C00A  1  0.55871  0.26551  0.53968 11.00000  0.05326   5.70
C00B  1  0.40906  0.59627  0.82383 11.00000  0.05371   5.27
HKLF 4
END
