TITL 2_expF_1_1_expS_1_0_2_a.res in P2(1)/n
REM Old TITL 1 in P2/n
REM SHELXT solution in P2(1)/n: R1 0.267, Rweak 0.043, Alpha 0.103
REM <I/s>   1.249 for  106 systematic absences,  Orientation as input
REM Formula found by SHELXT:  C10 O

CELL  0.71073   7.0400   9.2900  11.5500   90.000   97.870   90.000
ZERR   16.000   0.0014   0.0019   0.0023    0.000    0.030    0.000
LATT  1
SYMM 1/2-X, 1/2+Y, 1/2-Z
SFAC C N O
UNIT 16 16 16
L.S. 10
BOND
LIST 6
FMAP 2
PLAN 20
C001  1  0.44876  0.44793  0.66013 11.00000  0.02861   6.42
C002  1  0.33707  0.07681  0.27844 11.00000  0.02541   6.32
O003  3  0.14897  0.50534  0.69191 11.00000  0.04926   6.16
C004  1  0.32168  0.51292  0.72175 11.00000  0.03119   6.09
C005  1  0.21887  0.26251  0.39015 11.00000  0.03393   6.04
C006  1  0.41282  0.35727  0.56174 11.00000  0.03133   6.03
C007  1  0.36665  0.16914  0.36967 11.00000  0.03272   5.90
C008  1  0.24041  0.35762  0.48538 11.00000  0.03355   5.78
C009  1  0.53739  0.17036  0.44441 11.00000  0.03586   5.75
C00A  1  0.56082  0.26504  0.54092 11.00000  0.03549   5.52
C00B  1  0.40902  0.59997  0.82349 11.00000  0.03624   5.28
HKLF 4
END
