TITL 2_expF_0_5_expS_1_1_2_a.res in Pn
REM Old TITL 1 in P2/n
REM SHELXT solution in Pn: R1 0.299, Rweak 0.440, Alpha 0.184
REM <I/s>   1.183 for   97 systematic absences,  Orientation as input
REM Formula found by SHELXT:  C7 N2 O7

CELL  0.71073   7.0400   9.2900  11.5500   90.000   97.870   90.000
ZERR   16.000   0.0014   0.0019   0.0023    0.000    0.030    0.000
LATT -1
SYMM 1/2+X, -Y, 1/2+Z
SFAC C N O
UNIT 16 16 16
L.S. 10
BOND
LIST 6
FMAP 2
PLAN 20
O001  3 -0.08161  0.89083  0.48978 11.00000  0.00010  10.52
C002  1  0.68480  0.42049  0.41180 11.00000  0.00010   8.65
O003  3 -0.12166  0.79857  0.38505 11.00000  0.00010   8.51
O004  3  0.09556  0.97768  0.65823 11.00000  0.00010   8.28
O005  3  0.66854  0.31974  0.32651 11.00000  0.00917   7.54
O006  3  0.96833  0.24132  0.23709 11.00000  0.01300   7.15
N007  2  0.54930  0.60724  0.51794 11.00000  0.02097   6.61
C008  1 -0.00415  0.72932  0.31902 11.00000  0.00618   6.37
C009  1  1.14241  0.23569  0.26227 11.00000  0.00010   5.94
O00A  3 -0.08950  0.65413  0.22090 11.00000  0.00682   5.89
C00B  1 -0.22710  0.97968  0.51152 11.00000  0.00010   5.82
O00C  3  0.17350  0.73917  0.36438 11.00000  0.00809   5.63
C00D  1 -0.22129  1.06362  0.60878 11.00000  0.00010   5.03
C00E  1  1.22710  0.13912  0.36442 11.00000  0.00175   4.69
N00F  2  0.00502  1.17830  0.77910 11.00000  0.01693   3.98
C00G  1  0.87284  0.40357  0.49251 11.00000  0.03680   3.43
HKLF 4
END
