TITL 2_expF_1_0_expS_0_8_2_c.res in P2(1)
REM Old TITL 1 in P2/n
REM SHELXT solution in P2(1): R1 0.238, Rweak 0.058, Alpha 0.158
REM <I/s>   3.293 for    6 systematic absences,  Orientation as input
REM Formula found by SHELXT:  C14 N6 O2

CELL  0.71073   7.0400   9.2900  11.5500   90.000   97.870   90.000
ZERR   16.000   0.0014   0.0019   0.0023    0.000    0.030    0.000
LATT -1
SYMM -X, 1/2+Y, -Z
SFAC C N O
UNIT 16 16 16
L.S. 10
BOND
LIST 6
FMAP 2
PLAN 20
O001  3  0.20578  0.70086  0.90865 11.00000  0.05398   8.24
N002  2  0.46926  0.48816  0.14020 11.00000  0.04180   7.36
O003  3 -0.09518  0.76288  0.94628 11.00000  0.04468   7.20
N004  2  0.58562  0.66931  0.02687 11.00000  0.02815   7.08
N005  2  0.11922  0.42232  0.62075 11.00000  0.03922   7.06
N006  2  0.15752  0.85149  1.07569 11.00000  0.03644   6.88
C007  1  0.16382  0.61225  0.81340 11.00000  0.02443   6.73
N008  2  0.78832  0.59389  0.19997 11.00000  0.05044   6.63
N009  2  0.56854  0.24940  0.47617 11.00000  0.03293   6.55
C00A  1  0.80329  0.49963  0.29147 11.00000  0.02796   6.38
C00B  1  0.49109  0.39155  0.23410 11.00000  0.02711   6.07
C00C  1  0.08730  0.32125  0.52867 11.00000  0.02431   6.07
C00D  1  0.07334  0.77605  0.96535 11.00000  0.02498   6.01
C00E  1  0.39201  0.25169  0.43692 11.00000  0.01934   5.75
C00F  1  0.65800  0.39791  0.30903 11.00000  0.03305   5.63
C00G  1 -0.00873  0.60152  0.73653 11.00000  0.03077   5.61
C00H  1  0.69182  0.30342  0.41132 11.00000  0.01896   5.57
C00I  1  0.31529  0.52917  0.78989 11.00000  0.03125   5.57
C00J  1  0.29154  0.43242  0.69135 11.00000  0.02807   5.35
C00K  1 -0.03326  0.51407  0.64046 11.00000  0.03372   5.17
C00L  1  0.61408  0.58156  0.11843 11.00000  0.03224   4.81
C00M  1  0.65756  0.14851  0.57022 11.00000  0.04009   4.27
HKLF 4
END
