TITL 2_expF_1_2_expS_0_8_2_a.res in P2(1)/n
REM Old TITL 1 in P2/n
REM SHELXT solution in P2(1)/n: R1 0.274, Rweak 0.030, Alpha 0.086
REM <I/s>   1.388 for  106 systematic absences,  Orientation as input
REM Formula found by SHELXT:  C9 N O

CELL  0.71073   7.0400   9.2900  11.5500   90.000   97.870   90.000
ZERR   16.000   0.0014   0.0019   0.0023    0.000    0.030    0.000
LATT  1
SYMM 1/2-X, 1/2+Y, 1/2-Z
SFAC C N O
UNIT 16 16 16
L.S. 10
BOND
LIST 6
FMAP 2
PLAN 20
N001  2  0.44857  0.44702  0.65998 11.00000  0.04532   6.51
C002  1  0.33829  0.07626  0.27862 11.00000  0.02893   6.41
O003  3  0.15123  0.50544  0.69182 11.00000  0.06086   6.11
C004  1  0.32164  0.51226  0.72165 11.00000  0.03510   6.08
C005  1  0.41275  0.35700  0.56136 11.00000  0.03510   6.04
C006  1  0.21916  0.26198  0.39013 11.00000  0.03957   5.92
C007  1  0.36584  0.16864  0.36985 11.00000  0.03838   5.87
C008  1  0.53720  0.17044  0.44408 11.00000  0.04198   5.80
C009  1  0.23988  0.35623  0.48595 11.00000  0.04006   5.77
C00A  1  0.56014  0.26533  0.54045 11.00000  0.04125   5.52
C00B  1  0.40783  0.60133  0.82322 11.00000  0.04255   5.35
HKLF 4
END
