TITL 2_expF_1_2_expS_1_2_2_a.res in P2(1)/n
REM Old TITL 1 in P2/n
REM SHELXT solution in P2(1)/n: R1 0.276, Rweak 0.030, Alpha 0.071
REM <I/s>   1.380 for  106 systematic absences,  Orientation as input
REM Formula found by SHELXT:  C10 O

CELL  0.71073   7.0400   9.2900  11.5500   90.000   97.870   90.000
ZERR   16.000   0.0014   0.0019   0.0023    0.000    0.030    0.000
LATT  1
SYMM 1/2-X, 1/2+Y, 1/2-Z
SFAC C N O
UNIT 16 16 16
L.S. 10
BOND
LIST 6
FMAP 2
PLAN 20
C001  1  0.66249  0.92293  0.72147 11.00000  0.02867   6.41
C002  1  0.55182  0.55223  0.34028 11.00000  0.03210   6.38
O003  3  0.85076  0.49472  0.30834 11.00000  0.05380   6.10
C004  1  0.67897  0.48732  0.27825 11.00000  0.03502   6.10
C005  1  0.78115  0.73738  0.60946 11.00000  0.03795   6.05
C006  1  0.58762  0.64335  0.43847 11.00000  0.03521   6.01
C007  1  0.46285  0.82934  0.55606 11.00000  0.04077   5.86
C008  1  0.63267  0.83162  0.62976 11.00000  0.03763   5.84
C009  1  0.76055  0.64316  0.51415 11.00000  0.03801   5.77
C00A  1  0.43891  0.73506  0.45977 11.00000  0.04015   5.58
C00B  1  0.59043  0.39926  0.17655 11.00000  0.04121   5.36
HKLF 4
END
