TITL 2_expF_0_8_expS_1_4_2_a.res in P2(1)/n
REM Old TITL 1 in P2/n
REM SHELXT solution in P2(1)/n: R1 0.291, Rweak 0.150, Alpha 0.165
REM <I/s>   1.261 for  106 systematic absences,  Orientation as input
REM Formula found by SHELXT:  C9 N O

CELL  0.71073   7.0400   9.2900  11.5500   90.000   97.870   90.000
ZERR   16.000   0.0014   0.0019   0.0023    0.000    0.030    0.000
LATT  1
SYMM 1/2-X, 1/2+Y, 1/2-Z
SFAC C N O
UNIT 16 16 16
L.S. 10
BOND
LIST 6
FMAP 2
PLAN 20
O001  3  0.15142  0.49353  0.69234 11.00000  0.02413   6.54
N002  2  0.44737  0.55158  0.66220 11.00000  0.02488   6.51
C003  1  0.33055  0.92370  0.27750 11.00000  0.01389   6.12
C004  1  0.32356  0.48756  0.72331 11.00000  0.02115   6.06
C005  1  0.41210  0.64440  0.56320 11.00000  0.02443   6.03
C006  1  0.36973  0.82983  0.37187 11.00000  0.01910   5.98
C007  1  0.22303  0.73441  0.39033 11.00000  0.01775   5.84
C008  1  0.23643  0.64298  0.48376 11.00000  0.02132   5.59
C009  1  0.41185  0.39993  0.82532 11.00000  0.01985   5.55
C00A  1  0.56261  0.73804  0.54110 11.00000  0.02262   5.49
C00B  1  0.54154  0.82748  0.44618 11.00000  0.01917   5.39
HKLF 4
END
