TITL 2_expF_1_0_expS_1_3_2_c.res in P2(1)
REM Old TITL 1 in P2/n
REM SHELXT solution in P2(1): R1 0.238, Rweak 0.057, Alpha 0.125
REM <I/s>   1.520 for    6 systematic absences,  Orientation as input
REM Formula found by SHELXT:  C14 N6 O2

CELL  0.71073   7.0400   9.2900  11.5500   90.000   97.870   90.000
ZERR   16.000   0.0014   0.0019   0.0023    0.000    0.030    0.000
LATT -1
SYMM -X, 1/2+Y, -Z
SFAC C N O
UNIT 16 16 16
L.S. 10
BOND
LIST 6
FMAP 2
PLAN 20
O001  3  1.10109  0.75053  0.05956 11.00000  0.03269   7.03
N002  2  0.43142  0.23641  0.52998 11.00000  0.03710   6.98
N003  2  0.80283  0.69902  0.09097 11.00000  0.02762   6.88
N004  2  0.69564  0.52194  0.21079 11.00000  0.04281   6.73
C005  1  0.84183  0.60812  0.18070 11.00000  0.04072   6.69
N006  2  0.41632  0.67974  0.96882 11.00000  0.03102   6.60
N007  2  0.53203  0.48234  0.85686 11.00000  0.03378   6.56
N008  2  1.01503  0.59578  0.26187 11.00000  0.03598   6.51
C009  1  0.88123  0.41156  0.37761 11.00000  0.02709   6.29
C00A  1  0.30118  0.30100  0.58888 11.00000  0.02379   6.24
C00B  1  0.20371  0.58671  0.80081 11.00000  0.02431   5.97
O00C  3  0.91380  0.33118  0.47634 11.00000  0.03508   5.90
C00D  1  0.71671  0.42903  0.30988 11.00000  0.03106   5.77
C00E  1  0.35159  0.14859  0.42923 11.00000  0.02013   5.62
C00F  1  1.03079  0.51004  0.36321 11.00000  0.03131   5.59
C00G  1  0.38359  0.57346  0.88259 11.00000  0.02779   5.24
C00H  1  0.82813  0.85141 -0.07858 11.00000  0.03745   5.16
C00I  1  0.60386  0.23592  0.55795 11.00000  0.02314   5.16
C00J  1  0.33580  0.39325  0.69337 11.00000  0.01546   5.04
C00K  1  0.92474  0.76135  0.02902 11.00000  0.02648   4.92
C00L  1  0.50741  0.38261  0.76747 11.00000  0.02375   4.84
C00M  1  0.18600  0.49455  0.70832 11.00000  0.02567   4.54
HKLF 4
END
