TITL 2_expF_1_0_expS_1_5_2_b.res in Pn
REM Old TITL 1 in P2/n
REM SHELXT solution in Pn: R1 0.225, Rweak 0.056, Alpha 0.023
REM <I/s>   1.383 for  100 systematic absences,  Orientation as input
REM Formula found by SHELXT:  C12 N2 O8

CELL  0.71073   7.0400   9.2900  11.5500   90.000   97.870   90.000
ZERR   16.000   0.0014   0.0019   0.0023    0.000    0.030    0.000
LATT -1
SYMM 1/2+X, -Y, 1/2+Z
SFAC C N O
UNIT 16 16 16
L.S. 10
BOND
LIST 6
FMAP 2
PLAN 20
N001  2  0.41433  0.10478  0.56567 11.00000  0.02183   9.62
O002  3  0.54429 -0.07512  0.44813 11.00000  0.04530   9.61
O003  3  0.85160  0.24133  0.31683 11.00000  0.03212   9.20
O004  3  0.33655 -0.16937  0.27982 11.00000  0.01444   8.42
O005  3  0.45356  0.48935  0.45941 11.00000  0.05461   7.74
O006  3  0.77430  0.39483  0.51994 11.00000  0.03228   7.70
O007  3  0.22667  0.01449  0.39908 11.00000  0.02248   7.60
O008  3  0.54809  0.30368  0.34573 11.00000  0.03284   7.52
C009  1  0.32671  0.25532  0.72952 11.00000  0.02613   6.91
N00A  2  0.59240  0.13906  0.17701 11.00000  0.03132   6.63
C00B  1  0.44223  0.20172  0.66446 11.00000  0.01809   6.46
C00C  1  0.68538  0.22834  0.28858 11.00000  0.02062   6.27
C00D  1  0.64422  0.58238  0.63348 11.00000  0.02545   6.23
C00E  1  0.79285  0.48800  0.62314 11.00000  0.04828   6.18
C00F  1  0.37863 -0.07943  0.37320 11.00000  0.02159   5.88
C00G  1  0.65941  0.68332  0.71985 11.00000  0.04367   5.53
C00H  1  0.41030  0.34216  0.82299 11.00000  0.02611   5.15
C00I  1  0.25637  0.10680  0.49287 11.00000  0.02444   4.45
O00J  3  0.14840  0.25447  0.69728 11.00000  0.02941   4.32
C00K  1  0.57098  0.01461  0.54391 11.00000  0.01557   4.22
C00L  1  0.46164  0.58207  0.55952 11.00000  0.02514   3.48
C00M  1  0.58811  0.39092  0.44505 11.00000  0.03641   3.13
HKLF 4
END
