TITL 2_expF_0_9_expS_1_3_2_a.res in P2(1)/n
REM Old TITL 1 in P2/n
REM SHELXT solution in P2(1)/n: R1 0.274, Rweak 0.096, Alpha 0.155
REM <I/s>   1.245 for  106 systematic absences,  Orientation as input
REM Formula found by SHELXT:  C9 N O

CELL  0.71073   7.0400   9.2900  11.5500   90.000   97.870   90.000
ZERR   16.000   0.0014   0.0019   0.0023    0.000    0.030    0.000
LATT  1
SYMM 1/2-X, 1/2+Y, 1/2-Z
SFAC C N O
UNIT 16 16 16
L.S. 10
BOND
LIST 6
FMAP 2
PLAN 20
O001  3  0.84949  0.50691  0.30813 11.00000  0.03069   6.57
N002  2  0.55245  0.44865  0.33877 11.00000  0.02664   6.57
C003  1  0.66686  0.07592  0.72231 11.00000  0.01683   6.16
C004  1  0.67809  0.51248  0.27809 11.00000  0.02159   6.13
C005  1  0.58881  0.35666  0.43799 11.00000  0.02448   6.03
C006  1  0.77911  0.26472  0.60982 11.00000  0.02178   5.99
C007  1  0.63143  0.17004  0.62929 11.00000  0.02363   5.87
C008  1  0.76175  0.35682  0.51517 11.00000  0.02376   5.71
C009  1  0.43851  0.26326  0.45929 11.00000  0.02488   5.70
C00A  1  0.45952  0.17160  0.55449 11.00000  0.02452   5.66
C00B  1  0.59014  0.60092  0.17631 11.00000  0.02319   5.49
HKLF 4
END
