TITL 2_expF_1_5_expS_1_0_2_b.res in Pn
REM Old TITL 1 in P2/n
REM SHELXT solution in Pn: R1 0.312, Rweak 0.013, Alpha 0.009
REM <I/s>   1.091 for  100 systematic absences,  Orientation as input
REM Formula found by SHELXT:  C15 N4 O3

CELL  0.71073   7.0400   9.2900  11.5500   90.000   97.870   90.000
ZERR   16.000   0.0014   0.0019   0.0023    0.000    0.030    0.000
LATT -1
SYMM 1/2+X, -Y, 1/2+Z
SFAC C N O
UNIT 16 16 16
L.S. 10
BOND
LIST 6
FMAP 2
PLAN 20
O001  3  0.17440 -0.17040  0.72278 11.00000  0.05115   7.67
O002  3  0.66076  0.24063  0.68835 11.00000  0.05989   7.51
N003  2  0.28424  0.01325  0.60655 11.00000  0.04751   7.44
N004  2  0.09465  0.10552  0.43817 11.00000  0.05054   6.78
N005  2 -0.03319 -0.08040  0.55756 11.00000  0.06190   6.77
N006  2  0.05622  0.19780  0.34029 11.00000  0.05728   6.77
C007  1  1.05935  0.48510  0.53906 11.00000  0.04944   6.39
C008  1  0.83144  0.23108  0.71785 11.00000  0.05103   6.27
C009  1  0.74641  0.39205  0.48108 11.00000  0.04837   6.02
C00A  1  0.87429  0.58400  0.36885 11.00000  0.04994   5.99
C00B  1  0.95254  0.30230  0.66071 11.00000  0.04195   5.79
C00C  1  1.03634  0.58127  0.44498 11.00000  0.05828   5.79
C00D  1  0.85234  0.67520  0.27903 11.00000  0.04785   5.73
C00E  1  0.26220  0.10445  0.51232 11.00000  0.05236   5.66
C00F  1  0.13533 -0.07978  0.62998 11.00000  0.05203   5.58
C00G  1  0.91665  0.39501  0.56385 11.00000  0.05080   5.57
C00H  1  0.09738  0.34816  0.17693 11.00000  0.05973   5.42
C00I  1  0.18989  0.25482  0.27822 11.00000  0.04921   5.41
C00J  1 -0.05935  0.01168  0.45824 11.00000  0.05158   5.21
C00K  1  0.91535  0.15060  0.82307 11.00000  0.05630   5.09
C00L  1  0.71469  0.48656  0.38742 11.00000  0.06438   5.05
O00M  3  0.36623  0.25286  0.30477 11.00000  0.06775   4.29
HKLF 4
END
