TITL 2_expF_0_9_expS_1_3_2_b.res in Pn
REM Old TITL 1 in P2/n
REM SHELXT solution in Pn: R1 0.232, Rweak 0.089, Alpha 0.048
REM <I/s>   1.250 for  100 systematic absences,  Orientation as input
REM Formula found by SHELXT:  C12 N4 O5

CELL  0.71073   7.0400   9.2900  11.5500   90.000   97.870   90.000
ZERR   16.000   0.0014   0.0019   0.0023    0.000    0.030    0.000
LATT -1
SYMM 1/2+X, -Y, 1/2+Z
SFAC C N O
UNIT 16 16 16
L.S. 10
BOND
LIST 6
FMAP 2
PLAN 20
O001  3  0.18277  0.76034  0.68909 11.00000  0.00597  10.25
O002  3  0.69495  1.17087  0.72003 11.00000  0.01950   8.90
O003  3  0.49945  1.08154  0.55540 11.00000  0.02367   8.42
O004  3  0.27681  0.60556  0.48604 11.00000  0.03895   7.87
C005  1  0.36080  0.77283  0.71861 11.00000  0.01802   7.14
N006  2  0.62035  0.89171  0.44097 11.00000  0.02180   7.05
N007  2  0.58035  0.80365  0.33689 11.00000  0.01649   6.94
N008  2  0.81723  0.98465  0.60522 11.00000  0.02492   6.85
N009  2  0.44458  0.86039  0.82317 11.00000  0.03304   6.54
C00A  1  0.47577  0.70260  0.65732 11.00000  0.03023   6.48
C00B  1  0.40015  0.41671  0.36048 11.00000  0.02628   6.47
C00C  1  0.60132  0.51086  0.54183 11.00000  0.02575   5.97
C00D  1  0.47537  0.98656  0.45976 11.00000  0.02044   5.78
C00E  1  0.66413  1.08265  0.62653 11.00000  0.01916   5.43
C00F  1  0.25849  0.51408  0.38399 11.00000  0.02901   5.41
C00G  1  0.71189  0.74302  0.27889 11.00000  0.02480   4.97
C00H  1  0.44515  0.60404  0.56908 11.00000  0.03045   4.84
C00I  1  0.62814  0.65761  0.17683 11.00000  0.02322   4.83
C00J  1  0.79495  0.89058  0.51800 11.00000  0.02669   4.19
O00K  3  0.36785  0.32272  0.27565 11.00000  0.06464   3.67
C00L  1  0.58201  0.42836  0.44404 11.00000  0.04719   3.00
HKLF 4
END
