TITL 2_expF_0_8_expS_1_5_2_a.res in Pn
REM Old TITL 1 in P2/n
REM SHELXT solution in Pn: R1 0.248, Rweak 0.124, Alpha 0.109
REM <I/s>   1.358 for  100 systematic absences,  Orientation as input
REM Formula found by SHELXT:  C9 N4 O8

CELL  0.71073   7.0400   9.2900  11.5500   90.000   97.870   90.000
ZERR   16.000   0.0014   0.0019   0.0023    0.000    0.030    0.000
LATT -1
SYMM 1/2+X, -Y, 1/2+Z
SFAC C N O
UNIT 16 16 16
L.S. 10
BOND
LIST 6
FMAP 2
PLAN 20
N001  2  0.62912  1.07721  0.62960 11.00000  0.00010  11.29
C002  1  0.32188  0.76399  0.73116 11.00000  0.00386   9.33
N003  2  0.41778  0.60634  0.56880 11.00000  0.00985   9.09
O004  3  0.14645  0.76502  0.68811 11.00000  0.01668   8.66
O005  3  0.55251  0.80487  0.34807 11.00000  0.02917   8.53
O006  3  0.66010  1.16462  0.73067 11.00000  0.02489   8.43
O007  3  0.75798  0.89839  0.51161 11.00000  0.03614   7.95
O008  3  0.54729  0.42173  0.45403 11.00000  0.02243   7.74
O009  3  0.77806  0.98542  0.61223 11.00000  0.03202   7.57
O00A  3  0.39930  0.85669  0.82312 11.00000  0.02802   7.27
N00B  2  0.43729  0.98999  0.45671 11.00000  0.01519   7.11
C00C  1  0.21567  0.51355  0.38977 11.00000  0.01698   5.55
N00D  2  0.32404  0.31774  0.28595 11.00000  0.01178   5.53
C00E  1  0.45022  0.70270  0.66702 11.00000  0.00863   5.46
O00F  3  0.85355  0.75233  0.30519 11.00000  0.02804   5.35
C00G  1  0.23398  0.61480  0.48206 11.00000  0.01239   4.99
C00H  1  0.57748  0.65516  0.17688 11.00000  0.01953   4.95
C00I  1  0.67103  0.73572  0.28873 11.00000  0.01891   4.93
C00J  1  0.55574  0.50956  0.53136 11.00000  0.02624   4.57
C00K  1  0.46967  1.07924  0.56331 11.00000  0.03002   3.88
C00L  1  0.58664  0.89205  0.44668 11.00000  0.02538   3.32
HKLF 4
END
