TITL 2_expF_0_7_expS_0_8_2_a.res in Pn
REM Old TITL 1 in P2/n
REM SHELXT solution in Pn: R1 0.238, Rweak 0.180, Alpha 0.118
REM <I/s>   0.990 for  100 systematic absences,  Orientation as input
REM Formula found by SHELXT:  C9 N5 O6

CELL  0.71073   7.0400   9.2900  11.5500   90.000   97.870   90.000
ZERR   16.000   0.0014   0.0019   0.0023    0.000    0.030    0.000
LATT -1
SYMM 1/2+X, -Y, 1/2+Z
SFAC C N O
UNIT 16 16 16
L.S. 10
BOND
LIST 6
FMAP 2
PLAN 20
O001  3  0.17012  0.67498  0.72182 11.00000  0.00010  10.68
O002  3  0.65009  0.26236  0.69117 11.00000  0.00911  10.03
N003  2  0.08926  0.39441  0.44055 11.00000  0.00010   9.58
O004  3  0.88156 -0.08840  0.37196 11.00000  0.03949   8.32
C005  1  0.82452  0.27280  0.71449 11.00000  0.00793   8.01
O006  3  0.28763  0.48649  0.61497 11.00000  0.02246   7.54
O007  3  0.08969  0.15677  0.17880 11.00000  0.02976   7.24
N008  2  0.04968  0.30291  0.33528 11.00000  0.01658   7.11
N009  2  0.94897  0.20292  0.65638 11.00000  0.01190   7.05
O00A  3  1.05961  0.01468  0.54079 11.00000  0.03761   6.83
N00B  2 -0.03106  0.56911  0.56531 11.00000  0.01097   6.65
N00C  2  0.26707  0.39630  0.51899 11.00000  0.00605   6.62
C00D  1  0.72601  0.01422  0.39532 11.00000  0.01654   5.75
C00E  1  0.75374  0.11749  0.49011 11.00000  0.03625   5.62
C00F  1  0.18629  0.24376  0.27473 11.00000  0.00911   5.59
C00G  1  1.05113 -0.08834  0.45625 11.00000  0.02082   5.21
C00H  1 -0.05961  0.49048  0.45734 11.00000  0.00831   4.81
C00I  1  0.90051  0.36301  0.82120 11.00000  0.01107   4.32
C00J  1  0.35244  0.25108  0.30804 11.00000  0.02041   4.26
C00K  1  0.14430  0.57395  0.63212 11.00000  0.01569   3.73
HKLF 4
END
