TITL 2_expF_1_1_expS_1_0_2_b.res in Pn
REM Old TITL 1 in P2/n
REM SHELXT solution in Pn: R1 0.237, Rweak 0.038, Alpha 0.020
REM <I/s>   1.183 for  100 systematic absences,  Orientation as input
REM Formula found by SHELXT:  C14 N3 O5

CELL  0.71073   7.0400   9.2900  11.5500   90.000   97.870   90.000
ZERR   16.000   0.0014   0.0019   0.0023    0.000    0.030    0.000
LATT -1
SYMM 1/2+X, -Y, 1/2+Z
SFAC C N O
UNIT 16 16 16
L.S. 10
BOND
LIST 6
FMAP 2
PLAN 20
O001  3  0.33871  0.24247  0.31424 11.00000  0.04027   8.67
O002  3  1.02740 -0.07961  0.45302 11.00000  0.04034   8.24
O003  3  0.81894 -0.16770  0.28283 11.00000  0.02566   8.22
O004  3  0.25204  0.39525  0.52196 11.00000  0.04083   7.84
N005  2  0.71221  0.01325  0.39953 11.00000  0.02784   6.90
N006  2  0.11773  0.57965  0.63745 11.00000  0.03670   6.66
N007  2  0.93617  0.20199  0.66451 11.00000  0.02784   6.61
C008  1  0.90722  0.10881  0.56607 11.00000  0.02228   6.41
C009  1  0.04187  0.30665  0.34394 11.00000  0.03562   6.13
C00A  1  0.07243  0.15191  0.17586 11.00000  0.03671   6.07
C00B  1  0.16898  0.23089  0.28659 11.00000  0.03106   6.04
C00C  1  1.05800  0.01417  0.54511 11.00000  0.02673   5.78
C00D  1  0.81207  0.25689  0.72830 11.00000  0.02861   5.72
C00E  1 -0.05800  0.48576  0.46350 11.00000  0.03705   5.69
C00F  1  0.27875  0.48694  0.62169 11.00000  0.05081   5.37
C00G  1  0.08129  0.39537  0.44139 11.00000  0.03771   5.31
C00H  1  0.89379  0.35219  0.82414 11.00000  0.03238   4.94
C00I  1  0.85427 -0.08351  0.37573 11.00000  0.03475   4.85
C00J  1  0.13591  0.68344  0.72725 11.00000  0.04136   4.52
C00K  1  0.73634  0.10972  0.49401 11.00000  0.04760   3.79
O00L  3  0.63434  0.25477  0.69651 11.00000  0.05026   3.37
C00M  1 -0.04926  0.58050  0.56810 11.00000  0.05671   3.28
HKLF 4
END
