TITL 2_expF_0_6_expS_0_8_2_a.res in Pn
REM Old TITL 1 in P2/n
REM SHELXT solution in Pn: R1 0.256, Rweak 0.278, Alpha 0.109
REM <I/s>   0.989 for  100 systematic absences,  Orientation as input
REM Formula found by SHELXT:  C12 N O7

CELL  0.71073   7.0400   9.2900  11.5500   90.000   97.870   90.000
ZERR   16.000   0.0014   0.0019   0.0023    0.000    0.030    0.000
LATT -1
SYMM 1/2+X, -Y, 1/2+Z
SFAC C N O
UNIT 16 16 16
L.S. 10
BOND
LIST 6
FMAP 2
PLAN 20
O001  3  0.18272  0.75974  0.68903 11.00000  0.00010  10.37
O002  3  0.81728  0.98372  0.60930 11.00000  0.00074  10.12
O003  3  0.69807  1.17300  0.72180 11.00000  0.00010   7.97
O004  3  0.57293  0.80222  0.33669 11.00000  0.01732   7.93
N005  2  0.35972  0.77376  0.71462 11.00000  0.00535   7.55
O006  3  0.62732  0.65279  0.17832 11.00000  0.02411   7.53
C007  1  0.39229  0.41373  0.36651 11.00000  0.01577   6.66
C008  1  0.50130  1.08801  0.55325 11.00000  0.00439   6.36
C009  1  0.45950  0.60836  0.56548 11.00000  0.01486   6.25
O00A  3  0.29335  0.61391  0.49042 11.00000  0.03131   6.24
C00B  1  0.60931  0.50783  0.54045 11.00000  0.01292   5.74
C00C  1  0.48185  0.97672  0.45666 11.00000  0.01635   5.72
C00D  1  0.63158  0.88727  0.44182 11.00000  0.01957   5.67
C00E  1  0.47152  0.69794  0.65388 11.00000  0.01621   5.61
C00F  1  0.66294  1.07873  0.62697 11.00000  0.00010   5.34
C00G  1  0.81137  0.89733  0.51712 11.00000  0.00957   5.28
C00H  1  0.71508  0.74695  0.27448 11.00000  0.00944   4.67
C00I  1  0.57882  0.43165  0.44001 11.00000  0.02872   4.16
O00J  3  0.37703  0.32448  0.29765 11.00000  0.14722   3.84
C00K  1  0.43983  0.85657  0.82168 11.00000  0.01295   3.31
HKLF 4
END
