TITL 2_expF_0_6_expS_1_1_2_a.res in Pn
REM Old TITL 1 in P2/n
REM SHELXT solution in Pn: R1 0.264, Rweak 0.281, Alpha 0.170
REM <I/s>   1.170 for   97 systematic absences,  Orientation as input
REM Formula found by SHELXT:  C13 N3 O4

CELL  0.71073   7.0400   9.2900  11.5500   90.000   97.870   90.000
ZERR   16.000   0.0014   0.0019   0.0023    0.000    0.030    0.000
LATT -1
SYMM 1/2+X, -Y, 1/2+Z
SFAC C N O
UNIT 16 16 16
L.S. 10
BOND
LIST 6
FMAP 2
PLAN 20
N001  2  0.89281  0.89995  0.56990 11.00000  0.00215  10.16
O002  3  0.72134  0.98096  0.40326 11.00000  0.00010   9.65
N003  2  0.80092  0.74501  0.73516 11.00000  0.02042   7.93
C004  1  0.13392  0.41939  0.63396 11.00000  0.01671   7.19
N005  2  0.93908  0.79350  0.67103 11.00000  0.00010   7.14
O006  3  0.63029  0.73967  0.69933 11.00000  0.01787   6.71
C007  1  0.90387  0.65547  0.82916 11.00000  0.00010   6.31
C008  1  0.25224  0.61300  0.53642 11.00000  0.01742   5.83
O009  3  0.33270  0.75304  0.31374 11.00000  0.01718   5.70
C00A  1  0.81148  1.16247  0.27758 11.00000  0.00010   5.64
C00B  1 -0.05912  0.42967  0.56621 11.00000  0.00790   5.25
O00C  3  0.14342  0.30749  0.71800 11.00000  0.04041   5.24
C00D  1  1.06342  0.98653  0.55028 11.00000  0.01544   5.21
C00E  1  1.02274  1.08289  0.45874 11.00000  0.02080   5.04
C00F  1 -0.06342  0.51043  0.46973 11.00000  0.01935   4.98
C00G  1  0.04961  0.68433  0.35297 11.00000  0.03383   4.76
C00H  1  0.07891  0.84939  0.17084 11.00000  0.02464   4.26
C00I  1  0.15137  0.76425  0.29304 11.00000  0.01894   3.68
C00J  1  0.86349  1.08332  0.37880 11.00000  0.00758   3.63
C00K  1  0.72147  0.89129  0.49982 11.00000  0.00546   3.26
HKLF 4
END
