TITL 2_expF_0_9_expS_1_1_2_b.res in Pn
REM Old TITL 1 in P2/n
REM SHELXT solution in Pn: R1 0.237, Rweak 0.074, Alpha 0.054
REM <I/s>   1.148 for  100 systematic absences,  Orientation as input
REM Formula found by SHELXT:  C10 N3 O7

CELL  0.71073   7.0400   9.2900  11.5500   90.000   97.870   90.000
ZERR   16.000   0.0014   0.0019   0.0023    0.000    0.030    0.000
LATT -1
SYMM 1/2+X, -Y, 1/2+Z
SFAC C N O
UNIT 16 16 16
L.S. 10
BOND
LIST 6
FMAP 2
PLAN 20
N001  2  0.09079  0.10731  0.43846 11.00000  0.00296  10.42
O002  3  0.28288  0.01589  0.60843 11.00000  0.00919  10.17
O003  3  0.17104 -0.17006  0.72649 11.00000  0.01254   8.94
O004  3  0.95555  0.29885  0.65874 11.00000  0.03145   8.34
O005  3  0.65468  0.24432  0.68874 11.00000  0.01878   8.19
O006  3  0.86639  0.58447  0.37121 11.00000  0.03695   8.03
N007  2 -0.03329 -0.07848  0.55754 11.00000  0.03826   7.34
N008  2  0.25893  0.10993  0.51303 11.00000  0.02507   7.03
C009  1  0.82129  0.23008  0.71608 11.00000  0.02340   6.64
C00A  1  0.09635  0.34110  0.17661 11.00000  0.02650   6.34
C00B  1  0.18095  0.25840  0.27573 11.00000  0.01626   6.27
O00C  3  1.05920  0.48535  0.54394 11.00000  0.03862   6.11
C00D  1  0.91209  0.14083  0.82339 11.00000  0.01610   6.05
C00E  1  0.06026  0.19673  0.33794 11.00000  0.01767   5.91
C00F  1 -0.05920  0.01266  0.46113 11.00000  0.01990   5.62
O00G  3  0.36079  0.25909  0.30766 11.00000  0.03425   5.52
C00H  1  0.84312  0.68959  0.28887 11.00000  0.02969   4.92
C00I  1  0.73629  0.39689  0.48151 11.00000  0.02086   4.56
C00J  1  1.05093  0.57907  0.44633 11.00000  0.01744   4.34
C00K  1  0.12736 -0.07613  0.63140 11.00000  0.02067   4.11
HKLF 4
END
