TITL 2_expF_0_8_expS_0_9_2_a.res in Pn
REM Old TITL 1 in P2/n
REM SHELXT solution in Pn: R1 0.230, Rweak 0.119, Alpha 0.054
REM <I/s>   1.042 for  100 systematic absences,  Orientation as input
REM Formula found by SHELXT:  C10 N4 O7

CELL  0.71073   7.0400   9.2900  11.5500   90.000   97.870   90.000
ZERR   16.000   0.0014   0.0019   0.0023    0.000    0.030    0.000
LATT -1
SYMM 1/2+X, -Y, 1/2+Z
SFAC C N O
UNIT 16 16 16
L.S. 10
BOND
LIST 6
FMAP 2
PLAN 20
O001  3  0.46003  0.42249  0.55131 11.00000  0.00448  10.01
O002  3  0.14960  0.74747  0.68598 11.00000  0.02053   9.46
N003  2  0.57901  0.61452  0.43763 11.00000  0.00826   9.40
O004  3  0.77071  0.52054  0.60927 11.00000  0.02641   8.09
O005  3  0.55353  0.99018  0.54120 11.00000  0.04905   7.86
O006  3  0.24184  0.89383  0.48758 11.00000  0.03212   7.68
O007  3  0.33608  1.16752  0.27108 11.00000  0.00902   7.55
C008  1  0.36673  1.07232  0.36510 11.00000  0.01769   7.43
N009  2  0.44451  0.79897  0.65284 11.00000  0.01370   7.38
N00A  2  0.68441  0.75906  0.28034 11.00000  0.01400   6.96
N00B  2  0.59301  0.85063  0.17726 11.00000  0.02414   6.83
C00C  1  0.54887  0.69525  0.33037 11.00000  0.01429   6.42
C00D  1  0.32748  0.72843  0.72255 11.00000  0.02296   5.96
C00E  1  0.66787  0.31125  0.71296 11.00000  0.02737   5.38
C00F  1  0.40682  0.64965  0.82274 11.00000  0.01491   4.92
C00G  1  0.20333  0.99462  0.38771 11.00000  0.01409   4.70
C00H  1  0.63125  0.41220  0.62624 11.00000  0.01397   4.44
C00I  1  0.76360  0.60651  0.51693 11.00000  0.01419   4.32
O00J  3  0.85040  0.76194  0.30326 11.00000  0.02688   3.61
C00K  1  0.39360  0.90211  0.55939 11.00000  0.02368   3.52
C00L  1  0.43631  0.51713  0.45761 11.00000  0.00890   3.26
HKLF 4
END
