TITL 2_expF_0_5_expS_0_5_2_a.res in Pn
REM Old TITL 1 in P2/n
REM SHELXT solution in Pn: R1 0.271, Rweak 0.385, Alpha 0.250
REM <I/s>   0.913 for   97 systematic absences,  Orientation as input
REM Formula found by SHELXT:  C6 N5 O8

CELL  0.71073   7.0400   9.2900  11.5500   90.000   97.870   90.000
ZERR   16.000   0.0014   0.0019   0.0023    0.000    0.030    0.000
LATT -1
SYMM 1/2+X, -Y, 1/2+Z
SFAC C N O
UNIT 16 16 16
L.S. 10
BOND
LIST 6
FMAP 2
PLAN 20
O001  3  0.20208  0.39675  0.26544 11.00000  0.00010  10.97
N002  2  0.92907  0.07611  0.83626 11.00000  0.00010   9.87
O003  3  0.23252  0.29827  0.36612 11.00000  0.00010   9.85
O004  3  0.72852 -0.01448  0.66590 11.00000  0.00107   8.69
O005  3  0.63768  0.26100  1.01935 11.00000  0.00010   7.61
N006  2  0.95651  0.17173  0.92676 11.00000  0.00010   7.19
N007  2  0.10168  0.22161  0.42093 11.00000  0.00654   7.05
N008  2  0.39225  0.34986  0.89818 11.00000  0.00010   6.54
N009  2  0.33500  0.58039  0.14453 11.00000  0.00264   6.53
C00A  1  1.03160 -0.11732  0.72297 11.00000  0.00010   5.94
C00B  1  0.46626  0.26332  0.98776 11.00000  0.00230   5.67
O00C  3  0.01056  0.48767  0.08767 11.00000  0.03372   5.54
O00D  3 -0.07363  0.25862  0.39808 11.00000  0.03709   5.51
O00E  3  0.21347  0.15883  0.53655 11.00000  0.01575   5.46
C00F  1  1.07363 -0.00350  0.81573 11.00000  0.00247   5.04
C00G  1  0.02822  0.40970  0.19468 11.00000  0.01038   4.82
C00H  1  0.13065  0.68006 -0.01935 11.00000  0.01625   4.12
O00I  3  0.51473  0.15222  0.74332 11.00000  0.27775   3.66
C00J  1  0.72637  0.05882  0.73943 11.00000  0.02724   3.25
HKLF 4
END
