TITL 2_expF_1_0_expS_0_8_2_b.res in Pn
REM Old TITL 1 in P2/n
REM SHELXT solution in Pn: R1 0.227, Rweak 0.047, Alpha 0.031
REM <I/s>   1.063 for  100 systematic absences,  Orientation as input
REM Formula found by SHELXT:  C12 N4 O6

CELL  0.71073   7.0400   9.2900  11.5500   90.000   97.870   90.000
ZERR   16.000   0.0014   0.0019   0.0023    0.000    0.030    0.000
LATT -1
SYMM 1/2+X, -Y, 1/2+Z
SFAC C N O
UNIT 16 16 16
L.S. 10
BOND
LIST 6
FMAP 2
PLAN 20
O001  3  0.17096 -0.16809  0.72376 11.00000  0.02942  10.49
O002  3  0.65464  0.24457  0.68708 11.00000  0.02264   8.75
N003  2  0.09326  0.11026  0.43573 11.00000  0.02488   8.58
O004  3  0.28442  0.01323  0.60434 11.00000  0.02529   8.33
O005  3  0.95436  0.30006  0.65788 11.00000  0.04339   7.75
O006  3 -0.02434 -0.08263  0.54860 11.00000  0.03291   7.73
N007  2  0.87667  0.58415  0.37261 11.00000  0.03169   7.16
N008  2  0.18431  0.25532  0.27726 11.00000  0.03955   6.85
N009  2  0.27472  0.10561  0.51814 11.00000  0.03747   6.66
C00A  1  0.91485  0.15358  0.82286 11.00000  0.03446   6.43
C00B  1  1.05899  0.48559  0.53682 11.00000  0.03309   6.35
C00C  1  0.82889  0.23039  0.71761 11.00000  0.02126   5.94
C00D  1  0.05955  0.19935  0.33821 11.00000  0.01984   5.93
C00E  1 -0.05917  0.01433  0.45502 11.00000  0.02677   5.59
C00F  1  0.75646  0.39196  0.48913 11.00000  0.02433   5.45
C00G  1  0.09710  0.35303  0.17714 11.00000  0.02656   5.45
C00H  1  0.14408 -0.07693  0.63434 11.00000  0.02980   5.19
C00I  1  0.71106  0.48569  0.37610 11.00000  0.06610   5.11
C00J  1  1.05917  0.57394  0.43124 11.00000  0.05032   4.68
C00K  1  0.91649  0.39812  0.55705 11.00000  0.03343   4.42
O00L  3  0.35595  0.25712  0.30371 11.00000  0.06572   4.41
C00M  1  0.84555  0.67985  0.27988 11.00000  0.02604   3.28
HKLF 4
END
