TITL 2_expF_1_0_expS_1_2_2_b.res in Pn
REM Old TITL 1 in P2/n
REM SHELXT solution in Pn: R1 0.231, Rweak 0.057, Alpha 0.051
REM <I/s>   1.220 for  100 systematic absences,  Orientation as input
REM Formula found by SHELXT:  C14 N5 O3

CELL  0.71073   7.0400   9.2900  11.5500   90.000   97.870   90.000
ZERR   16.000   0.0014   0.0019   0.0023    0.000    0.030    0.000
LATT -1
SYMM 1/2+X, -Y, 1/2+Z
SFAC C N O
UNIT 16 16 16
L.S. 10
BOND
LIST 6
FMAP 2
PLAN 20
O001  3  0.34784  0.25075  0.30079 11.00000  0.03799   8.21
N002  2  0.87275  0.58296  0.36116 11.00000  0.03232   8.17
O003  3  0.04883  0.19866  0.33773 11.00000  0.02704   7.55
N004  2  0.73124  0.39525  0.47535 11.00000  0.02722   7.06
N005  2  0.72524  0.48900  0.37784 11.00000  0.04167   6.88
N006  2  0.08146  0.10571  0.43292 11.00000  0.03145   6.87
N007  2  0.16854 -0.16452  0.71822 11.00000  0.01389   6.85
C008  1  0.17533  0.26195  0.27513 11.00000  0.02300   6.67
C009  1 -0.04262 -0.08332  0.54547 11.00000  0.02094   6.10
C00A  1 -0.05929  0.01377  0.45356 11.00000  0.03484   6.00
C00B  1  0.09253  0.34933  0.17657 11.00000  0.02662   5.76
C00C  1  0.84395  0.68896  0.27376 11.00000  0.03435   5.56
C00D  1  1.03405  0.57211  0.43491 11.00000  0.04313   5.45
C00E  1  1.05929  0.48622  0.53399 11.00000  0.02870   5.14
C00F  1  0.81671  0.23541  0.71672 11.00000  0.03105   5.13
C00G  1  0.94370  0.30252  0.66235 11.00000  0.03903   4.93
C00H  1  0.90473  0.39179  0.55538 11.00000  0.03227   4.83
C00I  1  0.28552  0.01650  0.59789 11.00000  0.02105   4.78
C00J  1  0.91081  0.14719  0.82343 11.00000  0.03280   4.67
C00K  1  0.24795  0.10804  0.50237 11.00000  0.03134   4.04
O00L  3  0.64434  0.23809  0.68335 11.00000  0.03606   3.60
C00M  1  0.13864 -0.07690  0.62159 11.00000  0.02927   3.11
HKLF 4
END
