TITL 2_expF_1_5_expS_1_5_2_a.res in P2(1)/n
REM Old TITL 1 in P2/n
REM SHELXT solution in P2(1)/n: R1 0.367, Rweak 0.014, Alpha 0.033
REM <I/s>   1.479 for  106 systematic absences,  Orientation as input
REM Formula found by SHELXT:  C9 N O

CELL  0.71073   7.0400   9.2900  11.5500   90.000   97.870   90.000
ZERR   16.000   0.0014   0.0019   0.0023    0.000    0.030    0.000
LATT  1
SYMM 1/2-X, 1/2+Y, 1/2-Z
SFAC C N O
UNIT 16 16 16
L.S. 10
BOND
LIST 6
FMAP 2
PLAN 20
N001  2  0.33879  0.07577  0.27784 11.00000  0.03812   6.50
C002  1  0.44674  0.44840  0.65896 11.00000  0.03558   6.25
C003  1  0.21763  0.26291  0.39100 11.00000  0.04232   6.11
C004  1  0.41033  0.35773  0.56244 11.00000  0.03669   6.05
C005  1  0.53668  0.17131  0.44339 11.00000  0.04669   6.05
C006  1  0.32125  0.51193  0.72082 11.00000  0.04181   5.91
O007  3  0.14717  0.50548  0.69114 11.00000  0.05306   5.83
C008  1  0.23882  0.35629  0.48458 11.00000  0.04171   5.82
C009  1  0.37024  0.16815  0.36992 11.00000  0.04181   5.80
C00A  1  0.55993  0.26499  0.53780 11.00000  0.04390   5.72
C00B  1  0.41108  0.59903  0.82312 11.00000  0.04901   5.24
HKLF 4
END
