TITL 2_expF_1_0_expS_0_5_2_a.res in P2(1)/n
REM Old TITL 1 in P2/n
REM SHELXT solution in P2(1)/n: R1 0.268, Rweak 0.062, Alpha 0.108
REM <I/s>   1.224 for  106 systematic absences,  Orientation as input
REM Formula found by SHELXT:  C9 N O

CELL  0.71073   7.0400   9.2900  11.5500   90.000   97.870   90.000
ZERR   16.000   0.0014   0.0019   0.0023    0.000    0.030    0.000
LATT  1
SYMM 1/2-X, 1/2+Y, 1/2-Z
SFAC C N O
UNIT 16 16 16
L.S. 10
BOND
LIST 6
FMAP 2
PLAN 20
N001  2  0.55098  0.55099  0.33931 11.00000  0.03670   6.51
C002  1  0.67851  0.48777  0.27890 11.00000  0.02612   6.25
O003  3  0.85051  0.49496  0.30876 11.00000  0.04979   6.17
C004  1  0.66247  0.92452  0.72177 11.00000  0.02289   6.16
C005  1  0.58826  0.64261  0.43835 11.00000  0.02658   6.02
C006  1  0.78247  0.73752  0.61049 11.00000  0.03174   5.99
C007  1  0.63455  0.82975  0.63043 11.00000  0.02987   5.87
C008  1  0.46055  0.82898  0.55468 11.00000  0.03410   5.69
C009  1  0.75904  0.64293  0.51472 11.00000  0.03083   5.68
C00A  1  0.44084  0.73453  0.45926 11.00000  0.03247   5.45
C00B  1  0.59199  0.39939  0.17655 11.00000  0.03275   5.41
HKLF 4
END
