TITL 2_expF_0_9_expS_0_6_2_a.res in Pn
REM Old TITL 1 in P2/n
REM SHELXT solution in Pn: R1 0.224, Rweak 0.078, Alpha 0.057
REM <I/s>   0.958 for  100 systematic absences,  Orientation as input
REM Formula found by SHELXT:  C12 N2 O8

CELL  0.71073   7.0400   9.2900  11.5500   90.000   97.870   90.000
ZERR   16.000   0.0014   0.0019   0.0023    0.000    0.030    0.000
LATT -1
SYMM 1/2+X, -Y, 1/2+Z
SFAC C N O
UNIT 16 16 16
L.S. 10
BOND
LIST 6
FMAP 2
PLAN 20
N001  2  0.91821  0.89069  0.56260 11.00000  0.02919  10.34
O002  3  0.34634  0.76060  0.31200 11.00000  0.02500   9.56
O003  3  0.71959  0.98779  0.39579 11.00000  0.02163   9.45
O004  3  1.03957  1.08186  0.45306 11.00000  0.03432   9.17
O005  3  0.94189  0.79558  0.66411 11.00000  0.03543   8.43
C006  1  0.12357  0.41869  0.63185 11.00000  0.02050   8.41
O007  3  0.82880  1.17010  0.27998 11.00000  0.00598   7.86
C008  1  0.17455  0.77587  0.28514 11.00000  0.02048   7.62
O009  3  0.90425  0.64991  0.82293 11.00000  0.04676   7.35
N00A  2  0.25918  0.60379  0.51604 11.00000  0.02806   6.52
C00B  1  1.06055  0.98149  0.54198 11.00000  0.02132   6.09
C00C  1  0.04465  0.69565  0.34337 11.00000  0.02072   6.02
C00D  1 -0.06055  0.50916  0.46037 11.00000  0.02877   5.76
C00E  1  0.81860  0.74660  0.72559 11.00000  0.01880   5.67
O00F  3  0.11763  0.30424  0.72031 11.00000  0.11397   5.60
C00G  1  0.74263  0.88900  0.48698 11.00000  0.03024   5.47
C00H  1  0.08489  0.85261  0.17707 11.00000  0.02707   5.22
O00I  3  0.64151  0.75148  0.69375 11.00000  0.04667   4.70
C00J  1  0.85990  1.08140  0.37157 11.00000  0.02442   4.06
C00K  1  0.29231  0.51453  0.62461 11.00000  0.06691   3.74
C00L  1  0.09358  0.60594  0.43863 11.00000  0.02402   3.19
C00M  1 -0.03938  0.42539  0.56654 11.00000  0.04047   3.18
HKLF 4
END
