TITL 2_expF_0_6_expS_0_7_2_a.res in Pn
REM Old TITL 1 in P2/n
REM SHELXT solution in Pn: R1 0.256, Rweak 0.277, Alpha 0.109
REM <I/s>   0.945 for  100 systematic absences,  Orientation as input
REM Formula found by SHELXT:  C12 N O7

CELL  0.71073   7.0400   9.2900  11.5500   90.000   97.870   90.000
ZERR   16.000   0.0014   0.0019   0.0023    0.000    0.030    0.000
LATT -1
SYMM 1/2+X, -Y, 1/2+Z
SFAC C N O
UNIT 16 16 16
L.S. 10
BOND
LIST 6
FMAP 2
PLAN 20
O001  3  0.18285  0.75908  0.68862 11.00000  0.00010  10.37
O002  3  0.81715  0.98452  0.60862 11.00000  0.00302  10.12
O003  3  0.69833  1.17213  0.72157 11.00000  0.00010   7.97
O004  3  0.57326  0.80188  0.33626 11.00000  0.01746   7.93
N005  2  0.36013  0.77379  0.71508 11.00000  0.00571   7.55
O006  3  0.62747  0.65309  0.17737 11.00000  0.02661   7.53
C007  1  0.39258  0.41433  0.36604 11.00000  0.01869   6.66
C008  1  0.50122  1.08863  0.55275 11.00000  0.00291   6.36
C009  1  0.45874  0.60783  0.56607 11.00000  0.01362   6.25
O00A  3  0.29283  0.61339  0.48906 11.00000  0.03674   6.24
C00B  1  0.60874  0.50795  0.53829 11.00000  0.01364   5.74
C00C  1  0.48048  0.97641  0.45500 11.00000  0.01703   5.72
C00D  1  0.63088  0.88579  0.44392 11.00000  0.02152   5.67
C00E  1  0.47205  0.69773  0.65409 11.00000  0.01590   5.61
C00F  1  0.66284  1.07955  0.62679 11.00000  0.00010   5.34
C00G  1  0.81141  0.89664  0.51694 11.00000  0.01237   5.28
C00H  1  0.71597  0.74656  0.27494 11.00000  0.01140   4.67
C00I  1  0.58131  0.43181  0.44038 11.00000  0.03221   4.16
O00J  3  0.38920  0.32219  0.29551 11.00000  0.18894   3.84
C00K  1  0.44075  0.85753  0.82263 11.00000  0.01519   3.31
HKLF 4
END
