TITL 2_expF_1_3_expS_1_4_2_a.res in P2(1)/n
REM Old TITL 1 in P2/n
REM SHELXT solution in P2(1)/n: R1 0.294, Rweak 0.020, Alpha 0.043
REM <I/s>   1.524 for  106 systematic absences,  Orientation as input
REM Formula found by SHELXT:  C10 O

CELL  0.71073   7.0400   9.2900  11.5500   90.000   97.870   90.000
ZERR   16.000   0.0014   0.0019   0.0023    0.000    0.030    0.000
LATT  1
SYMM 1/2-X, 1/2+Y, 1/2-Z
SFAC C N O
UNIT 16 16 16
L.S. 10
BOND
LIST 6
FMAP 2
PLAN 20
C001  1  0.33732  0.92203  0.27795 11.00000  0.03243   6.45
C002  1  0.44732  0.55265  0.65964 11.00000  0.03838   6.27
C003  1  0.22173  0.73754  0.39107 11.00000  0.04561   6.17
C004  1  0.54120  0.83030  0.44405 11.00000  0.04788   6.00
C005  1  0.24020  0.64332  0.48575 11.00000  0.04152   5.94
O006  3  0.14660  0.49533  0.69202 11.00000  0.05805   5.93
C007  1  0.32351  0.48604  0.72130 11.00000  0.04444   5.93
C008  1  0.56026  0.73454  0.53924 11.00000  0.04634   5.87
C009  1  0.36513  0.83155  0.37013 11.00000  0.04256   5.82
C00A  1  0.41184  0.64336  0.56156 11.00000  0.04112   5.78
C00B  1  0.40961  0.40062  0.82300 11.00000  0.05013   5.23
HKLF 4
END
