TITL 2_expF_1_3_expS_0_8_2_a.res in P2(1)/n
REM Old TITL 1 in P2/n
REM SHELXT solution in P2(1)/n: R1 0.286, Rweak 0.024, Alpha 0.047
REM <I/s>   1.587 for  106 systematic absences,  Orientation as input
REM Formula found by SHELXT:  C9 N O

CELL  0.71073   7.0400   9.2900  11.5500   90.000   97.870   90.000
ZERR   16.000   0.0014   0.0019   0.0023    0.000    0.030    0.000
LATT  1
SYMM 1/2-X, 1/2+Y, 1/2-Z
SFAC C N O
UNIT 16 16 16
L.S. 10
BOND
LIST 6
FMAP 2
PLAN 20
N001  2  0.34044  0.07709  0.27894 11.00000  0.04446   6.50
C002  1  0.44667  0.44686  0.66014 11.00000  0.03591   6.37
C003  1  0.22066  0.26190  0.39056 11.00000  0.04614   6.05
C004  1  0.32416  0.51271  0.72012 11.00000  0.04384   6.04
O005  3  0.14664  0.50520  0.69251 11.00000  0.06297   6.03
C006  1  0.41153  0.35614  0.56148 11.00000  0.03963   6.00
C007  1  0.53997  0.16974  0.44407 11.00000  0.04683   5.94
C008  1  0.36710  0.16836  0.37076 11.00000  0.03879   5.83
C009  1  0.24193  0.35694  0.48535 11.00000  0.04291   5.77
C00A  1  0.56078  0.26467  0.53982 11.00000  0.04671   5.62
C00B  1  0.41083  0.59844  0.82337 11.00000  0.05096   5.30
HKLF 4
END
