TITL 2_expF_1_2_expS_1_4_2_c.res in P2(1)
REM Old TITL 1 in P2/n
REM SHELXT solution in P2(1): R1 0.258, Rweak 0.028, Alpha 0.064
REM <I/s>   1.678 for    6 systematic absences,  Orientation as input
REM Formula found by SHELXT:  C16 N4 O2

CELL  0.71073   7.0400   9.2900  11.5500   90.000   97.870   90.000
ZERR   16.000   0.0014   0.0019   0.0023    0.000    0.030    0.000
LATT -1
SYMM -X, 1/2+Y, -Z
SFAC C N O
UNIT 16 16 16
L.S. 10
BOND
LIST 6
FMAP 2
PLAN 20
N001  2  0.29408  0.57249  0.69012 11.00000  0.04100   7.32
O002  3 -0.10468  0.23183  0.94010 11.00000  0.04707   7.25
N003  2  0.58467  0.32462  0.02883 11.00000  0.04040   6.73
N004  2  0.16213  0.38866  0.81393 11.00000  0.03170   6.62
C005  1  0.61981  0.41056  0.12144 11.00000  0.03414   6.53
N006  2  0.46845  0.51038  0.14172 11.00000  0.04647   6.50
C007  1  0.19699  0.30139  0.90958 11.00000  0.02806   6.37
C008  1  0.65823  0.85116  0.57387 11.00000  0.04384   6.25
C009  1  0.69838  0.69966  0.40843 11.00000  0.03738   6.20
C00A  1  0.06664  0.23117  0.96585 11.00000  0.02971   6.13
C00B  1  0.81037  0.50212  0.28987 11.00000  0.04397   6.07
C00C  1  0.08949  0.67002  0.52814 11.00000  0.02713   6.01
C00D  1  0.48937  0.59660  0.23540 11.00000  0.03583   5.89
C00E  1  0.57511  0.75688  0.47584 11.00000  0.04229   5.86
C00F  1 -0.03055  0.48293  0.63798 11.00000  0.04347   5.79
C00G  1 -0.00961  0.38397  0.73665 11.00000  0.04020   5.52
C00H  1  0.66464  0.60088  0.30756 11.00000  0.05318   5.36
C00I  1  0.30979  0.47408  0.79054 11.00000  0.03728   5.31
C00J  1  0.11630  0.57284  0.61843 11.00000  0.04386   5.10
O00K  3  0.40176  0.74248  0.44235 11.00000  0.05392   4.83
C00L  1  0.78057  0.41270  0.19928 11.00000  0.04827   4.69
C00M  1  0.16000  0.14884  1.07269 11.00000  0.04067   4.27
HKLF 4
END
