TITL 2_expF_0_8_expS_1_1_2_b.res in P2(1)
REM Old TITL 1 in P2/n
REM SHELXT solution in P2(1): R1 0.248, Rweak 0.125, Alpha 0.220
REM <I/s>   1.204 for    6 systematic absences,  Orientation as input
REM Formula found by SHELXT:  C13 N4 O5

CELL  0.71073   7.0400   9.2900  11.5500   90.000   97.870   90.000
ZERR   16.000   0.0014   0.0019   0.0023    0.000    0.030    0.000
LATT -1
SYMM -X, 1/2+Y, -Z
SFAC C N O
UNIT 16 16 16
L.S. 10
BOND
LIST 6
FMAP 2
PLAN 20
N001  2  0.92175  0.77187  0.02389 11.00000  0.02592   8.15
O002  3  1.02580  0.50869  0.36110 11.00000  0.04246   7.95
O003  3  0.80169  0.71634  0.09103 11.00000  0.02928   7.90
O004  3  0.42250  0.69336  0.96385 11.00000  0.02941   7.00
O005  3  1.10510  0.76731  0.06042 11.00000  0.01710   6.90
N006  2  0.84741  0.61094  0.18644 11.00000  0.04288   6.84
N007  2  0.69686  0.42004  0.30071 11.00000  0.05596   6.82
C008  1  0.38683  0.58421  0.87753 11.00000  0.01112   6.61
N009  2  0.34659  0.14886  0.42841 11.00000  0.02100   6.54
O00A  3  0.59698  0.25352  0.55655 11.00000  0.03552   6.08
C00B  1  1.01103  0.61039  0.26175 11.00000  0.00602   5.89
C00C  1  0.91079  0.34307  0.47924 11.00000  0.00167   5.83
C00D  1  0.87616  0.42350  0.38284 11.00000  0.02669   5.64
C00E  1  0.69850  0.53267  0.21072 11.00000  0.02834   5.52
C00F  1  0.50910  0.39160  0.76760 11.00000  0.03341   5.50
C00G  1  0.33125  0.39740  0.68945 11.00000  0.00852   5.50
C00H  1  0.18179  0.50115  0.70807 11.00000  0.01220   5.49
C00I  1  0.30557  0.31532  0.58946 11.00000  0.01200   4.91
C00J  1  0.83708  0.85114 -0.07431 11.00000  0.02449   4.48
C00K  1  0.53430  0.48568  0.86137 11.00000  0.01350   4.40
C00L  1  0.20947  0.58110  0.80612 11.00000  0.00752   4.31
C00M  1  0.43661  0.24340  0.53378 11.00000  0.01479   4.22
HKLF 4
END
