TITL 2_expF_1_3_expS_0_6_2_a.res in P2(1)/n
REM Old TITL 1 in P2/n
REM SHELXT solution in P2(1)/n: R1 0.285, Rweak 0.024, Alpha 0.050
REM <I/s>   1.706 for  106 systematic absences,  Orientation as input
REM Formula found by SHELXT:  C10 O

CELL  0.71073   7.0400   9.2900  11.5500   90.000   97.870   90.000
ZERR   16.000   0.0014   0.0019   0.0023    0.000    0.030    0.000
LATT  1
SYMM 1/2-X, 1/2+Y, 1/2-Z
SFAC C N O
UNIT 16 16 16
L.S. 10
BOND
LIST 6
FMAP 2
PLAN 20
C001  1  0.66104  0.92228  0.72129 11.00000  0.03514   6.48
C002  1  0.55303  0.55290  0.33973 11.00000  0.03876   6.41
O003  3  0.85309  0.49490  0.30769 11.00000  0.06746   6.05
C004  1  0.78043  0.73911  0.61024 11.00000  0.04781   6.05
C005  1  0.67527  0.48671  0.27971 11.00000  0.04517   6.01
C006  1  0.58839  0.64364  0.43877 11.00000  0.04142   6.01
C007  1  0.46025  0.83062  0.55599 11.00000  0.04922   5.90
C008  1  0.63393  0.83150  0.62932 11.00000  0.04142   5.83
C009  1  0.75687  0.64306  0.51439 11.00000  0.04488   5.79
C00A  1  0.43951  0.73488  0.45973 11.00000  0.04889   5.63
C00B  1  0.59127  0.40123  0.17697 11.00000  0.05218   5.34
HKLF 4
END
