TITL 2_expF_1_3_expS_0_5_2_a.res in P2(1)/n
REM Old TITL 1 in P2/n
REM SHELXT solution in P2(1)/n: R1 0.286, Rweak 0.024, Alpha 0.058
REM <I/s>   1.794 for  106 systematic absences,  Orientation as input
REM Formula found by SHELXT:  C9 N O

CELL  0.71073   7.0400   9.2900  11.5500   90.000   97.870   90.000
ZERR   16.000   0.0014   0.0019   0.0023    0.000    0.030    0.000
LATT  1
SYMM 1/2-X, 1/2+Y, 1/2-Z
SFAC C N O
UNIT 16 16 16
L.S. 10
BOND
LIST 6
FMAP 2
PLAN 20
N001  2  0.65905  0.07724  0.72082 11.00000  0.04531   6.51
C002  1  0.55266  0.44694  0.33957 11.00000  0.03569   6.38
C003  1  0.58845  0.35612  0.43865 11.00000  0.03998   6.09
O004  3  0.85319  0.50522  0.30790 11.00000  0.06458   6.03
C005  1  0.67510  0.51275  0.28036 11.00000  0.04360   6.01
C006  1  0.77895  0.26147  0.60981 11.00000  0.04652   5.99
C007  1  0.63317  0.16857  0.62920 11.00000  0.03796   5.89
C008  1  0.45976  0.16989  0.55586 11.00000  0.04692   5.86
C009  1  0.75671  0.35686  0.51453 11.00000  0.04301   5.77
C00A  1  0.43880  0.26436  0.45956 11.00000  0.04693   5.57
C00B  1  0.58990  0.59852  0.17656 11.00000  0.05084   5.28
HKLF 4
END
