TITL 2_expF_1_0_expS_0_5_2_b.res in Pn
REM Old TITL 1 in P2/n
REM SHELXT solution in Pn: R1 0.231, Rweak 0.047, Alpha 0.045
REM <I/s>   0.980 for  100 systematic absences,  Orientation as input
REM Formula found by SHELXT:  C11 N2 O10

CELL  0.71073   7.0400   9.2900  11.5500   90.000   97.870   90.000
ZERR   16.000   0.0014   0.0019   0.0023    0.000    0.030    0.000
LATT -1
SYMM 1/2+X, -Y, 1/2+Z
SFAC C N O
UNIT 16 16 16
L.S. 10
BOND
LIST 6
FMAP 2
PLAN 20
O001  3  0.72448  0.98362  0.38893 11.00000  0.02464  10.14
N002  2  0.92179  0.89384  0.56187 11.00000  0.02594   9.85
O003  3  0.95053  0.79905  0.65676 11.00000  0.03806   9.39
C004  1  0.13828  0.41611  0.62630 11.00000  0.03374   8.80
O005  3 -0.05941  0.51314  0.45207 11.00000  0.05373   8.59
O006  3  0.34989  0.75752  0.30505 11.00000  0.02444   8.41
O007  3  0.83044  1.17216  0.27546 11.00000  0.01675   8.01
O008  3  0.90978  0.65356  0.82329 11.00000  0.05703   7.90
O009  3  1.04491  1.07481  0.43970 11.00000  0.04467   7.62
C00A  1  0.82389  0.74647  0.72086 11.00000  0.02275   7.42
C00B  1  0.18141  0.77302  0.28074 11.00000  0.02534   6.95
O00C  3  0.13568  0.32300  0.72145 11.00000  0.08324   6.76
N00D  2  0.26013  0.60712  0.51163 11.00000  0.03145   6.75
C00E  1  0.74528  0.89625  0.48132 11.00000  0.03437   6.22
O00F  3  0.64169  0.74944  0.68550 11.00000  0.06412   6.18
C00G  1 -0.03603  0.41595  0.54930 11.00000  0.03405   5.81
C00H  1  0.05458  0.69788  0.33685 11.00000  0.02504   5.45
C00I  1  0.09328  0.85464  0.17671 11.00000  0.02810   4.85
C00J  1  0.87202  1.07854  0.36674 11.00000  0.02168   4.65
C00K  1  0.09890  0.60683  0.43907 11.00000  0.03609   4.44
C00L  1  0.29962  0.50227  0.61479 11.00000  0.06735   3.98
C00M  1  1.05941  0.98524  0.53481 11.00000  0.02689   3.85
O00N  3  0.62603  0.83067  0.49834 11.00000  0.20816   3.18
HKLF 4
END
