TITL 2_expF_1_1_expS_0_7_2_a.res in P2(1)/n
REM Old TITL 1 in P2/n
REM SHELXT solution in P2(1)/n: R1 0.268, Rweak 0.044, Alpha 0.106
REM <I/s>   1.251 for  106 systematic absences,  Orientation as input
REM Formula found by SHELXT:  C10 O

CELL  0.71073   7.0400   9.2900  11.5500   90.000   97.870   90.000
ZERR   16.000   0.0014   0.0019   0.0023    0.000    0.030    0.000
LATT  1
SYMM 1/2-X, 1/2+Y, 1/2-Z
SFAC C N O
UNIT 16 16 16
L.S. 10
BOND
LIST 6
FMAP 2
PLAN 20
C001  1  0.66210  0.92309  0.72123 11.00000  0.02700   6.38
C002  1  0.55125  0.55216  0.33973 11.00000  0.03042   6.37
O003  3  0.85068  0.49532  0.30822 11.00000  0.05553   6.20
C004  1  0.78163  0.73828  0.61012 11.00000  0.03611   6.17
C005  1  0.58676  0.64259  0.43829 11.00000  0.03243   6.08
C006  1  0.67807  0.48702  0.27849 11.00000  0.03275   6.02
C007  1  0.46289  0.82984  0.55536 11.00000  0.03786   5.89
C008  1  0.63425  0.83071  0.63073 11.00000  0.03395   5.80
C009  1  0.75905  0.64268  0.51472 11.00000  0.03571   5.67
C00A  1  0.43952  0.73469  0.45874 11.00000  0.03737   5.52
C00B  1  0.59167  0.40019  0.17643 11.00000  0.03874   5.43
HKLF 4
END
