TITL 2_expF_0_9_expS_1_0_2_b.res in Pn
REM Old TITL 1 in P2/n
REM SHELXT solution in Pn: R1 0.237, Rweak 0.075, Alpha 0.035
REM <I/s>   1.104 for  100 systematic absences,  Orientation as input
REM Formula found by SHELXT:  C8 N5 O7

CELL  0.71073   7.0400   9.2900  11.5500   90.000   97.870   90.000
ZERR   16.000   0.0014   0.0019   0.0023    0.000    0.030    0.000
LATT -1
SYMM 1/2+X, -Y, 1/2+Z
SFAC C N O
UNIT 16 16 16
L.S. 10
BOND
LIST 6
FMAP 2
PLAN 20
O001  3  0.74599  0.10712  0.49337 11.00000  0.01151  10.24
O002  3  0.95763  0.19502  0.66758 11.00000  0.02439  10.19
N003  2  0.18526  0.23606  0.28804 11.00000  0.00337  10.15
N004  2  0.86517 -0.07553  0.37642 11.00000  0.01690   9.43
O005  3  0.17522  0.67746  0.73335 11.00000  0.03414   8.21
O006  3  0.71253  0.00986  0.40091 11.00000  0.04609   8.19
O007  3  0.91170  0.34894  0.82331 11.00000  0.03278   8.09
O008  3  0.10092  0.38961  0.44689 11.00000  0.03665   7.78
O009  3  0.35870  0.24294  0.31997 11.00000  0.02881   7.45
N00A  2  1.05939  0.00872  0.54886 11.00000  0.02655   7.12
N00B  2 -0.03033  0.57803  0.56103 11.00000  0.03302   6.94
N00C  2  0.65680  0.25476  0.70132 11.00000  0.01785   6.85
C00D  1  1.05033 -0.08188  0.45025 11.00000  0.02191   5.76
C00E  1 -0.05939  0.48056  0.46891 11.00000  0.02073   5.56
C00F  1  0.85010 -0.17263  0.28716 11.00000  0.01077   5.32
C00G  1  0.92251  0.10396  0.57156 11.00000  0.02535   4.85
C00H  1  0.27765  0.48222  0.62007 11.00000  0.01622   4.77
C00I  1  0.06482  0.29804  0.34841 11.00000  0.02384   4.70
C00J  1  0.12341  0.58767  0.63562 11.00000  0.02660   4.33
C00K  1  0.09422  0.14883  0.17669 11.00000  0.03017   4.28
HKLF 4
END
