TITL 2_expF_1_2_expS_0_5_2_a.res in P2(1)/n
REM Old TITL 1 in P2/n
REM SHELXT solution in P2(1)/n: R1 0.276, Rweak 0.033, Alpha 0.085
REM <I/s>   1.502 for  106 systematic absences,  Orientation as input
REM Formula found by SHELXT:  C10 O

CELL  0.71073   7.0400   9.2900  11.5500   90.000   97.870   90.000
ZERR   16.000   0.0014   0.0019   0.0023    0.000    0.030    0.000
LATT  1
SYMM 1/2-X, 1/2+Y, 1/2-Z
SFAC C N O
UNIT 16 16 16
L.S. 10
BOND
LIST 6
FMAP 2
PLAN 20
C001  1  0.44834  0.55272  0.65957 11.00000  0.03581   6.42
C002  1  0.33972  0.92354  0.27915 11.00000  0.03307   6.40
C003  1  0.32224  0.48691  0.72137 11.00000  0.03817   6.11
O004  3  0.15064  0.49594  0.69193 11.00000  0.07035   6.10
C005  1  0.21880  0.73884  0.38970 11.00000  0.04325   6.07
C006  1  0.41388  0.64318  0.56141 11.00000  0.03853   6.00
C007  1  0.53735  0.82970  0.44407 11.00000  0.04442   5.86
C008  1  0.36531  0.83154  0.36983 11.00000  0.04047   5.81
C009  1  0.23993  0.64423  0.48581 11.00000  0.04481   5.73
C00A  1  0.56019  0.73511  0.54031 11.00000  0.04503   5.59
C00B  1  0.40772  0.39890  0.82333 11.00000  0.04570   5.38
HKLF 4
END
