TITL 2_expF_1_4_expS_1_1_2_a.res in P2(1)/n
REM Old TITL 1 in P2/n
REM SHELXT solution in P2(1)/n: R1 0.305, Rweak 0.019, Alpha 0.056
REM <I/s>   1.524 for  106 systematic absences,  Orientation as input
REM Formula found by SHELXT:  C9 N O

CELL  0.71073   7.0400   9.2900  11.5500   90.000   97.870   90.000
ZERR   16.000   0.0014   0.0019   0.0023    0.000    0.030    0.000
LATT  1
SYMM 1/2-X, 1/2+Y, 1/2-Z
SFAC C N O
UNIT 16 16 16
L.S. 10
BOND
LIST 6
FMAP 2
PLAN 20
N001  2  0.66052  0.07610  0.72162 11.00000  0.04421   6.52
C002  1  0.55329  0.44778  0.33989 11.00000  0.03759   6.35
C003  1  0.78140  0.26405  0.60913 11.00000  0.04513   6.15
C004  1  0.58942  0.35636  0.43802 11.00000  0.03996   6.09
C005  1  0.46129  0.17081  0.55541 11.00000  0.04656   6.08
O006  3  0.85419  0.50561  0.30867 11.00000  0.06062   5.97
C007  1  0.67688  0.51330  0.27940 11.00000  0.04452   5.87
C008  1  0.63332  0.16840  0.62937 11.00000  0.04469   5.73
C009  1  0.76254  0.35818  0.51511 11.00000  0.04693   5.73
C00A  1  0.44042  0.26575  0.46039 11.00000  0.05030   5.67
C00B  1  0.59001  0.59736  0.17623 11.00000  0.05176   5.35
HKLF 4
END
