TITL 2_expF_0_9_expS_1_0_2_a.res in P2(1)/n
REM Old TITL 1 in P2/n
REM SHELXT solution in P2(1)/n: R1 0.275, Rweak 0.101, Alpha 0.169
REM <I/s>   1.145 for  106 systematic absences,  Orientation as input
REM Formula found by SHELXT:  C10 O

CELL  0.71073   7.0400   9.2900  11.5500   90.000   97.870   90.000
ZERR   16.000   0.0014   0.0019   0.0023    0.000    0.030    0.000
LATT  1
SYMM 1/2-X, 1/2+Y, 1/2-Z
SFAC C N O
UNIT 16 16 16
L.S. 10
BOND
LIST 6
FMAP 2
PLAN 20
C001  1  0.55138  0.55113  0.33926 11.00000  0.01916   6.49
O002  3  0.85108  0.49405  0.30819 11.00000  0.03375   6.40
C003  1  0.67861  0.48703  0.27840 11.00000  0.02238   6.29
C004  1  0.66531  0.92400  0.72196 11.00000  0.01914   6.05
C005  1  0.58845  0.64315  0.43789 11.00000  0.02399   6.01
C006  1  0.78017  0.73612  0.61039 11.00000  0.02362   5.97
C007  1  0.63221  0.83032  0.62937 11.00000  0.02404   5.96
C008  1  0.76004  0.64248  0.51478 11.00000  0.02344   5.70
C009  1  0.43848  0.73618  0.45930 11.00000  0.02596   5.59
C00A  1  0.59146  0.39947  0.17686 11.00000  0.02458   5.56
C00B  1  0.45972  0.82896  0.55453 11.00000  0.02720   5.53
HKLF 4
END
