TITL 2_expF_0_7_expS_1_3_2_b.res in P2(1)
REM Old TITL 1 in P2/n
REM SHELXT solution in P2(1): R1 0.264, Rweak 0.199, Alpha 0.248
REM <I/s>   0.685 for    6 systematic absences,  Orientation as input
REM Formula found by SHELXT:  C8 N4 O10

CELL  0.71073   7.0400   9.2900  11.5500   90.000   97.870   90.000
ZERR   16.000   0.0014   0.0019   0.0023    0.000    0.030    0.000
LATT -1
SYMM -X, 1/2+Y, -Z
SFAC C N O
UNIT 16 16 16
L.S. 10
BOND
LIST 6
FMAP 2
PLAN 20
O001  3 -0.09639  0.23382  0.94372 11.00000  0.01493   9.91
N002  2  0.16925  0.38475  0.80866 11.00000  0.00010   9.65
N003  2  0.12671  0.57932  0.61775 11.00000  0.01986   8.43
O004  3  0.15071  0.14526  1.07966 11.00000  0.01082   8.41
O005  3  0.20303  0.29947  0.90754 11.00000  0.01329   8.39
O006  3  0.29776  0.57176  0.69561 11.00000  0.00699   8.17
O007  3  0.46829  0.51753  0.13393 11.00000  0.03358   8.02
C008  1  0.07225  0.22836  0.96342 11.00000  0.01304   7.93
O009  3  0.07682  0.66204  0.52361 11.00000  0.02434   7.36
N00A  2  0.81452  0.49216  0.29429 11.00000  0.01268   6.85
N00B  2  0.48835  0.60735  0.23398 11.00000  0.00859   6.64
O00C  3  0.58717  0.31138  0.03455 11.00000  0.01959   6.63
O00D  3  0.69138  0.69362  0.41279 11.00000  0.01878   6.48
C00E  1  0.56823  0.75605  0.47475 11.00000  0.00010   6.32
C00F  1 -0.01275  0.39622  0.73910 11.00000  0.00967   6.24
C00G  1  0.31111  0.46478  0.78760 11.00000  0.00920   5.62
C00H  1 -0.02994  0.48339  0.64254 11.00000  0.01094   5.55
C00I  1  0.76366  0.40578  0.19120 11.00000  0.05020   4.79
C00J  1  0.61267  0.41709  0.12035 11.00000  0.00677   4.54
O00K  3  0.39013  0.74806  0.43707 11.00000  0.01950   4.47
O00L  3  0.65001  0.85474  0.55871 11.00000  0.04828   4.28
C00M  1  0.63215  0.59355  0.31677 11.00000  0.04209   3.21
HKLF 4
END
