TITL 2_expF_0_7_expS_1_3_2_a.res in Pn
REM Old TITL 1 in P2/n
REM SHELXT solution in Pn: R1 0.261, Rweak 0.202, Alpha 0.117
REM <I/s>   1.244 for  100 systematic absences,  Orientation as input
REM Formula found by SHELXT:  C9 N6 O5

CELL  0.71073   7.0400   9.2900  11.5500   90.000   97.870   90.000
ZERR   16.000   0.0014   0.0019   0.0023    0.000    0.030    0.000
LATT -1
SYMM 1/2+X, -Y, 1/2+Z
SFAC C N O
UNIT 16 16 16
L.S. 10
BOND
LIST 6
FMAP 2
PLAN 20
C001  1  0.32161  0.23424  0.71992 11.00000  0.00010  10.81
O002  3  0.46775 -0.07439  0.55831 11.00000  0.00245   9.01
N003  2  0.59089  0.11267  0.44648 11.00000  0.00725   8.86
O004  3  0.58915  0.35618  0.17557 11.00000  0.03132   8.84
O005  3  0.45764  0.30587  0.65423 11.00000  0.02580   8.82
C006  1  0.37960  0.58659  0.37121 11.00000  0.00713   8.17
N007  2  0.24480  0.39452  0.49290 11.00000  0.01111   7.47
O008  3  0.15180  0.24331  0.68664 11.00000  0.00499   7.41
N009  2  0.77262  0.02157  0.61420 11.00000  0.01582   7.32
N00A  2  0.67457 -0.16883  0.73312 11.00000  0.01564   7.05
N00B  2  0.44420  0.02070  0.45898 11.00000  0.00949   6.56
N00C  2  0.84820  0.26497  0.30509 11.00000  0.02881   6.50
O00D  3  0.34394  0.68404  0.28499 11.00000  0.01858   6.11
C00E  1  0.21522  0.49162  0.39463 11.00000  0.01489   5.62
C00F  1  0.56212  0.19533  0.33511 11.00000  0.00825   5.29
C00G  1  0.56176  0.49630  0.53582 11.00000  0.02716   5.24
C00H  1  0.64061 -0.07660  0.64137 11.00000  0.02127   4.89
C00I  1  0.77375  0.10419  0.52718 11.00000  0.02245   4.82
C00J  1  0.40125  0.15207  0.82443 11.00000  0.01648   4.15
C00K  1  0.38935  0.39473  0.57607 11.00000  0.05221   4.01
HKLF 4
END
