TITL 2_expF_1_1_expS_1_5_2_b.res in Pn
REM Old TITL 1 in P2/n
REM SHELXT solution in Pn: R1 0.237, Rweak 0.037, Alpha 0.027
REM <I/s>   1.406 for  100 systematic absences,  Orientation as input
REM Formula found by SHELXT:  C13 N4 O5

CELL  0.71073   7.0400   9.2900  11.5500   90.000   97.870   90.000
ZERR   16.000   0.0014   0.0019   0.0023    0.000    0.030    0.000
LATT -1
SYMM 1/2+X, -Y, 1/2+Z
SFAC C N O
UNIT 16 16 16
L.S. 10
BOND
LIST 6
FMAP 2
PLAN 20
N001  2  0.64755 -0.08214  0.62423 11.00000  0.04743   8.26
N002  2  0.41825  0.39553  0.55864 11.00000  0.03114   8.00
O003  3  0.67181 -0.16779  0.71444 11.00000  0.03450   7.84
O004  3  0.55374  0.19699  0.33593 11.00000  0.04119   7.81
O005  3  0.44124  0.01694  0.45883 11.00000  0.03831   7.62
N006  2  0.22406  0.49106  0.38690 11.00000  0.03531   7.42
O007  3  0.15056  0.24383  0.68744 11.00000  0.02788   7.36
N008  2  0.47434 -0.07592  0.55557 11.00000  0.03315   7.16
C009  1  0.33505  0.23842  0.72221 11.00000  0.03385   6.41
C00A  1  0.77290  0.11112  0.51108 11.00000  0.03572   6.41
C00B  1  0.43210  0.14868  0.82279 11.00000  0.03430   6.11
C00C  1  0.69097  0.26391  0.28082 11.00000  0.02260   5.84
C00D  1  0.44769  0.30068  0.65554 11.00000  0.02577   5.20
O00E  3  0.84944  0.25549  0.30402 11.00000  0.05529   5.02
C00F  1  0.61201  0.34866  0.17721 11.00000  0.02806   4.93
C00G  1  0.25369  0.39758  0.48284 11.00000  0.02214   4.91
C00H  1  0.34256  0.67949  0.27058 11.00000  0.02326   4.90
C00I  1  0.78722  0.01844  0.60375 11.00000  0.03240   4.85
C00J  1  0.55361  0.58413  0.44505 11.00000  0.04632   4.62
C00K  1  0.55810  0.49112  0.54058 11.00000  0.04127   3.89
C00L  1  0.59232  0.11031  0.43546 11.00000  0.03786   3.85
C00M  1  0.38142  0.58156  0.36424 11.00000  0.02142   3.72
HKLF 4
END
