TITL 2_expF_0_8_expS_1_2_2_b.res in P2(1)
REM Old TITL 1 in P2/n
REM SHELXT solution in P2(1): R1 0.244, Rweak 0.126, Alpha 0.213
REM <I/s>   1.034 for    6 systematic absences,  Orientation as input
REM Formula found by SHELXT:  C13 N6 O3

CELL  0.71073   7.0400   9.2900  11.5500   90.000   97.870   90.000
ZERR   16.000   0.0014   0.0019   0.0023    0.000    0.030    0.000
LATT -1
SYMM -X, 1/2+Y, -Z
SFAC C N O
UNIT 16 16 16
L.S. 10
BOND
LIST 6
FMAP 2
PLAN 20
O001  3  0.15138  0.14899  1.07161 11.00000  0.02970   7.34
N002  2  0.20712  0.29861  0.91126 11.00000  0.02795   7.32
N003  2  0.56547  0.77037  0.47250 11.00000  0.02945   7.31
N004  2  0.28820  0.57730  0.70410 11.00000  0.03962   7.19
N005  2  0.39289  0.75011  0.43767 11.00000  0.00960   7.13
N006  2  0.46892  0.51218  0.13504 11.00000  0.03102   6.90
N007  2  0.49232  0.60913  0.23469 11.00000  0.02767   6.67
O008  3 -0.09421  0.23506  0.94378 11.00000  0.03315   6.49
C009  1  0.61861  0.41651  0.12071 11.00000  0.02517   6.47
C00A  1  0.15558  0.39217  0.80454 11.00000  0.02641   6.38
C00B  1  0.81423  0.52483  0.28942 11.00000  0.01616   6.29
O00C  3  0.58669  0.33517  0.02188 11.00000  0.01188   6.15
C00D  1  0.07794  0.69037  0.53743 11.00000  0.02147   5.98
C00E  1  0.69245  0.69932  0.40950 11.00000  0.00738   5.75
C00F  1  0.66624  0.60780  0.31581 11.00000  0.01161   5.47
C00G  1 -0.02785  0.48187  0.64265 11.00000  0.01730   5.26
C00H  1  0.30625  0.50150  0.79128 11.00000  0.02070   5.10
C00I  1  0.11734  0.57538  0.61853 11.00000  0.01740   4.94
C00J  1  0.79520  0.42278  0.18819 11.00000  0.00929   4.83
C00K  1  0.07476  0.24137  0.96964 11.00000  0.01616   4.50
C00L  1 -0.01349  0.39735  0.73590 11.00000  0.01780   4.11
C00M  1  0.66862  0.85101  0.57504 11.00000  0.03135   3.95
HKLF 4
END
