TITL 2_expF_1_1_expS_1_5_2_a.res in P2(1)/n
REM Old TITL 1 in P2/n
REM SHELXT solution in P2(1)/n: R1 0.270, Rweak 0.041, Alpha 0.078
REM <I/s>   1.387 for  106 systematic absences,  Orientation as input
REM Formula found by SHELXT:  C9 N O

CELL  0.71073   7.0400   9.2900  11.5500   90.000   97.870   90.000
ZERR   16.000   0.0014   0.0019   0.0023    0.000    0.030    0.000
LATT  1
SYMM 1/2-X, 1/2+Y, 1/2-Z
SFAC C N O
UNIT 16 16 16
L.S. 10
BOND
LIST 6
FMAP 2
PLAN 20
N001  2  0.44741  0.44846  0.66034 11.00000  0.03415   6.54
C002  1  0.33532  0.07652  0.27756 11.00000  0.02205   6.33
O003  3  0.15021  0.50688  0.69196 11.00000  0.04101   6.25
C004  1  0.32134  0.51247  0.72132 11.00000  0.02877   6.11
C005  1  0.41157  0.35696  0.56191 11.00000  0.02985   6.04
C006  1  0.36777  0.16954  0.37019 11.00000  0.03127   5.95
C007  1  0.21980  0.26401  0.39050 11.00000  0.03078   5.94
C008  1  0.53835  0.17115  0.44451 11.00000  0.03208   5.73
C009  1  0.23841  0.35678  0.48548 11.00000  0.03191   5.70
C00A  1  0.56029  0.26486  0.54042 11.00000  0.03276   5.52
C00B  1  0.41053  0.60121  0.82355 11.00000  0.03250   5.35
HKLF 4
END
