TITL 2_expF_1_0_expS_1_0_2_c.res in P2(1)
REM Old TITL 1 in P2/n
REM SHELXT solution in P2(1): R1 0.235, Rweak 0.057, Alpha 0.131
REM <I/s>   2.411 for    6 systematic absences,  Orientation as input
REM Formula found by SHELXT:  C14 N5 O3

CELL  0.71073   7.0400   9.2900  11.5500   90.000   97.870   90.000
ZERR   16.000   0.0014   0.0019   0.0023    0.000    0.030    0.000
LATT -1
SYMM -X, 1/2+Y, -Z
SFAC C N O
UNIT 16 16 16
L.S. 10
BOND
LIST 6
FMAP 2
PLAN 20
O001  3  0.70296  0.30681  0.41195 11.00000  0.04905   8.45
O002  3  0.40113  0.25680  0.44245 11.00000  0.03059   7.78
O003  3  0.08345  0.32745  0.52998 11.00000  0.05124   7.38
N004  2 -0.02893  0.51306  0.63791 11.00000  0.03813   7.25
N005  2  0.80485  0.48277  0.29576 11.00000  0.03434   6.90
N006  2  0.06888  0.76172  0.97191 11.00000  0.04072   6.88
N007  2  0.77692  0.57760  0.19093 11.00000  0.05007   6.76
N008  2  0.16437  0.60679  0.80853 11.00000  0.02724   6.51
C009  1  0.14825  0.85145  1.07252 11.00000  0.02799   6.42
C00A  1  0.48956  0.40483  0.23588 11.00000  0.02990   6.40
C00B  1  0.11861  0.43014  0.62027 11.00000  0.02702   6.25
C00C  1  0.65849  0.39072  0.31692 11.00000  0.03675   6.09
C00D  1  0.58728  0.67614  0.02555 11.00000  0.01584   5.83
C00E  1  0.61500  0.59153  0.12067 11.00000  0.03116   5.75
C00F  1  0.57346  0.23603  0.46988 11.00000  0.02644   5.71
C00G  1  0.29942  0.42195  0.69838 11.00000  0.02488   5.34
C00H  1 -0.00764  0.61636  0.73442 11.00000  0.02914   5.30
C00I  1  0.46648  0.48600  0.14148 11.00000  0.03139   5.20
C00J  1 -0.10348  0.77414  0.94004 11.00000  0.02663   4.99
C00K  1  0.19338  0.70549  0.90859 11.00000  0.01954   4.79
C00L  1  0.66586  0.14855  0.57417 11.00000  0.03148   4.64
C00M  1  0.31728  0.50980  0.78599 11.00000  0.03466   4.49
HKLF 4
END
