TITL 2_expF_0_8_expS_1_5_2_b.res in P2(1)
REM Old TITL 1 in P2/n
REM SHELXT solution in P2(1): R1 0.265, Rweak 0.145, Alpha 0.186
REM <I/s>   0.659 for    6 systematic absences,  Orientation as input
REM Formula found by SHELXT:  C12 N3 O5

CELL  0.71073   7.0400   9.2900  11.5500   90.000   97.870   90.000
ZERR   16.000   0.0014   0.0019   0.0023    0.000    0.030    0.000
LATT -1
SYMM -X, 1/2+Y, -Z
SFAC C N O
UNIT 16 16 16
L.S. 10
BOND
LIST 6
FMAP 2
PLAN 20
O001  3  0.08935  0.32911  0.52492 11.00000  0.00232   8.95
O002  3  0.30461  0.41954  0.69798 11.00000  0.03890   7.71
N003  2 -0.01577  0.60613  0.73517 11.00000  0.01545   7.48
N004  2  0.69308  0.30574  0.41015 11.00000  0.00769   7.31
O005  3 -0.10109  0.76288  0.94597 11.00000  0.00734   6.93
N006  2  0.65272  0.15065  0.56993 11.00000  0.01554   6.67
C007  1  0.57118  0.24488  0.47038 11.00000  0.00682   6.60
C008  1  0.30765  0.52105  0.78895 11.00000  0.00668   6.33
C009  1  0.62053  0.58311  0.11567 11.00000  0.01913   6.03
O00A  3  0.46814  0.47609  0.14287 11.00000  0.03509   5.95
C00B  1  0.11742  0.42232  0.62113 11.00000  0.00648   5.89
C00C  1  0.66567  0.39597  0.31554 11.00000  0.02406   5.83
C00D  1  0.16031  0.60902  0.80644 11.00000  0.01122   5.83
O00E  3  0.39673  0.25157  0.43774 11.00000  0.03256   5.78
C00F  1 -0.02915  0.51313  0.63435 11.00000  0.00923   5.48
C00G  1  0.19572  0.70243  0.90531 11.00000  0.01015   5.37
C00H  1  0.08076  0.77206  0.97170 11.00000  0.01122   5.36
C00I  1  0.82069  0.50110  0.29162 11.00000  0.01374   4.56
C00J  1  0.16434  0.84935  1.07425 11.00000  0.00881   4.23
C00K  1  0.78100  0.58106  0.18705 11.00000  0.00010   3.03
HKLF 4
END
