TITL 2_expF_0_9_expS_1_4_2_b.res in Pn
REM Old TITL 1 in P2/n
REM SHELXT solution in Pn: R1 0.233, Rweak 0.084, Alpha 0.067
REM <I/s>   1.304 for  100 systematic absences,  Orientation as input
REM Formula found by SHELXT:  C13 N5 O4

CELL  0.71073   7.0400   9.2900  11.5500   90.000   97.870   90.000
ZERR   16.000   0.0014   0.0019   0.0023    0.000    0.030    0.000
LATT -1
SYMM 1/2+X, -Y, 1/2+Z
SFAC C N O
UNIT 16 16 16
L.S. 10
BOND
LIST 6
FMAP 2
PLAN 20
N001  2  0.37788  0.42558  0.36631 11.00000  0.02608   7.53
O002  3  0.66623  1.17025  0.71901 11.00000  0.03031   7.43
N003  2  0.44148  0.99148  0.45166 11.00000  0.01319   6.97
N004  2  0.54643  0.79725  0.33009 11.00000  0.02198   6.88
N005  2  0.42672  0.84494  0.82411 11.00000  0.03361   6.84
O006  3  0.14765  0.74923  0.68669 11.00000  0.03458   6.78
C007  1  0.68228  0.73951  0.26265 11.00000  0.02435   6.64
N008  2  0.47531  1.08212  0.54511 11.00000  0.02814   6.57
C009  1  0.59790  0.89306  0.42824 11.00000  0.01622   5.91
C00A  1  0.78328  0.98783  0.60390 11.00000  0.01684   5.80
C00B  1  0.23852  0.59626  0.48093 11.00000  0.01864   5.61
C00C  1  0.42578  0.60545  0.55113 11.00000  0.02771   5.48
C00D  1  0.22279  0.52044  0.38794 11.00000  0.03016   5.26
C00E  1  0.44223  0.69555  0.64976 11.00000  0.01730   5.20
C00F  1  0.75594  0.88493  0.50940 11.00000  0.01895   5.14
O00G  3  0.85235  0.73890  0.30376 11.00000  0.03241   5.12
C00H  1  0.32256  0.76356  0.70346 11.00000  0.01519   4.37
C00I  1  0.55824  0.42830  0.43344 11.00000  0.02603   3.69
O00J  3  0.33792  0.31887  0.27671 11.00000  0.03466   3.61
C00K  1  0.55807  0.52139  0.53315 11.00000  0.05324   3.43
C00L  1  0.60605  0.64616  0.17589 11.00000  0.02044   3.21
C00M  1  0.64225  1.08809  0.62635 11.00000  0.02809   3.02
HKLF 4
END
