TITL 2_expF_0_7_expS_1_0_2_b.res in P2(1)
REM Old TITL 1 in P2/n
REM SHELXT solution in P2(1): R1 0.260, Rweak 0.205, Alpha 0.267
REM <I/s>   1.076 for    6 systematic absences,  Orientation as input
REM Formula found by SHELXT:  C6 N4 O11

CELL  0.71073   7.0400   9.2900  11.5500   90.000   97.870   90.000
ZERR   16.000   0.0014   0.0019   0.0023    0.000    0.030    0.000
LATT -1
SYMM -X, 1/2+Y, -Z
SFAC C N O
UNIT 16 16 16
L.S. 10
BOND
LIST 6
FMAP 2
PLAN 20
O001  3  0.12391  0.56573  0.11775 11.00000  0.01841   9.32
O002  3  0.19435  0.29736  0.40911 11.00000  0.01910   8.84
O003  3  0.30687  0.48191  0.29001 11.00000  0.00384   8.63
O004  3  0.79630  0.41905  0.69829 11.00000  0.00767   8.46
O005  3  0.15639  0.14730  0.57733 11.00000  0.00893   8.05
O006  3 -0.00256  0.38534  0.23846 11.00000  0.00273   7.65
N007  2  0.56591  0.75493  0.97248 11.00000  0.00401   7.49
N008  2  0.47021  0.50728  0.63372 11.00000  0.00998   7.29
O009  3 -0.09863  0.24308  0.44730 11.00000  0.00831   7.21
O00A  3  0.39188  0.75710  0.93392 11.00000  0.01562   7.04
N00B  2  0.10105  0.66988  0.02660 11.00000  0.00010   7.02
N00C  2  0.66765  0.60916  0.80725 11.00000  0.00010   6.51
C00D  1  0.14585  0.39480  0.31908 11.00000  0.01184   6.19
C00E  1  0.56570  0.31970  0.52486 11.00000  0.00010   6.15
C00F  1  0.07238  0.22635  0.46899 11.00000  0.00656   5.94
C00G  1 -0.03622  0.48065  0.14166 11.00000  0.00289   5.32
O00H  3  0.69778  0.69619  0.91317 11.00000  0.01130   5.26
C00I  1  0.47547  0.59705  0.73061 11.00000  0.02495   4.33
O00J  3  0.65008  0.85270  1.06379 11.00000  0.02641   3.86
O00K  3  0.31029  0.48845  0.52663 11.00000  0.24017   3.30
C00L  1  0.61442  0.40617  0.62391 11.00000  0.00010   3.30
HKLF 4
END
