TITL 2_expF_0_9_expS_1_5_2_c.res in P2(1)
REM Old TITL 1 in P2/n
REM SHELXT solution in P2(1): R1 0.245, Rweak 0.092, Alpha 0.175
REM <I/s>   0.857 for    6 systematic absences,  Orientation as input
REM Formula found by SHELXT:  C16 N3 O3

CELL  0.71073   7.0400   9.2900  11.5500   90.000   97.870   90.000
ZERR   16.000   0.0014   0.0019   0.0023    0.000    0.030    0.000
LATT -1
SYMM -X, 1/2+Y, -Z
SFAC C N O
UNIT 16 16 16
L.S. 10
BOND
LIST 6
FMAP 2
PLAN 20
N001  2 -0.02708  0.48728  0.64349 11.00000  0.02848   7.22
C002  1  0.57309  0.76120  0.47574 11.00000  0.03052   7.07
O003  3  0.39358  0.74503  0.44034 11.00000  0.02656   7.01
N004  2  0.58590  0.32985  0.02302 11.00000  0.01472   6.92
N005  2  0.15054  0.14774  1.06975 11.00000  0.02929   6.91
C006  1  0.12491  0.57202  0.61804 11.00000  0.01541   6.41
C007  1  0.69116  0.70007  0.40886 11.00000  0.01964   6.34
C008  1  0.80047  0.41183  0.19818 11.00000  0.04496   6.31
C009  1  0.20447  0.30118  0.91072 11.00000  0.01575   6.19
C00A  1  0.65072  0.60030  0.31283 11.00000  0.02658   6.13
C00B  1 -0.01177  0.38577  0.73324 11.00000  0.01491   5.96
C00C  1  0.17460  0.38773  0.81155 11.00000  0.02199   5.75
C00D  1  0.31358  0.47853  0.79350 11.00000  0.01863   5.67
O00E  3  0.08125  0.68183  0.53594 11.00000  0.04518   5.32
O00F  3 -0.09951  0.22970  0.94234 11.00000  0.03643   5.16
C00G  1  0.46330  0.51743  0.13559 11.00000  0.02914   5.09
C00H  1  0.49165  0.59792  0.24073 11.00000  0.03153   5.07
C00I  1  0.28618  0.57087  0.69413 11.00000  0.01451   5.05
C00J  1  0.80764  0.50072  0.28521 11.00000  0.03118   5.02
C00K  1  0.61229  0.41229  0.12401 11.00000  0.03308   4.88
C00L  1  0.06958  0.23279  0.96776 11.00000  0.01883   4.72
C00M  1  0.66739  0.85226  0.57811 11.00000  0.03219   3.77
HKLF 4
END
