TITL 2_expF_1_4_expS_1_5_2_a.res in P2(1)/n
REM Old TITL 1 in P2/n
REM SHELXT solution in P2(1)/n: R1 0.320, Rweak 0.018, Alpha 0.044
REM <I/s>   1.569 for  106 systematic absences,  Orientation as input
REM Formula found by SHELXT:  C9 N O

CELL  0.71073   7.0400   9.2900  11.5500   90.000   97.870   90.000
ZERR   16.000   0.0014   0.0019   0.0023    0.000    0.030    0.000
LATT  1
SYMM 1/2-X, 1/2+Y, 1/2-Z
SFAC C N O
UNIT 16 16 16
L.S. 10
BOND
LIST 6
FMAP 2
PLAN 20
N001  2  0.66133  0.92374  0.72203 11.00000  0.03991   6.53
C002  1  0.55364  0.55162  0.34050 11.00000  0.03496   6.34
C003  1  0.78095  0.73544  0.60871 11.00000  0.04217   6.16
C004  1  0.46122  0.82836  0.55547 11.00000  0.04341   6.07
C005  1  0.58909  0.64307  0.43782 11.00000  0.03668   6.05
O006  3  0.85369  0.49413  0.30882 11.00000  0.05347   6.01
C007  1  0.67751  0.48691  0.27965 11.00000  0.04161   5.86
C008  1  0.76311  0.64258  0.51493 11.00000  0.04268   5.77
C009  1  0.63276  0.83142  0.62969 11.00000  0.04159   5.75
C00A  1  0.43975  0.73368  0.46075 11.00000  0.04571   5.68
C00B  1  0.58883  0.40166  0.17640 11.00000  0.04825   5.32
HKLF 4
END
