TITL 2_expF_1_2_expS_1_2_2_b.res in Pn
REM Old TITL 1 in P2/n
REM SHELXT solution in Pn: R1 0.244, Rweak 0.026, Alpha 0.025
REM <I/s>   1.318 for  100 systematic absences,  Orientation as input
REM Formula found by SHELXT:  C12 N5 O5

CELL  0.71073   7.0400   9.2900  11.5500   90.000   97.870   90.000
ZERR   16.000   0.0014   0.0019   0.0023    0.000    0.030    0.000
LATT -1
SYMM 1/2+X, -Y, 1/2+Z
SFAC C N O
UNIT 16 16 16
L.S. 10
BOND
LIST 6
FMAP 2
PLAN 20
O001  3  0.34607  0.23929  0.31145 11.00000  0.03871   8.63
O002  3  0.82939 -0.16945  0.27642 11.00000  0.03173   8.12
O003  3  1.03672 -0.08417  0.44851 11.00000  0.05122   7.88
O004  3  0.72265  0.01206  0.39218 11.00000  0.04106   7.81
N005  2  0.91242  0.10537  0.56164 11.00000  0.03546   7.25
N006  2  0.12643  0.58194  0.63039 11.00000  0.04003   6.91
N007  2  0.94332  0.20131  0.66143 11.00000  0.03250   6.90
N008  2  0.08342  0.14703  0.17726 11.00000  0.04902   6.83
N009  2  0.25818  0.39243  0.51109 11.00000  0.04308   6.75
C00A  1  0.81788  0.25418  0.72746 11.00000  0.03079   6.43
C00B  1  0.04853  0.30471  0.34254 11.00000  0.03412   6.10
C00C  1 -0.06034  0.48684  0.46122 11.00000  0.03721   6.05
C00D  1  0.17475  0.22809  0.28580 11.00000  0.03071   5.71
C00E  1  1.06034  0.01479  0.54198 11.00000  0.03480   5.51
C00F  1  0.08705  0.39152  0.43825 11.00000  0.03821   5.29
C00G  1  0.14978  0.67840  0.71781 11.00000  0.03990   5.26
C00H  1  0.74125  0.10512  0.48352 11.00000  0.03277   5.20
C00I  1  0.86201 -0.08147  0.36880 11.00000  0.03668   4.90
C00J  1  0.29233  0.48456  0.61248 11.00000  0.05463   4.80
C00K  1  0.90219  0.34918  0.82274 11.00000  0.03808   4.39
C00L  1 -0.03817  0.57390  0.56339 11.00000  0.04830   4.28
O00M  3  0.64267  0.25172  0.69531 11.00000  0.05950   3.71
HKLF 4
END
