TITL 2_expF_0_7_expS_0_8_2_b.res in P2(1)
REM Old TITL 1 in P2/n
REM SHELXT solution in P2(1): R1 0.258, Rweak 0.203, Alpha 0.237
REM <I/s>   1.460 for    6 systematic absences,  Orientation as input
REM Formula found by SHELXT:  C15 N4 O3

CELL  0.71073   7.0400   9.2900  11.5500   90.000   97.870   90.000
ZERR   16.000   0.0014   0.0019   0.0023    0.000    0.030    0.000
LATT -1
SYMM -X, 1/2+Y, -Z
SFAC C N O
UNIT 16 16 16
L.S. 10
BOND
LIST 6
FMAP 2
PLAN 20
O001  3  0.69515  0.69287  0.41313 11.00000  0.01698   8.96
N002  2  0.11969  0.58096  0.61811 11.00000  0.01864   7.54
N003  2  0.30881  0.48087  0.78952 11.00000  0.01640   7.09
O004  3 -0.10020  0.23276  0.94120 11.00000  0.01756   7.01
C005  1  0.06778  0.23537  0.96756 11.00000  0.01326   6.94
N006  2  0.17334  0.38760  0.81031 11.00000  0.00719   6.92
N007  2  0.09018  0.69157  0.53533 11.00000  0.03781   6.79
C008  1 -0.03054  0.47689  0.63418 11.00000  0.01549   6.02
C009  1 -0.01112  0.40292  0.73886 11.00000  0.01671   5.73
C00A  1  0.15925  0.14877  1.07639 11.00000  0.00994   5.60
C00B  1  0.78096  0.41516  0.18737 11.00000  0.06548   5.54
C00C  1  0.46949  0.50648  0.14539 11.00000  0.01895   5.52
C00D  1  0.40133  0.74227  0.44088 11.00000  0.01416   5.48
C00E  1  0.64874  0.85123  0.56565 11.00000  0.02474   5.15
O00F  3  0.58078  0.33121  0.02389 11.00000  0.01365   5.15
C00G  1  0.29758  0.57411  0.69815 11.00000  0.00010   5.00
C00H  1  0.57035  0.75956  0.47351 11.00000  0.02099   4.96
C00I  1  0.63404  0.60335  0.31378 11.00000  0.03429   4.89
C00J  1  0.49297  0.61214  0.23323 11.00000  0.01122   4.83
C00K  1  0.20362  0.29197  0.90615 11.00000  0.02248   3.58
C00L  1  0.61568  0.42001  0.12378 11.00000  0.02193   3.46
C00M  1  0.81490  0.50358  0.29555 11.00000  0.03103   3.35
HKLF 4
END
