TITL 2_expF_1_3_expS_1_1_2_a.res in P2(1)/n
REM Old TITL 1 in P2/n
REM SHELXT solution in P2(1)/n: R1 0.291, Rweak 0.020, Alpha 0.069
REM <I/s>   1.509 for  106 systematic absences,  Orientation as input
REM Formula found by SHELXT:  C10 O

CELL  0.71073   7.0400   9.2900  11.5500   90.000   97.870   90.000
ZERR   16.000   0.0014   0.0019   0.0023    0.000    0.030    0.000
LATT  1
SYMM 1/2-X, 1/2+Y, 1/2-Z
SFAC C N O
UNIT 16 16 16
L.S. 10
BOND
LIST 6
FMAP 2
PLAN 20
C001  1  0.33798  0.07778  0.27835 11.00000  0.03320   6.42
C002  1  0.44665  0.44720  0.65984 11.00000  0.03763   6.21
C003  1  0.21956  0.26197  0.39049 11.00000  0.04557   6.19
C004  1  0.53942  0.16929  0.44382 11.00000  0.04797   6.01
C005  1  0.32349  0.51317  0.72089 11.00000  0.04370   6.01
C006  1  0.24104  0.35713  0.48554 11.00000  0.04250   5.93
O007  3  0.14674  0.50521  0.69241 11.00000  0.06080   5.87
C008  1  0.56036  0.26531  0.53949 11.00000  0.04693   5.84
C009  1  0.36644  0.16820  0.37047 11.00000  0.04144   5.81
C00A  1  0.41142  0.35626  0.56141 11.00000  0.04009   5.76
C00B  1  0.41016  0.59905  0.82304 11.00000  0.04994   5.20
HKLF 4
END
