TITL 2_expF_1_1_expS_0_5_2_b.res in Pn
REM Old TITL 1 in P2/n
REM SHELXT solution in Pn: R1 0.243, Rweak 0.027, Alpha 0.017
REM <I/s>   1.060 for  100 systematic absences,  Orientation as input
REM Formula found by SHELXT:  C16 N3 O3

CELL  0.71073   7.0400   9.2900  11.5500   90.000   97.870   90.000
ZERR   16.000   0.0014   0.0019   0.0023    0.000    0.030    0.000
LATT -1
SYMM 1/2+X, -Y, 1/2+Z
SFAC C N O
UNIT 16 16 16
L.S. 10
BOND
LIST 6
FMAP 2
PLAN 20
O001  3  0.66008  0.67635  0.72083 11.00000  0.04499   8.74
O002  3  0.14683  0.25917  0.69197 11.00000  0.02736   8.22
N003  2  0.62972  0.58191  0.63600 11.00000  0.04688   7.57
N004  2  0.76973  0.48701  0.60912 11.00000  0.03735   7.08
N005  2  0.76133  0.39493  0.51874 11.00000  0.04908   6.53
C006  1  0.46068  0.58361  0.55373 11.00000  0.03906   6.30
C007  1  0.40628  0.10348  0.55804 11.00000  0.03717   6.29
C008  1  0.54645  0.30068  0.33947 11.00000  0.03195   6.20
C009  1  0.44164  0.19729  0.65890 11.00000  0.03326   6.17
C00A  1  0.41010  0.35376  0.82284 11.00000  0.03968   6.11
C00B  1  0.67469  0.24801  0.27684 11.00000  0.03972   6.10
C00C  1  0.54638  0.00987  0.53936 11.00000  0.04024   6.03
C00D  1  0.31852  0.27148  0.71755 11.00000  0.03048   5.43
C00E  1  0.53399 -0.07569  0.44211 11.00000  0.04431   5.43
C00F  1  0.58149  0.39118  0.43545 11.00000  0.03118   5.32
C00G  1  0.24530  0.10949  0.48902 11.00000  0.03678   5.11
C00H  1  0.42710  0.47986  0.45633 11.00000  0.03746   5.08
C00I  1  0.20373  0.01224  0.38686 11.00000  0.05124   4.88
C00J  1  0.59126  0.15436  0.17716 11.00000  0.04270   4.26
C00K  1  0.33799 -0.16766  0.27800 11.00000  0.03746   3.85
C00L  1  0.36220 -0.07964  0.37395 11.00000  0.03540   3.81
O00M  3  0.85317  0.25995  0.31005 11.00000  0.13218   3.62
HKLF 4
END
