TITL 2_expF_1_5_expS_0_8_2_a.res in P2(1)/n
REM Old TITL 1 in P2/n
REM SHELXT solution in P2(1)/n: R1 0.328, Rweak 0.009, Alpha 0.031
REM <I/s>   1.557 for  106 systematic absences,  Orientation as input
REM Formula found by SHELXT:  C9 N O

CELL  0.71073   7.0400   9.2900  11.5500   90.000   97.870   90.000
ZERR   16.000   0.0014   0.0019   0.0023    0.000    0.030    0.000
LATT  1
SYMM 1/2-X, 1/2+Y, 1/2-Z
SFAC C N O
UNIT 16 16 16
L.S. 10
BOND
LIST 6
FMAP 2
PLAN 20
N001  2  0.66065  0.07714  0.72134 11.00000  0.05022   6.64
C002  1  0.55033  0.44625  0.34036 11.00000  0.04482   6.35
C003  1  0.78396  0.26248  0.60943 11.00000  0.05000   6.12
C004  1  0.58977  0.35694  0.43705 11.00000  0.04519   6.04
C005  1  0.46431  0.16817  0.55686 11.00000  0.05617   5.97
C006  1  0.67985  0.51181  0.27903 11.00000  0.05262   5.95
O007  3  0.84999  0.50392  0.30896 11.00000  0.07201   5.89
C008  1  0.75852  0.35613  0.51627 11.00000  0.05265   5.79
C009  1  0.62968  0.16849  0.63104 11.00000  0.04957   5.78
C00A  1  0.44008  0.26284  0.46001 11.00000  0.05255   5.67
C00B  1  0.59002  0.59813  0.17720 11.00000  0.05830   5.24
HKLF 4
END
