TITL 2_expF_0_5_expS_1_5_2_a.res in Pn
REM Old TITL 1 in P2/n
REM SHELXT solution in Pn: R1 0.307, Rweak 0.422, Alpha 0.195
REM <I/s>   1.447 for   97 systematic absences,  Orientation as input
REM Formula found by SHELXT:  C11 N2 O6

CELL  0.71073   7.0400   9.2900  11.5500   90.000   97.870   90.000
ZERR   16.000   0.0014   0.0019   0.0023    0.000    0.030    0.000
LATT -1
SYMM 1/2+X, -Y, 1/2+Z
SFAC C N O
UNIT 16 16 16
L.S. 10
BOND
LIST 6
FMAP 2
PLAN 20
O001  3  0.22726  0.01205  0.34165 11.00000  0.00010  10.10
C002  1  0.69186  0.23247  0.23085 11.00000  0.00010   9.41
O003  3  0.45342  0.19963  0.60728 11.00000  0.00010   8.99
O004  3  0.42387  0.35032  0.77156 11.00000  0.01486   8.62
O005  3  0.64191  0.58474  0.58340 11.00000  0.00956   8.19
O006  3  0.86016  0.25197  0.26921 11.00000  0.01776   7.93
N007  2  0.41550  0.10648  0.51322 11.00000  0.00010   7.75
C008  1  0.24625  0.11007  0.43683 11.00000  0.01673   7.42
N009  2  0.55724 -0.08241  0.39688 11.00000  0.00055   7.19
C00A  1  0.56171  0.01456  0.49878 11.00000  0.01476   6.23
C00B  1  0.33336 -0.17001  0.22844 11.00000  0.00079   6.18
C00C  1  0.16242  0.26232  0.63546 11.00000  0.00010   5.14
C00D  1  0.66099  0.69553  0.66433 11.00000  0.06966   4.92
C00E  1  0.57078  0.39356  0.40041 11.00000  0.03482   4.59
C00F  1  0.56155  0.32212  0.27927 11.00000  0.06740   4.38
C00G  1  0.45362  0.49928  0.43916 11.00000  0.03413   3.83
C00H  1  0.45727  0.56367  0.50866 11.00000  0.00478   3.47
C00I  1  0.13984  0.47463  0.60431 11.00000  0.01935   3.14
O00J  3  0.75703  0.40447  0.45500 11.00000  0.01697   3.14
HKLF 4
END
