TITL 2_expF_1_1_expS_1_2_2_a.res in P2(1)/n
REM Old TITL 1 in P2/n
REM SHELXT solution in P2(1)/n: R1 0.268, Rweak 0.042, Alpha 0.090
REM <I/s>   1.285 for  106 systematic absences,  Orientation as input
REM Formula found by SHELXT:  C10 O

CELL  0.71073   7.0400   9.2900  11.5500   90.000   97.870   90.000
ZERR   16.000   0.0014   0.0019   0.0023    0.000    0.030    0.000
LATT  1
SYMM 1/2-X, 1/2+Y, 1/2-Z
SFAC C N O
UNIT 16 16 16
L.S. 10
BOND
LIST 6
FMAP 2
PLAN 20
C001  1  0.55157  0.44811  0.33999 11.00000  0.02766   6.45
C002  1  0.66351  0.07678  0.72179 11.00000  0.02453   6.36
C003  1  0.67854  0.51303  0.27820 11.00000  0.03054   6.17
O004  3  0.85116  0.50572  0.30811 11.00000  0.04598   6.10
C005  1  0.78074  0.26301  0.60962 11.00000  0.03291   6.01
C006  1  0.58753  0.35710  0.43820 11.00000  0.03103   5.98
C007  1  0.63279  0.16919  0.62999 11.00000  0.03218   5.87
C008  1  0.46224  0.17062  0.55559 11.00000  0.03458   5.77
C009  1  0.76017  0.35763  0.51454 11.00000  0.03279   5.75
C00A  1  0.43924  0.26493  0.45934 11.00000  0.03480   5.45
C00B  1  0.59033  0.60028  0.17653 11.00000  0.03509   5.32
HKLF 4
END
