TITL 2_expF_1_5_expS_1_4_2_b.res in Pn
REM Old TITL 1 in P2/n
REM SHELXT solution in Pn: R1 0.330, Rweak 0.014, Alpha 0.008
REM <I/s>   1.300 for  100 systematic absences,  Orientation as input
REM Formula found by SHELXT:  C18 N O3

CELL  0.71073   7.0400   9.2900  11.5500   90.000   97.870   90.000
ZERR   16.000   0.0014   0.0019   0.0023    0.000    0.030    0.000
LATT -1
SYMM 1/2+X, -Y, 1/2+Z
SFAC C N O
UNIT 16 16 16
L.S. 10
BOND
LIST 6
FMAP 2
PLAN 20
O001  3  0.82605  1.17036  0.27794 11.00000  0.04594   7.86
O002  3  0.34502  0.75853  0.30956 11.00000  0.05857   7.30
N003  2  0.71631  0.98556  0.39410 11.00000  0.04615   7.28
C004  1  0.90688  0.89297  0.56050 11.00000  0.04178   6.48
C005  1 -0.05946  0.51388  0.46186 11.00000  0.04754   6.38
C006  1  0.94337  0.80195  0.65680 11.00000  0.04504   6.38
C007  1  0.73848  0.89536  0.48809 11.00000  0.04815   6.33
C008  1  1.03574  1.07876  0.44066 11.00000  0.05003   6.20
C009  1  0.04866  0.69834  0.33783 11.00000  0.03939   6.19
C00A  1 -0.03640  0.41908  0.55233 11.00000  0.05404   6.18
C00B  1  0.81586  0.74483  0.72032 11.00000  0.04521   6.00
C00C  1  0.86585  1.07869  0.36999 11.00000  0.04596   5.84
C00D  1  0.08466  0.60717  0.43583 11.00000  0.04632   5.80
C00E  1  0.12710  0.41437  0.63091 11.00000  0.05166   5.75
C00F  1  0.08963  0.85065  0.17659 11.00000  0.05232   5.74
C00G  1  0.17385  0.76774  0.28042 11.00000  0.04998   5.54
C00H  1  0.14799  0.32227  0.72201 11.00000  0.04806   5.48
C00I  1  0.25745  0.60788  0.51944 11.00000  0.04534   5.28
C00J  1  0.28534  0.51263  0.61317 11.00000  0.06132   5.24
C00K  1  1.05946  0.98762  0.54072 11.00000  0.05116   5.12
C00L  1  0.90730  0.65331  0.82341 11.00000  0.05824   4.87
O00M  3  0.63968  0.74720  0.69223 11.00000  0.06104   4.39
HKLF 4
END
