TITL 2_expF_1_4_expS_0_7_2_a.res in P2(1)/n
REM Old TITL 1 in P2/n
REM SHELXT solution in P2(1)/n: R1 0.302, Rweak 0.019, Alpha 0.034
REM <I/s>   1.563 for  106 systematic absences,  Orientation as input
REM Formula found by SHELXT:  C9 N O

CELL  0.71073   7.0400   9.2900  11.5500   90.000   97.870   90.000
ZERR   16.000   0.0014   0.0019   0.0023    0.000    0.030    0.000
LATT  1
SYMM 1/2-X, 1/2+Y, 1/2-Z
SFAC C N O
UNIT 16 16 16
L.S. 10
BOND
LIST 6
FMAP 2
PLAN 20
N001  2  0.65984  0.07613  0.72103 11.00000  0.04704   6.54
C002  1  0.55274  0.44723  0.33961 11.00000  0.03903   6.38
C003  1  0.78281  0.26330  0.60996 11.00000  0.04665   6.20
C004  1  0.58977  0.35525  0.43792 11.00000  0.04235   6.08
C005  1  0.46153  0.17133  0.55528 11.00000  0.04720   6.06
O006  3  0.85537  0.50523  0.30898 11.00000  0.06552   6.06
C007  1  0.67583  0.51382  0.27888 11.00000  0.04736   5.84
C008  1  0.44226  0.26554  0.46039 11.00000  0.05350   5.74
C009  1  0.76151  0.35936  0.51524 11.00000  0.04996   5.71
C00A  1  0.63418  0.16779  0.62902 11.00000  0.04597   5.68
C00B  1  0.59168  0.59595  0.17624 11.00000  0.05329   5.35
HKLF 4
END
