TITL 2_expF_0_6_expS_1_4_2_a.res in Pn
REM Old TITL 1 in P2/n
REM SHELXT solution in Pn: R1 0.270, Rweak 0.286, Alpha 0.170
REM <I/s>   1.358 for   97 systematic absences,  Orientation as input
REM Formula found by SHELXT:  C13 N3 O4

CELL  0.71073   7.0400   9.2900  11.5500   90.000   97.870   90.000
ZERR   16.000   0.0014   0.0019   0.0023    0.000    0.030    0.000
LATT -1
SYMM 1/2+X, -Y, 1/2+Z
SFAC C N O
UNIT 16 16 16
L.S. 10
BOND
LIST 6
FMAP 2
PLAN 20
N001  2  0.89339  0.90150  0.57011 11.00000  0.00381  10.16
O002  3  0.72312  0.98054  0.40401 11.00000  0.00010   9.65
N003  2  0.80203  0.74567  0.73598 11.00000  0.02019   7.93
C004  1  0.13533  0.42024  0.63378 11.00000  0.01733   7.19
N005  2  0.94102  0.79348  0.67168 11.00000  0.00010   7.14
O006  3  0.63070  0.74095  0.70019 11.00000  0.01790   6.71
C007  1  0.90471  0.65541  0.82938 11.00000  0.00010   6.31
C008  1  0.25462  0.61138  0.53729 11.00000  0.01793   5.83
O009  3  0.33336  0.75313  0.31402 11.00000  0.01860   5.70
C00A  1  0.81285  1.16240  0.27810 11.00000  0.00010   5.64
C00B  1 -0.05713  0.42949  0.56650 11.00000  0.00775   5.25
O00C  3  0.14568  0.30876  0.71821 11.00000  0.04472   5.24
C00D  1  1.06351  0.98776  0.55081 11.00000  0.01750   5.21
C00E  1  1.02349  1.08335  0.45892 11.00000  0.02074   5.04
C00F  1 -0.06351  0.51033  0.47012 11.00000  0.02006   4.98
C00G  1  0.05196  0.68437  0.35390 11.00000  0.03548   4.76
C00H  1  0.08092  0.84753  0.17062 11.00000  0.02421   4.26
C00I  1  0.15170  0.76270  0.29446 11.00000  0.01998   3.68
C00J  1  0.86427  1.08371  0.37926 11.00000  0.00876   3.63
C00K  1  0.72110  0.89077  0.50082 11.00000  0.00709   3.26
HKLF 4
END
