TITL 2_expF_1_5_expS_0_6_2_a.res in P2(1)/n
REM Old TITL 1 in P2/n
REM SHELXT solution in P2(1)/n: R1 0.324, Rweak 0.009, Alpha 0.044
REM <I/s>   1.729 for  106 systematic absences,  Orientation as input
REM Formula found by SHELXT:  C10 O

CELL  0.71073   7.0400   9.2900  11.5500   90.000   97.870   90.000
ZERR   16.000   0.0014   0.0019   0.0023    0.000    0.030    0.000
LATT  1
SYMM 1/2-X, 1/2+Y, 1/2-Z
SFAC C N O
UNIT 16 16 16
L.S. 10
BOND
LIST 6
FMAP 2
PLAN 20
C001  1  0.33830  0.07828  0.27839 11.00000  0.04248   6.50
C002  1  0.44971  0.44620  0.65979 11.00000  0.04916   6.28
C003  1  0.53454  0.16757  0.44340 11.00000  0.06061   6.19
C004  1  0.21559  0.26147  0.38983 11.00000  0.05288   6.19
C005  1  0.41113  0.35680  0.56274 11.00000  0.04828   6.10
O006  3  0.15137  0.50452  0.69093 11.00000  0.07979   5.88
C007  1  0.24235  0.35580  0.48402 11.00000  0.05583   5.75
C008  1  0.32078  0.51325  0.72114 11.00000  0.05600   5.74
C009  1  0.55877  0.26313  0.54098 11.00000  0.05565   5.74
C00A  1  0.36905  0.16837  0.36911 11.00000  0.05410   5.68
C00B  1  0.40805  0.59866  0.82239 11.00000  0.06151   5.27
HKLF 4
END
