TITL 2_expF_1_2_expS_1_0_2_a.res in P2(1)/n
REM Old TITL 1 in P2/n
REM SHELXT solution in P2(1)/n: R1 0.273, Rweak 0.030, Alpha 0.069
REM <I/s>   1.366 for  106 systematic absences,  Orientation as input
REM Formula found by SHELXT:  C10 O

CELL  0.71073   7.0400   9.2900  11.5500   90.000   97.870   90.000
ZERR   16.000   0.0014   0.0019   0.0023    0.000    0.030    0.000
LATT  1
SYMM 1/2-X, 1/2+Y, 1/2-Z
SFAC C N O
UNIT 16 16 16
L.S. 10
BOND
LIST 6
FMAP 2
PLAN 20
C001  1  0.55142  0.55252  0.34018 11.00000  0.03359   6.43
C002  1  0.66175  0.92307  0.72118 11.00000  0.03021   6.43
O003  3  0.85039  0.49509  0.30821 11.00000  0.05875   6.08
C004  1  0.67858  0.48733  0.27819 11.00000  0.03623   6.05
C005  1  0.78106  0.73790  0.60969 11.00000  0.03975   6.04
C006  1  0.58716  0.64325  0.43851 11.00000  0.03641   5.99
C007  1  0.46306  0.82954  0.55614 11.00000  0.04232   5.89
C008  1  0.63320  0.83176  0.62994 11.00000  0.03870   5.82
C009  1  0.76018  0.64333  0.51410 11.00000  0.03989   5.78
C00A  1  0.43897  0.73508  0.45959 11.00000  0.04164   5.55
C00B  1  0.59118  0.39952  0.17659 11.00000  0.04286   5.34
HKLF 4
END
