TITL 2_expF_1_1_expS_1_4_2_b.res in Pn
REM Old TITL 1 in P2/n
REM SHELXT solution in Pn: R1 0.238, Rweak 0.041, Alpha 0.022
REM <I/s>   1.349 for  100 systematic absences,  Orientation as input
REM Formula found by SHELXT:  C15 N4 O3

CELL  0.71073   7.0400   9.2900  11.5500   90.000   97.870   90.000
ZERR   16.000   0.0014   0.0019   0.0023    0.000    0.030    0.000
LATT -1
SYMM 1/2+X, -Y, 1/2+Z
SFAC C N O
UNIT 16 16 16
L.S. 10
BOND
LIST 6
FMAP 2
PLAN 20
O001  3  0.33200  0.32571  0.28487 11.00000  0.03632   8.53
N002  2  0.58042  0.89725  0.44267 11.00000  0.02915   8.07
O003  3  0.85268  0.74340  0.30534 11.00000  0.05082   7.89
N004  2  0.45715  1.08190  0.55560 11.00000  0.02984   7.12
N005  2  0.36310  0.42394  0.37038 11.00000  0.03588   7.11
N006  2  0.55339  0.79892  0.34304 11.00000  0.02827   6.81
C007  1  0.77473  0.98472  0.61638 11.00000  0.02822   6.25
C008  1  0.57117  0.65538  0.17587 11.00000  0.04062   6.04
C009  1  0.67819  0.73932  0.27908 11.00000  0.03563   6.03
C00A  1  0.24310  0.60568  0.49142 11.00000  0.02963   5.98
C00B  1  0.31905  0.76510  0.72002 11.00000  0.02787   5.85
C00C  1  0.44952  0.69521  0.66212 11.00000  0.03428   5.80
C00D  1  0.21225  0.51167  0.39825 11.00000  0.03820   5.71
C00E  1  0.56434  0.51390  0.54443 11.00000  0.02889   5.68
C00F  1  0.76252  0.89318  0.52047 11.00000  0.03552   5.46
C00G  1  0.44564  0.98508  0.46341 11.00000  0.03672   5.46
C00H  1  0.53132  0.42515  0.44154 11.00000  0.05100   4.71
C00I  1  0.39586  0.85324  0.82413 11.00000  0.02471   4.53
C00J  1  0.62585  1.08804  0.63229 11.00000  0.03675   4.50
O00K  3  0.14732  0.75739  0.68980 11.00000  0.03725   4.06
C00L  1  0.65766  1.17224  0.72988 11.00000  0.03118   3.84
C00M  1  0.40245  0.61307  0.56829 11.00000  0.04051   3.63
HKLF 4
END
