TITL 2_expF_0_8_expS_0_5_2_a.res in Pn
REM Old TITL 1 in P2/n
REM SHELXT solution in Pn: R1 0.236, Rweak 0.114, Alpha 0.084
REM <I/s>   0.903 for  100 systematic absences,  Orientation as input
REM Formula found by SHELXT:  C12 N4 O4

CELL  0.71073   7.0400   9.2900  11.5500   90.000   97.870   90.000
ZERR   16.000   0.0014   0.0019   0.0023    0.000    0.030    0.000
LATT -1
SYMM 1/2+X, -Y, 1/2+Z
SFAC C N O
UNIT 16 16 16
L.S. 10
BOND
LIST 6
FMAP 2
PLAN 20
O001  3  0.18431  0.25831  0.69065 11.00000  0.00179  10.92
O002  3  0.81569  0.48510  0.61002 11.00000  0.01360   9.06
O003  3  0.58049  0.30269  0.33680 11.00000  0.03388   8.91
O004  3  0.70008  0.67458  0.72304 11.00000  0.01899   7.73
C005  1  0.35858  0.27329  0.71680 11.00000  0.00929   7.24
N006  2  0.66465  0.58159  0.63053 11.00000  0.02633   7.13
N007  2  0.62893  0.15313  0.17697 11.00000  0.02828   6.70
N008  2  0.59935  0.01024  0.53939 11.00000  0.03626   6.70
N009  2  0.80062  0.39113  0.51821 11.00000  0.03175   6.63
C00A  1  0.62574  0.38661  0.44315 11.00000  0.01554   6.27
C00B  1  0.45043  0.10431  0.56602 11.00000  0.02358   6.27
C00C  1  0.58452 -0.07283  0.44731 11.00000  0.03393   5.96
C00D  1  0.50298  0.58611  0.55667 11.00000  0.01902   5.94
C00E  1  0.71308  0.24964  0.27680 11.00000  0.02572   5.51
C00F  1  0.28524  0.10762  0.48704 11.00000  0.02321   5.25
C00G  1  0.38094 -0.17147  0.27703 11.00000  0.04092   4.97
C00H  1  0.39340 -0.08083  0.36737 11.00000  0.02428   4.95
C00I  1  0.47442  0.47924  0.45755 11.00000  0.02272   4.81
C00J  1  0.44310  0.35906  0.82303 11.00000  0.02632   4.79
C00K  1  0.47876  0.19752  0.65707 11.00000  0.01957   4.66
HKLF 4
END
