TITL 2_expF_1_0_expS_1_2_2_a.res in P2(1)/n
REM Old TITL 1 in P2/n
REM SHELXT solution in P2(1)/n: R1 0.267, Rweak 0.065, Alpha 0.111
REM <I/s>   1.251 for  106 systematic absences,  Orientation as input
REM Formula found by SHELXT:  C9 N O

CELL  0.71073   7.0400   9.2900  11.5500   90.000   97.870   90.000
ZERR   16.000   0.0014   0.0019   0.0023    0.000    0.030    0.000
LATT  1
SYMM 1/2-X, 1/2+Y, 1/2-Z
SFAC C N O
UNIT 16 16 16
L.S. 10
BOND
LIST 6
FMAP 2
PLAN 20
N001  2  0.44830  0.55135  0.66085 11.00000  0.03069   6.63
C002  1  0.33493  0.92424  0.27786 11.00000  0.01992   6.28
O003  3  0.14986  0.49338  0.69181 11.00000  0.03800   6.19
C004  1  0.32182  0.48801  0.72145 11.00000  0.02422   6.14
C005  1  0.36742  0.83005  0.37002 11.00000  0.02745   6.01
C006  1  0.41139  0.64317  0.56165 11.00000  0.02596   6.00
C007  1  0.21957  0.73584  0.39022 11.00000  0.02647   5.85
C008  1  0.53924  0.82873  0.44479 11.00000  0.02980   5.70
C009  1  0.23943  0.64322  0.48523 11.00000  0.02682   5.68
C00A  1  0.56092  0.73592  0.54058 11.00000  0.02867   5.57
C00B  1  0.40936  0.39893  0.82332 11.00000  0.02822   5.37
HKLF 4
END
