TITL 2_expF_0_6_expS_0_9_2_a.res in Pn
REM Old TITL 1 in P2/n
REM SHELXT solution in Pn: R1 0.263, Rweak 0.281, Alpha 0.170
REM <I/s>   1.066 for   97 systematic absences,  Orientation as input
REM Formula found by SHELXT:  C13 N3 O4

CELL  0.71073   7.0400   9.2900  11.5500   90.000   97.870   90.000
ZERR   16.000   0.0014   0.0019   0.0023    0.000    0.030    0.000
LATT -1
SYMM 1/2+X, -Y, 1/2+Z
SFAC C N O
UNIT 16 16 16
L.S. 10
BOND
LIST 6
FMAP 2
PLAN 20
N001  2  0.89241  0.89759  0.56922 11.00000  0.00010  10.16
O002  3  0.71918  0.98166  0.40226 11.00000  0.00010   9.65
N003  2  0.79903  0.74433  0.73420 11.00000  0.01849   7.93
C004  1  0.13108  0.41881  0.63329 11.00000  0.01445   7.19
N005  2  0.93738  0.79357  0.67065 11.00000  0.00010   7.14
O006  3  0.63016  0.73829  0.69872 11.00000  0.01826   6.71
C007  1  0.90217  0.65425  0.82870 11.00000  0.00010   6.31
C008  1  0.24963  0.61448  0.53437 11.00000  0.01930   5.83
O009  3  0.33212  0.75222  0.31398 11.00000  0.01658   5.70
C00A  1  0.81034  1.16438  0.27730 11.00000  0.00010   5.64
C00B  1 -0.06088  0.42795  0.56667 11.00000  0.01284   5.25
O00C  3  0.14115  0.30729  0.71734 11.00000  0.03844   5.24
C00D  1  1.06281  0.98767  0.55032 11.00000  0.01260   5.21
C00E  1  1.02302  1.08138  0.45810 11.00000  0.01635   5.04
C00F  1 -0.06281  0.51387  0.46917 11.00000  0.01845   4.98
C00G  1  0.04702  0.68535  0.35213 11.00000  0.03250   4.76
C00H  1  0.07643  0.85024  0.17130 11.00000  0.02393   4.26
C00I  1  0.15140  0.76660  0.29202 11.00000  0.01931   3.68
C00J  1  0.86137  1.08274  0.37653 11.00000  0.01004   3.63
C00K  1  0.72123  0.89318  0.49867 11.00000  0.00737   3.26
HKLF 4
END
