TITL 2_expF_0_6_expS_1_5_2_a.res in Pn
REM Old TITL 1 in P2/n
REM SHELXT solution in Pn: R1 0.274, Rweak 0.293, Alpha 0.170
REM <I/s>   1.435 for   97 systematic absences,  Orientation as input
REM Formula found by SHELXT:  C13 N3 O4

CELL  0.71073   7.0400   9.2900  11.5500   90.000   97.870   90.000
ZERR   16.000   0.0014   0.0019   0.0023    0.000    0.030    0.000
LATT -1
SYMM 1/2+X, -Y, 1/2+Z
SFAC C N O
UNIT 16 16 16
L.S. 10
BOND
LIST 6
FMAP 2
PLAN 20
N001  2  0.89289  0.89889  0.56802 11.00000  0.00555  10.16
O002  3  0.71341  0.98193  0.39981 11.00000  0.00010   9.65
N003  2  0.80129  0.73833  0.73480 11.00000  0.00617   7.93
C004  1  0.12601  0.41615  0.63285 11.00000  0.00977   7.19
N005  2  0.93229  0.79259  0.66795 11.00000  0.00010   7.14
O006  3  0.62919  0.74058  0.69681 11.00000  0.02045   6.71
C007  1  0.89735  0.64662  0.82877 11.00000  0.00247   6.31
C008  1  0.26459  0.60443  0.51941 11.00000  0.03117   5.83
O009  3  0.32725  0.75508  0.31199 11.00000  0.02321   5.70
C00A  1  0.80768  1.17059  0.27460 11.00000  0.00010   5.64
C00B  1 -0.05609  0.41682  0.56440 11.00000  0.02309   5.25
O00C  3  0.12629  0.31632  0.71226 11.00000  0.03748   5.24
C00D  1  1.05816  0.99539  0.54831 11.00000  0.00041   5.21
C00E  1  1.03090  1.07705  0.45370 11.00000  0.00721   5.04
C00F  1 -0.05816  0.52058  0.45970 11.00000  0.02620   4.98
C00G  1  0.04892  0.68369  0.34713 11.00000  0.03297   4.76
C00H  1  0.07003  0.84371  0.17123 11.00000  0.00384   4.26
C00I  1  0.15221  0.76225  0.29345 11.00000  0.01498   3.68
C00J  1  0.85993  1.07816  0.37554 11.00000  0.02658   3.63
C00K  1  0.72934  0.89544  0.48677 11.00000  0.02441   3.26
HKLF 4
END
