TITL 2_expF_1_0_expS_1_1_2_c.res in P2(1)
REM Old TITL 1 in P2/n
REM SHELXT solution in P2(1): R1 0.242, Rweak 0.058, Alpha 0.140
REM <I/s>   2.066 for    6 systematic absences,  Orientation as input
REM Formula found by SHELXT:  C14 N4 O4

CELL  0.71073   7.0400   9.2900  11.5500   90.000   97.870   90.000
ZERR   16.000   0.0014   0.0019   0.0023    0.000    0.030    0.000
LATT -1
SYMM -X, 1/2+Y, -Z
SFAC C N O
UNIT 16 16 16
L.S. 10
BOND
LIST 6
FMAP 2
PLAN 20
O001  3  0.30143  0.70097  0.58855 11.00000  0.04735   8.02
O002  3  0.51144  0.59431  0.76173 11.00000  0.03741   7.94
O003  3  1.10438  0.23230  0.06315 11.00000  0.02382   6.85
N004  2  0.38420  0.40925  0.88093 11.00000  0.03281   6.79
N005  2  1.03427  0.47670  0.35934 11.00000  0.04899   6.72
N006  2  0.83578  0.38678  0.19092 11.00000  0.02471   6.72
N007  2  0.91321  0.66695  0.47070 11.00000  0.02619   6.58
C008  1  0.42998  0.76339  0.53001 11.00000  0.02700   6.48
C009  1  0.19382  0.50156  0.70454 11.00000  0.03039   6.40
C00A  1  0.70502  0.57437  0.30361 11.00000  0.02059   6.23
C00B  1  0.92804  0.23789  0.02877 11.00000  0.02222   5.91
C00C  1  0.41675  0.32080  0.97387 11.00000  0.02269   5.86
C00D  1  0.34907  0.85085  0.42573 11.00000  0.02140   5.80
O00E  3  0.59948  0.74086  0.55247 11.00000  0.05584   5.49
C00F  1  0.34128  0.60022  0.68536 11.00000  0.04061   5.45
C00G  1  0.53019  0.50470  0.86059 11.00000  0.02045   5.39
C00H  1  0.83345  0.14915 -0.07170 11.00000  0.03513   5.37
C00I  1  0.21891  0.41632  0.80796 11.00000  0.04264   5.29
C00J  1  0.88267  0.57111  0.37977 11.00000  0.03356   5.13
C00K  1  0.80248  0.30058  0.09109 11.00000  0.01723   5.04
C00L  1  0.68674  0.47422  0.21205 11.00000  0.02550   4.72
C00M  1  1.00367  0.37966  0.26646 11.00000  0.03286   3.32
HKLF 4
END
