TITL 2_expF_0_7_expS_1_0_2_a.res in Pn
REM Old TITL 1 in P2/n
REM SHELXT solution in Pn: R1 0.259, Rweak 0.205, Alpha 0.129
REM <I/s>   1.081 for  100 systematic absences,  Orientation as input
REM Formula found by SHELXT:  C13 N O3

CELL  0.71073   7.0400   9.2900  11.5500   90.000   97.870   90.000
ZERR   16.000   0.0014   0.0019   0.0023    0.000    0.030    0.000
LATT -1
SYMM 1/2+X, -Y, 1/2+Z
SFAC C N O
UNIT 16 16 16
L.S. 10
BOND
LIST 6
FMAP 2
PLAN 20
N001  2  0.85619  0.10876  0.56469 11.00000  0.00010   7.16
O002  3  0.07831  0.57890  0.63221 11.00000  0.01399   6.98
C003  1  0.99999  0.00897  0.54353 11.00000  0.00333   6.38
O004  3  0.66232  0.02103  0.39083 11.00000  0.01434   6.10
C005  1  0.89623  0.20451  0.66339 11.00000  0.00838   6.04
C006  1  0.77031  0.26768  0.72608 11.00000  0.03031   5.91
C007  1  0.98132 -0.07664  0.44756 11.00000  0.00133   5.86
O008  3  0.59006  0.26029  0.69274 11.00000  0.01248   5.44
C009  1  0.20488  0.40627  0.51729 11.00000  0.03117   5.07
C00A  1  0.77660 -0.16862  0.27765 11.00000  0.00482   4.90
C00B  1  0.29962  0.24633  0.31153 11.00000  0.02297   4.71
C00C  1  0.84441  0.35187  0.82395 11.00000  0.01889   4.58
C00D  1  0.11065  0.68430  0.71621 11.00000  0.01432   4.56
C00E  1  0.12815  0.23990  0.28391 11.00000  0.00896   4.50
C00F  1  0.02120  0.15184  0.17605 11.00000  0.01509   4.19
C00G  1  0.00001  0.30782  0.34363 11.00000  0.02169   3.86
C00H  1  0.68525  0.11172  0.48709 11.00000  0.01022   3.38
HKLF 4
END
