TITL 2_expF_1_1_expS_1_2_2_b.res in Pn
REM Old TITL 1 in P2/n
REM SHELXT solution in Pn: R1 0.239, Rweak 0.041, Alpha 0.034
REM <I/s>   1.259 for  100 systematic absences,  Orientation as input
REM Formula found by SHELXT:  C16 N3 O3

CELL  0.71073   7.0400   9.2900  11.5500   90.000   97.870   90.000
ZERR   16.000   0.0014   0.0019   0.0023    0.000    0.030    0.000
LATT -1
SYMM 1/2+X, -Y, 1/2+Z
SFAC C N O
UNIT 16 16 16
L.S. 10
BOND
LIST 6
FMAP 2
PLAN 20
C001  1  0.30840  0.25945  0.72124 11.00000  0.02414   7.67
O002  3  0.44521  0.20272  0.66260 11.00000  0.04753   7.65
N003  2  0.62082  0.58131  0.63992 11.00000  0.03530   7.13
N004  2  0.38715  0.35296  0.82339 11.00000  0.03855   7.07
N005  2  0.74581  0.39721  0.51977 11.00000  0.03575   6.59
C006  1  0.40338  0.10963  0.56506 11.00000  0.03621   6.56
C007  1  0.65463  0.68177  0.72645 11.00000  0.02453   6.36
C008  1  0.21335  0.01910  0.40045 11.00000  0.02961   6.12
O009  3  0.14947  0.25733  0.69675 11.00000  0.04926   5.82
C00A  1  0.32604 -0.16560  0.28298 11.00000  0.02234   5.76
C00B  1  0.52619 -0.07681  0.44618 11.00000  0.03609   5.73
O00C  3  0.85053  0.24496  0.31451 11.00000  0.04142   5.63
C00D  1  0.45167  0.58106  0.55882 11.00000  0.03680   5.63
C00E  1  0.77663  0.49249  0.61944 11.00000  0.03312   5.61
C00F  1  0.43977  0.49319  0.46140 11.00000  0.03268   5.51
C00G  1  0.55751  0.02269  0.54288 11.00000  0.03262   5.31
C00H  1  0.57944  0.39482  0.44189 11.00000  0.02701   4.72
C00I  1  0.22710  0.10903  0.49242 11.00000  0.03649   4.47
C00J  1  0.55100  0.30677  0.34333 11.00000  0.02879   4.22
C00K  1  0.35230 -0.08230  0.37923 11.00000  0.03813   3.79
C00L  1  0.66414  0.23241  0.27933 11.00000  0.03624   3.71
C00M  1  0.56635  0.15287  0.17661 11.00000  0.03577   3.21
HKLF 4
END
