TITL 2_expF_0_9_expS_0_9_2_c.res in P2(1)
REM Old TITL 1 in P2/n
REM SHELXT solution in P2(1): R1 0.244, Rweak 0.086, Alpha 0.160
REM <I/s>   2.139 for    6 systematic absences,  Orientation as input
REM Formula found by SHELXT:  C15 N4 O3

CELL  0.71073   7.0400   9.2900  11.5500   90.000   97.870   90.000
ZERR   16.000   0.0014   0.0019   0.0023    0.000    0.030    0.000
LATT -1
SYMM -X, 1/2+Y, -Z
SFAC C N O
UNIT 16 16 16
L.S. 10
BOND
LIST 6
FMAP 2
PLAN 20
O001  3  0.40160  0.25752  0.44588 11.00000  0.02956   7.92
O002  3 -0.03332  0.50980  0.63779 11.00000  0.04950   7.59
N003  2  0.07040  0.75629  0.97243 11.00000  0.02062   6.83
C004  1  0.64912  0.39425  0.31036 11.00000  0.03319   6.71
N005  2  0.61620  0.59218  0.12122 11.00000  0.03156   6.71
N006  2  0.69853  0.30453  0.41285 11.00000  0.02668   6.59
N007  2  0.08758  0.32854  0.53181 11.00000  0.03006   6.55
C008  1  0.19719  0.70367  0.90785 11.00000  0.02011   6.18
C009  1  0.48380  0.40320  0.23779 11.00000  0.02066   5.98
C00A  1  0.29109  0.42324  0.69312 11.00000  0.01694   5.93
C00B  1  0.66020  0.14942  0.57766 11.00000  0.01774   5.86
C00C  1  0.58230  0.67551  0.02402 11.00000  0.01517   5.77
C00D  1  0.31493  0.51311  0.78910 11.00000  0.01696   5.67
C00E  1  0.78863  0.57850  0.19869 11.00000  0.04671   5.50
C00F  1  0.15430  0.85058  1.06638 11.00000  0.03359   5.48
C00G  1  0.57021  0.22391  0.46807 11.00000  0.02958   5.44
C00H  1 -0.00276  0.61703  0.73272 11.00000  0.02473   5.24
C00I  1  0.17098  0.60944  0.81130 11.00000  0.01326   4.98
C00J  1  0.80328  0.48240  0.29386 11.00000  0.03847   4.90
C00K  1  0.11922  0.43272  0.61990 11.00000  0.02544   4.78
O00L  3 -0.10657  0.77236  0.93507 11.00000  0.03752   4.34
C00M  1  0.47039  0.48341  0.14160 11.00000  0.02462   4.20
HKLF 4
END
