TITL 2_expF_1_1_expS_0_9_2_a.res in P2(1)/n
REM Old TITL 1 in P2/n
REM SHELXT solution in P2(1)/n: R1 0.267, Rweak 0.043, Alpha 0.076
REM <I/s>   1.241 for  106 systematic absences,  Orientation as input
REM Formula found by SHELXT:  C10 O

CELL  0.71073   7.0400   9.2900  11.5500   90.000   97.870   90.000
ZERR   16.000   0.0014   0.0019   0.0023    0.000    0.030    0.000
LATT  1
SYMM 1/2-X, 1/2+Y, 1/2-Z
SFAC C N O
UNIT 16 16 16
L.S. 10
BOND
LIST 6
FMAP 2
PLAN 20
C001  1  0.44882  0.55213  0.66019 11.00000  0.02919   6.39
C002  1  0.33737  0.92317  0.27855 11.00000  0.02593   6.33
O003  3  0.14907  0.49487  0.69190 11.00000  0.05120   6.16
C004  1  0.32179  0.48706  0.72169 11.00000  0.03165   6.11
C005  1  0.41297  0.64266  0.56172 11.00000  0.03163   6.10
C006  1  0.21870  0.73776  0.39006 11.00000  0.03459   6.04
C007  1  0.36634  0.83084  0.36952 11.00000  0.03308   5.94
C008  1  0.24066  0.64246  0.48535 11.00000  0.03415   5.76
C009  1  0.53729  0.82974  0.44446 11.00000  0.03654   5.67
C00A  1  0.56079  0.73486  0.54106 11.00000  0.03606   5.59
C00B  1  0.40872  0.40015  0.82350 11.00000  0.03699   5.38
HKLF 4
END
