TITL 2_expF_1_2_expS_1_4_2_b.res in Pn
REM Old TITL 1 in P2/n
REM SHELXT solution in Pn: R1 0.248, Rweak 0.027, Alpha 0.026
REM <I/s>   1.401 for  100 systematic absences,  Orientation as input
REM Formula found by SHELXT:  C14 N5 O3

CELL  0.71073   7.0400   9.2900  11.5500   90.000   97.870   90.000
ZERR   16.000   0.0014   0.0019   0.0023    0.000    0.030    0.000
LATT -1
SYMM 1/2+X, -Y, 1/2+Z
SFAC C N O
UNIT 16 16 16
L.S. 10
BOND
LIST 6
FMAP 2
PLAN 20
C001  1  0.68331  0.77361  0.28502 11.00000  0.03512   8.20
O002  3  0.33797  1.16961  0.27559 11.00000  0.03998   7.38
O003  3  0.85147  0.75666  0.31378 11.00000  0.05382   7.24
N004  2  0.22583  0.98466  0.39056 11.00000  0.03312   7.22
N005  2  0.58738  0.60628  0.43608 11.00000  0.04685   6.95
N006  2  0.57233  0.98299  0.54253 11.00000  0.04911   6.92
C007  1  0.37678  1.07866  0.37056 11.00000  0.04031   6.67
N008  2  0.44151  0.80440  0.65802 11.00000  0.03835   6.64
N009  2  0.54217  1.08037  0.45147 11.00000  0.04997   6.64
C00A  1  0.59507  0.84941  0.17685 11.00000  0.03498   6.50
C00B  1  0.25277  0.89409  0.48516 11.00000  0.03705   5.90
C00C  1  0.77127  0.60584  0.51374 11.00000  0.03217   5.89
C00D  1  0.54644  0.70028  0.33839 11.00000  0.02871   5.86
C00E  1  0.66275  0.32260  0.71902 11.00000  0.03496   5.59
C00F  1  0.46425  0.42201  0.56283 11.00000  0.03861   5.52
C00G  1  0.63876  0.41490  0.63138 11.00000  0.03238   5.23
O00H  3  0.14853  0.74524  0.69560 11.00000  0.04430   5.18
C00I  1  0.79100  0.51164  0.60679 11.00000  0.05443   5.07
C00J  1  0.41370  0.89297  0.55983 11.00000  0.03225   5.06
C00K  1  0.45121  0.51053  0.46288 11.00000  0.03748   4.57
C00L  1  0.41275  0.64662  0.82315 11.00000  0.04900   4.20
C00M  1  0.32296  0.74721  0.72433 11.00000  0.03342   3.83
HKLF 4
END
