TITL 2_expF_1_0_expS_1_5_2_a.res in P2(1)/n
REM Old TITL 1 in P2/n
REM SHELXT solution in P2(1)/n: R1 0.268, Rweak 0.067, Alpha 0.130
REM <I/s>   1.368 for  106 systematic absences,  Orientation as input
REM Formula found by SHELXT:  C9 N O

CELL  0.71073   7.0400   9.2900  11.5500   90.000   97.870   90.000
ZERR   16.000   0.0014   0.0019   0.0023    0.000    0.030    0.000
LATT  1
SYMM 1/2-X, 1/2+Y, 1/2-Z
SFAC C N O
UNIT 16 16 16
L.S. 10
BOND
LIST 6
FMAP 2
PLAN 20
N001  2  0.55240  0.44870  0.33911 11.00000  0.03050   6.54
O002  3  0.84964  0.50692  0.30806 11.00000  0.03590   6.28
C003  1  0.66607  0.07634  0.72262 11.00000  0.01986   6.27
C004  1  0.67793  0.51227  0.27840 11.00000  0.02514   6.24
C005  1  0.77960  0.26461  0.60963 11.00000  0.02619   6.03
C006  1  0.58866  0.35627  0.43806 11.00000  0.02740   5.95
C007  1  0.63209  0.17002  0.62957 11.00000  0.02789   5.90
C008  1  0.46058  0.17154  0.55498 11.00000  0.02851   5.67
C009  1  0.76185  0.35633  0.51481 11.00000  0.02782   5.67
C00A  1  0.43890  0.26353  0.45938 11.00000  0.02894   5.52
C00B  1  0.58985  0.60127  0.17643 11.00000  0.02800   5.43
HKLF 4
END
