TITL 2_expF_1_0_expS_1_4_2_a.res in P2(1)/n
REM Old TITL 1 in P2/n
REM SHELXT solution in P2(1)/n: R1 0.269, Rweak 0.060, Alpha 0.110
REM <I/s>   1.320 for  106 systematic absences,  Orientation as input
REM Formula found by SHELXT:  C10 O

CELL  0.71073   7.0400   9.2900  11.5500   90.000   97.870   90.000
ZERR   16.000   0.0014   0.0019   0.0023    0.000    0.030    0.000
LATT  1
SYMM 1/2-X, 1/2+Y, 1/2-Z
SFAC C N O
UNIT 16 16 16
L.S. 10
BOND
LIST 6
FMAP 2
PLAN 20
C001  1  0.44831  0.44865  0.66047 11.00000  0.02334   6.50
O002  3  0.14887  0.50608  0.69182 11.00000  0.03770   6.25
C003  1  0.32177  0.51304  0.72189 11.00000  0.02683   6.21
C004  1  0.33471  0.07653  0.27773 11.00000  0.02188   6.13
C005  1  0.41172  0.35616  0.56208 11.00000  0.02869   6.00
C006  1  0.36796  0.16987  0.37074 11.00000  0.02829   5.95
C007  1  0.22030  0.26428  0.39035 11.00000  0.02751   5.94
C008  1  0.23890  0.35696  0.48550 11.00000  0.02802   5.71
C009  1  0.53939  0.17140  0.44507 11.00000  0.03010   5.69
C00A  1  0.56127  0.26348  0.54057 11.00000  0.03060   5.57
C00B  1  0.40956  0.60109  0.82336 11.00000  0.02978   5.48
HKLF 4
END
