TITL 2_expF_0_8_expS_1_2_2_a.res in Pn
REM Old TITL 1 in P2/n
REM SHELXT solution in Pn: R1 0.233, Rweak 0.117, Alpha 0.072
REM <I/s>   1.182 for  100 systematic absences,  Orientation as input
REM Formula found by SHELXT:  C13 N2 O7

CELL  0.71073   7.0400   9.2900  11.5500   90.000   97.870   90.000
ZERR   16.000   0.0014   0.0019   0.0023    0.000    0.030    0.000
LATT -1
SYMM 1/2+X, -Y, 1/2+Z
SFAC C N O
UNIT 16 16 16
L.S. 10
BOND
LIST 6
FMAP 2
PLAN 20
O001  3  0.34386  0.25767  0.30225 11.00000  0.01450  10.61
O002  3  0.82894  0.67458  0.27424 11.00000  0.01069   9.86
O003  3  1.02742  0.57574  0.43657 11.00000  0.02190   9.00
O004  3  0.05069  0.20360  0.33702 11.00000  0.01638   8.78
O005  3  0.72188  0.48323  0.38352 11.00000  0.01128   8.14
N006  2  0.90801  0.39326  0.56269 11.00000  0.02050   8.02
O007  3  0.25851  0.11025  0.50278 11.00000  0.03612   8.02
C008  1  0.81814  0.24434  0.71516 11.00000  0.00855   6.92
N009  2  1.06289  0.48623  0.53817 11.00000  0.01868   6.61
C00A  1  0.09688  0.35465  0.17833 11.00000  0.01372   6.46
C00B  1  0.14097 -0.08648  0.62480 11.00000  0.02775   6.45
C00C  1  0.17567  0.27508  0.27501 11.00000  0.03323   6.28
C00D  1  0.87207  0.57436  0.36665 11.00000  0.00909   6.21
C00E  1  0.94471  0.30686  0.66023 11.00000  0.03087   5.57
C00F  1  0.91830  0.15273  0.82167 11.00000  0.01863   5.56
C00G  1 -0.05511  0.01259  0.46225 11.00000  0.03643   5.42
C00H  1  0.29954  0.00870  0.60187 11.00000  0.06506   5.18
C00I  1  0.07990  0.10641  0.44046 11.00000  0.01956   4.45
C00J  1  0.73400  0.39500  0.47454 11.00000  0.01180   4.39
C00K  1 -0.06289 -0.08009  0.54574 11.00000  0.03127   3.94
C00L  1  0.15880 -0.17349  0.71984 11.00000  0.02879   3.38
O00M  3  0.63686  0.24488  0.68277 11.00000  0.03763   3.21
HKLF 4
END
