TITL 2_expF_1_1_expS_0_5_2_a.res in P2(1)/n
REM Old TITL 1 in P2/n
REM SHELXT solution in P2(1)/n: R1 0.270, Rweak 0.044, Alpha 0.096
REM <I/s>   1.297 for  106 systematic absences,  Orientation as input
REM Formula found by SHELXT:  C9 N O

CELL  0.71073   7.0400   9.2900  11.5500   90.000   97.870   90.000
ZERR   16.000   0.0014   0.0019   0.0023    0.000    0.030    0.000
LATT  1
SYMM 1/2-X, 1/2+Y, 1/2-Z
SFAC C N O
UNIT 16 16 16
L.S. 10
BOND
LIST 6
FMAP 2
PLAN 20
N001  2  0.44774  0.44792  0.66013 11.00000  0.04334   6.51
C002  1  0.33764  0.07640  0.27859 11.00000  0.02550   6.38
O003  3  0.15092  0.50485  0.69132 11.00000  0.05746   6.17
C004  1  0.32146  0.51268  0.72127 11.00000  0.03162   6.15
C005  1  0.41286  0.35764  0.56163 11.00000  0.03066   6.01
C006  1  0.36494  0.16994  0.36895 11.00000  0.03362   5.94
C007  1  0.21777  0.26163  0.38962 11.00000  0.03562   5.91
C008  1  0.24081  0.35705  0.48507 11.00000  0.03578   5.76
C009  1  0.53748  0.17044  0.44503 11.00000  0.03736   5.72
C00A  1  0.55932  0.26564  0.54121 11.00000  0.03706   5.49
C00B  1  0.40841  0.60050  0.82348 11.00000  0.03898   5.33
HKLF 4
END
