TITL 2_expF_1_4_expS_1_5_2_b.res in Pn
REM Old TITL 1 in P2/n
REM SHELXT solution in Pn: R1 0.294, Rweak 0.017, Alpha 0.007
REM <I/s>   1.603 for  100 systematic absences,  Orientation as input
REM Formula found by SHELXT:  C15 N5 O2

CELL  0.71073   7.0400   9.2900  11.5500   90.000   97.870   90.000
ZERR   16.000   0.0014   0.0019   0.0023    0.000    0.030    0.000
LATT -1
SYMM 1/2+X, -Y, 1/2+Z
SFAC C N O
UNIT 16 16 16
L.S. 10
BOND
LIST 6
FMAP 2
PLAN 20
N001  2  0.58075  0.89404  0.43586 11.00000  0.04413   7.40
N002  2  0.36419  0.41308  0.37320 11.00000  0.05217   7.06
N003  2  0.46408  1.07889  0.55396 11.00000  0.04659   6.87
N004  2  0.23198  0.60534  0.48763 11.00000  0.05633   6.84
N005  2  0.33613  0.32369  0.28215 11.00000  0.04726   6.64
C006  1  0.44686  0.69498  0.65847 11.00000  0.04008   6.42
C007  1  0.67119  0.73618  0.27468 11.00000  0.04930   6.34
C008  1  0.21578  0.51621  0.39194 11.00000  0.05056   6.32
C009  1  0.55650  0.52019  0.53762 11.00000  0.05009   6.17
C00A  1  0.66114  1.17056  0.72561 11.00000  0.03160   5.91
O00B  3  0.85429  0.74323  0.30799 11.00000  0.05180   5.71
C00C  1  0.58979  0.64858  0.17653 11.00000  0.04633   5.63
O00D  3  0.14571  0.75494  0.69122 11.00000  0.06538   5.50
C00E  1  0.55341  0.79733  0.33945 11.00000  0.03941   5.48
C00F  1  0.77929  0.98895  0.61022 11.00000  0.04322   5.41
C00G  1  0.31492  0.76266  0.71498 11.00000  0.03969   4.80
C00H  1  0.54162  0.42201  0.43953 11.00000  0.06231   4.75
C00I  1  0.43806  0.98671  0.45761 11.00000  0.05059   4.69
C00J  1  0.40687  0.84468  0.82347 11.00000  0.06154   4.52
C00K  1  0.75510  0.89082  0.51683 11.00000  0.04586   4.16
C00L  1  0.40233  0.60814  0.55804 11.00000  0.04825   4.07
C00M  1  0.62943  1.07780  0.63420 11.00000  0.05027   4.02
HKLF 4
END
