TITL 2_expF_0_8_expS_0_8_2_a.res in Pn
REM Old TITL 1 in P2/n
REM SHELXT solution in Pn: R1 0.230, Rweak 0.118, Alpha 0.080
REM <I/s>   1.003 for  100 systematic absences,  Orientation as input
REM Formula found by SHELXT:  C12 N4 O5

CELL  0.71073   7.0400   9.2900  11.5500   90.000   97.870   90.000
ZERR   16.000   0.0014   0.0019   0.0023    0.000    0.030    0.000
LATT -1
SYMM 1/2+X, -Y, 1/2+Z
SFAC C N O
UNIT 16 16 16
L.S. 10
BOND
LIST 6
FMAP 2
PLAN 20
O001  3 -0.05931  0.98480  0.45667 11.00000  0.00378   9.22
O002  3  0.64645  0.75544  0.69018 11.00000  0.00798   9.17
N003  2  0.18005  0.73097  0.26919 11.00000  0.02062   7.63
O004  3  0.72514  0.50547  0.39014 11.00000  0.03643   7.52
N005  2  0.04581  0.80409  0.33551 11.00000  0.01775   7.37
C006  1  0.09402  0.89023  0.43758 11.00000  0.01515   6.99
N007  2  0.74512  0.60703  0.48132 11.00000  0.03179   6.75
O008  3  0.16803  1.16828  0.72069 11.00000  0.02389   6.74
N009  2  1.05931  0.42102  0.44847 11.00000  0.04210   6.54
C00A  1  0.14417  1.08858  0.62505 11.00000  0.01564   6.23
C00B  1  0.92095  0.85374  0.82435 11.00000  0.02967   5.86
C00C  1  0.84143  0.32021  0.27757 11.00000  0.02509   5.70
C00D  1  0.87842  0.42825  0.36275 11.00000  0.01969   5.56
C00E  1  0.93890  0.70523  0.65582 11.00000  0.01593   5.14
C00F  1  0.09722  0.65246  0.17565 11.00000  0.01079   5.03
C00G  1  0.91578  0.60577  0.55994 11.00000  0.02057   5.01
C00H  1 -0.02731  1.08152  0.55616 11.00000  0.01179   4.99
C00I  1  0.28526  0.97818  0.61041 11.00000  0.02202   4.83
C00J  1  0.26131  0.89068  0.51163 11.00000  0.01756   4.69
C00K  1  0.82767  0.75873  0.71053 11.00000  0.01599   4.66
O00L  3  0.34019  0.73863  0.30804 11.00000  0.06599   3.33
HKLF 4
END
