TITL 2_expF_1_4_expS_1_0_2_a.res in P2(1)/n
REM Old TITL 1 in P2/n
REM SHELXT solution in P2(1)/n: R1 0.303, Rweak 0.019, Alpha 0.044
REM <I/s>   1.524 for  106 systematic absences,  Orientation as input
REM Formula found by SHELXT:  C9 N O

CELL  0.71073   7.0400   9.2900  11.5500   90.000   97.870   90.000
ZERR   16.000   0.0014   0.0019   0.0023    0.000    0.030    0.000
LATT  1
SYMM 1/2-X, 1/2+Y, 1/2-Z
SFAC C N O
UNIT 16 16 16
L.S. 10
BOND
LIST 6
FMAP 2
PLAN 20
N001  2  0.66040  0.07610  0.72154 11.00000  0.04532   6.56
C002  1  0.55312  0.44763  0.33972 11.00000  0.03817   6.40
C003  1  0.78165  0.26383  0.60933 11.00000  0.04575   6.10
C004  1  0.58957  0.35608  0.43806 11.00000  0.04080   6.01
C005  1  0.67671  0.51336  0.27933 11.00000  0.04528   5.99
O006  3  0.85438  0.50547  0.30866 11.00000  0.06233   5.97
C007  1  0.46142  0.17084  0.55541 11.00000  0.04719   5.94
C008  1  0.63343  0.16834  0.62922 11.00000  0.04520   5.81
C009  1  0.76224  0.35839  0.51510 11.00000  0.04799   5.75
C00A  1  0.44073  0.26565  0.46025 11.00000  0.05140   5.68
C00B  1  0.59030  0.59709  0.17618 11.00000  0.05245   5.31
HKLF 4
END
