TITL 2_expF_1_3_expS_1_2_2_a.res in P2(1)/n
REM Old TITL 1 in P2/n
REM SHELXT solution in P2(1)/n: R1 0.293, Rweak 0.020, Alpha 0.042
REM <I/s>   1.506 for  106 systematic absences,  Orientation as input
REM Formula found by SHELXT:  C10 O

CELL  0.71073   7.0400   9.2900  11.5500   90.000   97.870   90.000
ZERR   16.000   0.0014   0.0019   0.0023    0.000    0.030    0.000
LATT  1
SYMM 1/2-X, 1/2+Y, 1/2-Z
SFAC C N O
UNIT 16 16 16
L.S. 10
BOND
LIST 6
FMAP 2
PLAN 20
C001  1  0.33756  0.07768  0.27823 11.00000  0.03204   6.44
C002  1  0.21913  0.26240  0.39054 11.00000  0.04428   6.27
C003  1  0.44644  0.44734  0.65971 11.00000  0.03630   6.23
C004  1  0.53933  0.16936  0.44385 11.00000  0.04663   6.05
O005  3  0.14685  0.50543  0.69224 11.00000  0.05778   5.99
C006  1  0.56040  0.26532  0.53927 11.00000  0.04570   5.98
C007  1  0.24058  0.35719  0.48548 11.00000  0.04145   5.91
C008  1  0.32299  0.51300  0.72092 11.00000  0.04258   5.82
C009  1  0.41134  0.35611  0.56149 11.00000  0.03887   5.75
C00A  1  0.36686  0.16837  0.37051 11.00000  0.04053   5.69
C00B  1  0.41075  0.59933  0.82312 11.00000  0.04847   5.27
HKLF 4
END
