TITL 2_expF_0_7_expS_1_5_2_a.res in Pn
REM Old TITL 1 in P2/n
REM SHELXT solution in Pn: R1 0.254, Rweak 0.182, Alpha 0.105
REM <I/s>   1.417 for   97 systematic absences,  Orientation as input
REM Formula found by SHELXT:  C9 N3 O7

CELL  0.71073   7.0400   9.2900  11.5500   90.000   97.870   90.000
ZERR   16.000   0.0014   0.0019   0.0023    0.000    0.030    0.000
LATT -1
SYMM 1/2+X, -Y, 1/2+Z
SFAC C N O
UNIT 16 16 16
L.S. 10
BOND
LIST 6
FMAP 2
PLAN 20
O001  3  0.73216  0.00965  0.35086 11.00000  0.00454   9.63
O002  3  0.91920  0.34858  0.77626 11.00000  0.00480   8.87
O003  3  0.95861  0.19051  0.61447 11.00000  0.00165   8.55
O004  3  0.16579  0.22563  0.23121 11.00000  0.02140   8.20
N005  2  0.74253  0.10533  0.43858 11.00000  0.00706   8.17
O006  3  0.91769  0.10642  0.52426 11.00000  0.01463   7.88
O007  3  0.66030  0.25053  0.64538 11.00000  0.00813   7.53
N008  2 -0.05476  0.48205  0.42051 11.00000  0.00462   7.31
N009  2  0.83465 -0.17078  0.22374 11.00000  0.01377   6.54
C00A  1  0.35796  0.23709  0.26251 11.00000  0.00633   6.25
C00B  1  0.86687 -0.07716  0.32891 11.00000  0.01304   6.11
C00C  1  1.05476 -0.08146  0.40921 11.00000  0.00274   6.02
C00D  1  0.11786  0.58359  0.58023 11.00000  0.00600   5.80
C00E  1  0.17224  0.67454  0.67328 11.00000  0.00271   5.47
C00F  1 -0.02980  0.57504  0.52196 11.00000  0.01571   4.93
C00G  1  0.07345  0.29778  0.29274 11.00000  0.02365   4.46
C00H  1  0.82882  0.25835  0.67748 11.00000  0.01488   4.08
C00I  1  0.08597  0.38678  0.40111 11.00000  0.02509   3.97
O00J  3  0.63091  0.18753  0.45409 11.00000  0.06906   3.40
HKLF 4
END
