TITL 2_expF_1_0_expS_1_3_2_b.res in Pn
REM Old TITL 1 in P2/n
REM SHELXT solution in Pn: R1 0.228, Rweak 0.057, Alpha 0.034
REM <I/s>   1.270 for  100 systematic absences,  Orientation as input
REM Formula found by SHELXT:  C10 N3 O9

CELL  0.71073   7.0400   9.2900  11.5500   90.000   97.870   90.000
ZERR   16.000   0.0014   0.0019   0.0023    0.000    0.030    0.000
LATT -1
SYMM 1/2+X, -Y, 1/2+Z
SFAC C N O
UNIT 16 16 16
L.S. 10
BOND
LIST 6
FMAP 2
PLAN 20
O001  3  0.15091  0.23964  0.69381 11.00000  0.02060  10.12
O002  3  0.79068  0.01430  0.60202 11.00000  0.02869   9.80
C003  1  0.67887  0.25778  0.27366 11.00000  0.02184   9.04
O004  3  0.67272 -0.17002  0.72493 11.00000  0.01570   8.90
N005  2  0.59842  0.11153  0.43459 11.00000  0.02381   8.70
N006  2  0.37866  0.58295  0.36943 11.00000  0.03138   8.68
O007  3  0.57029  0.48513  0.53797 11.00000  0.03328   8.48
O008  3  0.59476  0.35318  0.17765 11.00000  0.03159   8.16
O009  3  0.54788  0.20142  0.33893 11.00000  0.03125   7.85
O00A  3  0.54104  0.57976  0.43796 11.00000  0.04220   7.71
O00B  3  0.44453  0.30306  0.65990 11.00000  0.03314   7.64
N00C  2  0.25834  0.39033  0.48669 11.00000  0.02938   7.29
C00D  1  0.46551 -0.07922  0.54766 11.00000  0.02935   6.19
C00E  1  0.77456  0.10339  0.51369 11.00000  0.01596   6.17
C00F  1  0.34581  0.68107  0.28643 11.00000  0.02885   6.06
C00G  1  0.32627  0.23352  0.71506 11.00000  0.01782   5.32
C00H  1  0.64300 -0.08012  0.62870 11.00000  0.02112   5.24
C00I  1  0.42225  0.39850  0.55704 11.00000  0.02485   5.17
O00J  3  0.84909  0.25204  0.31101 11.00000  0.04318   4.77
C00K  1  0.40879  0.14940  0.82235 11.00000  0.03618   4.68
C00L  1  0.22781  0.48708  0.38047 11.00000  0.02705   4.55
C00M  1  0.45208  0.01017  0.45545 11.00000  0.03216   4.54
HKLF 4
END
