TITL 2_expF_0_7_expS_0_9_2_a.res in Pn
REM Old TITL 1 in P2/n
REM SHELXT solution in Pn: R1 0.248, Rweak 0.175, Alpha 0.068
REM <I/s>   1.033 for  100 systematic absences,  Orientation as input
REM Formula found by SHELXT:  C11 N3 O6

CELL  0.71073   7.0400   9.2900  11.5500   90.000   97.870   90.000
ZERR   16.000   0.0014   0.0019   0.0023    0.000    0.030    0.000
LATT -1
SYMM 1/2+X, -Y, 1/2+Z
SFAC C N O
UNIT 16 16 16
L.S. 10
BOND
LIST 6
FMAP 2
PLAN 20
O001  3  0.39980  0.74343  0.44026 11.00000  0.00010  10.69
N002  2  0.33921  0.39197  0.68770 11.00000  0.00010  10.41
O003  3  0.52284  0.48635  0.85453 11.00000  0.01759  10.14
O004  3  0.41993  0.67424  0.97426 11.00000  0.02909   8.17
O005  3  0.70248  0.80278  0.41297 11.00000  0.02822   7.59
O006  3  0.81168  0.98423  0.29220 11.00000  0.01927   7.33
N007  2  0.43211  0.25266  0.53013 11.00000  0.01615   7.22
N008  2  0.51576  0.39494  0.75849 11.00000  0.02046   6.78
C009  1  0.34441  0.16060  0.42855 11.00000  0.00879   6.24
C00A  1  0.21907  0.57361  0.80665 11.00000  0.00548   6.19
C00B  1  0.30682  0.30225  0.59223 11.00000  0.01072   6.18
C00C  1  0.60958  1.08147  0.10938 11.00000  0.03366   5.88
C00D  1  0.65775  0.63677  0.57817 11.00000  0.01615   5.77
C00E  1  0.57484  0.71916  0.46594 11.00000  0.00947   5.42
C00F  1  0.38100  0.58275  0.87788 11.00000  0.01125   5.28
C00G  1  0.80764  1.08636  0.19978 11.00000  0.03348   4.85
O00H  3  0.49725  0.88744  0.22787 11.00000  0.03727   4.56
C00I  1  0.58684  1.17146  0.02574 11.00000  0.01448   4.42
C00J  1  0.18832  0.49075  0.70679 11.00000  0.03443   3.95
C00K  1  0.45844  0.98967  0.13029 11.00000  0.02583   3.04
HKLF 4
END
