TITL 2_expF_1_1_expS_0_8_2_b.res in Pn
REM Old TITL 1 in P2/n
REM SHELXT solution in Pn: R1 0.247, Rweak 0.029, Alpha 0.025
REM <I/s>   1.123 for  100 systematic absences,  Orientation as input
REM Formula found by SHELXT:  C10 N6 O5

CELL  0.71073   7.0400   9.2900  11.5500   90.000   97.870   90.000
ZERR   16.000   0.0014   0.0019   0.0023    0.000    0.030    0.000
LATT -1
SYMM 1/2+X, -Y, 1/2+Z
SFAC C N O
UNIT 16 16 16
L.S. 10
BOND
LIST 6
FMAP 2
PLAN 20
N001  2  0.90984  0.89311  0.56263 11.00000  0.00779  10.40
C002  1  0.81965  0.74032  0.71931 11.00000  0.03031   8.63
N003  2  0.13348  0.41870  0.63285 11.00000  0.03780   8.22
N004  2  1.02925  1.07560  0.44571 11.00000  0.02405   7.46
O005  3  0.04551  0.69458  0.34238 11.00000  0.04832   7.44
O006  3 -0.05677  0.51610  0.45962 11.00000  0.04753   7.24
O007  3  0.83120  1.17359  0.28042 11.00000  0.03674   7.23
N008  2  0.71785  0.98625  0.39332 11.00000  0.03447   7.11
N009  2  0.25203  0.60574  0.51812 11.00000  0.03642   6.68
O00A  3  0.34898  0.75826  0.31117 11.00000  0.03331   6.56
N00B  2  0.15464  0.32493  0.72449 11.00000  0.03856   6.52
O00C  3  0.64598  0.74684  0.69227 11.00000  0.05597   6.36
C00D  1  0.28282  0.51225  0.61186 11.00000  0.03817   6.26
C00E  1  0.90931  0.65302  0.82385 11.00000  0.03235   6.22
C00F  1  0.94235  0.79887  0.66315 11.00000  0.02406   6.08
C00G  1 -0.05982  0.41245  0.55424 11.00000  0.06291   5.45
C00H  1  0.09353  0.85587  0.17615 11.00000  0.03992   5.36
C00I  1  0.72904  0.89124  0.48783 11.00000  0.03752   5.24
C00J  1  0.17604  0.76509  0.27929 11.00000  0.03171   4.53
C00K  1  1.05982  0.98958  0.54236 11.00000  0.03864   4.52
C00L  1  0.86903  1.08173  0.37132 11.00000  0.03764   4.04
HKLF 4
END
