TITL 2_expF_1_2_expS_1_5_2_b.res in Pn
REM Old TITL 1 in P2/n
REM SHELXT solution in Pn: R1 0.250, Rweak 0.042, Alpha 0.014
REM <I/s>   1.455 for  100 systematic absences,  Orientation as input
REM Formula found by SHELXT:  C13 N5 O4

CELL  0.71073   7.0400   9.2900  11.5500   90.000   97.870   90.000
ZERR   16.000   0.0014   0.0019   0.0023    0.000    0.030    0.000
LATT -1
SYMM 1/2+X, -Y, 1/2+Z
SFAC C N O
UNIT 16 16 16
L.S. 10
BOND
LIST 6
FMAP 2
PLAN 20
N001  2  0.58377  0.89489  0.43598 11.00000  0.03150   9.16
O002  3  0.66715  1.16645  0.72283 11.00000  0.03817   8.12
O003  3  0.77565  0.98580  0.60251 11.00000  0.03706   8.06
O004  3  0.55060  0.51678  0.54006 11.00000  0.06067   7.74
N005  2  0.44249  0.69767  0.66093 11.00000  0.04637   7.27
O006  3  0.14908  0.75763  0.69042 11.00000  0.03808   7.26
N007  2  0.67270  0.74496  0.27630 11.00000  0.04403   7.23
N008  2  0.45695  1.08125  0.55130 11.00000  0.03315   7.09
N009  2  0.36532  0.41661  0.36943 11.00000  0.04179   6.64
C00A  1  0.23778  0.60525  0.48069 11.00000  0.02961   6.47
C00B  1  0.58612  0.65485  0.17635 11.00000  0.03311   6.25
C00C  1  0.54852  0.80123  0.33987 11.00000  0.02276   6.06
C00D  1  0.53205  0.42273  0.43601 11.00000  0.05854   5.79
C00E  1  0.34228  0.32100  0.27848 11.00000  0.03236   5.55
C00F  1  0.85092  0.74495  0.30610 11.00000  0.03541   5.46
C00G  1  0.75832  0.89221  0.51040 11.00000  0.04556   5.46
C00H  1  0.31606  0.76773  0.71843 11.00000  0.03637   5.32
C00I  1  0.62807  1.08188  0.62976 11.00000  0.03973   5.16
C00J  1  0.20946  0.51244  0.38033 11.00000  0.05740   5.03
C00K  1  0.40125  0.85809  0.82365 11.00000  0.04426   4.86
C00L  1  0.43201  0.99054  0.45864 11.00000  0.03531   4.04
C00M  1  0.40862  0.60855  0.55886 11.00000  0.04800   3.15
HKLF 4
END
