TITL 2_expF_1_5_expS_1_4_2_c.res in P2(1)
REM Old TITL 1 in P2/n
REM SHELXT solution in P2(1): R1 0.333, Rweak 0.014, Alpha 0.044
REM <I/s>   4.116 for    6 systematic absences,  Orientation as input
REM Formula found by SHELXT:  C20 O2

CELL  0.71073   7.0400   9.2900  11.5500   90.000   97.870   90.000
ZERR   16.000   0.0014   0.0019   0.0023    0.000    0.030    0.000
LATT -1
SYMM -X, 1/2+Y, -Z
SFAC C N O
UNIT 16 16 16
L.S. 10
BOND
LIST 6
FMAP 2
PLAN 20
C001  1  0.41364  0.33253  0.97228 11.00000  0.03925   6.47
C002  1  0.38039  0.41863  0.87878 11.00000  0.05018   6.43
C003  1  0.91253  0.67757  0.47251 11.00000  0.03923   6.32
C004  1  0.33840  0.60340  0.68724 11.00000  0.04661   6.29
C005  1  1.03557  0.48837  0.35956 11.00000  0.04860   6.28
C006  1  0.30481  0.70345  0.59147 11.00000  0.04008   6.25
C007  1  0.20817  0.41795  0.80866 11.00000  0.05756   6.18
C008  1  1.01038  0.39634  0.26476 11.00000  0.05384   6.17
C009  1  0.80018  0.30695  0.08963 11.00000  0.05163   6.13
C00A  1  0.53153  0.51438  0.85933 11.00000  0.05383   5.97
C00B  1  0.72025  0.57748  0.30442 11.00000  0.05098   5.92
C00C  1  0.18903  0.51356  0.71029 11.00000  0.05176   5.91
O00D  3  0.60191  0.76388  0.55841 11.00000  0.07255   5.80
C00E  1  0.93115  0.23382  0.02874 11.00000  0.04907   5.74
O00F  3  1.10257  0.25033  0.05992 11.00000  0.05537   5.69
C00G  1  0.83870  0.39139  0.18788 11.00000  0.04489   5.68
C00H  1  0.42749  0.75941  0.53088 11.00000  0.05324   5.62
C00I  1  0.69225  0.48529  0.21041 11.00000  0.05377   5.43
C00J  1  0.34670  0.84884  0.42773 11.00000  0.06023   5.28
C00K  1  0.50831  0.60917  0.76553 11.00000  0.04747   5.24
C00L  1  0.83531  0.15116 -0.07387 11.00000  0.05436   4.96
C00M  1  0.88171  0.58145  0.38110 11.00000  0.05300   4.96
HKLF 4
END
