TITL 2_expF_1_0_expS_0_8_2_a.res in P2(1)/n
REM Old TITL 1 in P2/n
REM SHELXT solution in P2(1)/n: R1 0.266, Rweak 0.065, Alpha 0.120
REM <I/s>   1.189 for  106 systematic absences,  Orientation as input
REM Formula found by SHELXT:  C9 N O

CELL  0.71073   7.0400   9.2900  11.5500   90.000   97.870   90.000
ZERR   16.000   0.0014   0.0019   0.0023    0.000    0.030    0.000
LATT  1
SYMM 1/2-X, 1/2+Y, 1/2-Z
SFAC C N O
UNIT 16 16 16
L.S. 10
BOND
LIST 6
FMAP 2
PLAN 20
N001  2  0.55082  0.55122  0.33909 11.00000  0.03338   6.52
O002  3  0.85052  0.49422  0.30843 11.00000  0.04373   6.34
C003  1  0.67822  0.48808  0.27871 11.00000  0.02470   6.20
C004  1  0.66353  0.92462  0.72194 11.00000  0.02128   6.18
C005  1  0.78153  0.73671  0.61014 11.00000  0.02881   6.10
C006  1  0.58838  0.64266  0.43842 11.00000  0.02575   5.94
C007  1  0.63358  0.82991  0.63024 11.00000  0.02820   5.77
C008  1  0.46076  0.82897  0.55500 11.00000  0.03210   5.75
C009  1  0.75934  0.64298  0.51472 11.00000  0.02809   5.73
C00A  1  0.43961  0.73513  0.45925 11.00000  0.03018   5.66
C00B  1  0.59173  0.39922  0.17677 11.00000  0.03029   5.46
HKLF 4
END
