TITL 2_expF_1_5_expS_1_3_2_b.res in Pn
REM Old TITL 1 in P2/n
REM SHELXT solution in Pn: R1 0.326, Rweak 0.014, Alpha 0.008
REM <I/s>   1.244 for  100 systematic absences,  Orientation as input
REM Formula found by SHELXT:  C18 N O3

CELL  0.71073   7.0400   9.2900  11.5500   90.000   97.870   90.000
ZERR   16.000   0.0014   0.0019   0.0023    0.000    0.030    0.000
LATT -1
SYMM 1/2+X, -Y, 1/2+Z
SFAC C N O
UNIT 16 16 16
L.S. 10
BOND
LIST 6
FMAP 2
PLAN 20
O001  3  0.17390 -0.17051  0.72232 11.00000  0.04757   7.87
O002  3  0.65645  0.24150  0.69020 11.00000  0.05937   7.31
N003  2  0.28357  0.01411  0.60617 11.00000  0.04697   7.28
C004  1  0.09315  0.10673  0.43952 11.00000  0.04199   6.48
C005  1  0.05720  0.19791  0.34294 11.00000  0.04499   6.38
C006  1  0.26144  0.10446  0.51191 11.00000  0.04925   6.34
C007  1  1.05938  0.48586  0.53822 11.00000  0.04814   6.31
C008  1 -0.03534 -0.07897  0.55926 11.00000  0.05080   6.20
C009  1  0.95204  0.30184  0.66216 11.00000  0.04089   6.19
C00A  1  1.03636  0.58099  0.44774 11.00000  0.05509   6.18
C00B  1  0.18522  0.25453  0.27961 11.00000  0.04667   6.01
C00C  1  0.13368 -0.07882  0.63001 11.00000  0.04718   5.85
C00D  1  0.91508  0.39291  0.56450 11.00000  0.04766   5.81
C00E  1  0.87283  0.58527  0.36914 11.00000  0.05219   5.76
C00F  1  0.91095  0.14906  0.82338 11.00000  0.05347   5.75
C00G  1  0.82679  0.23196  0.71964 11.00000  0.05031   5.54
C00H  1  0.85172  0.67708  0.27838 11.00000  0.04872   5.48
C00I  1  0.74267  0.39197  0.48056 11.00000  0.04626   5.28
C00J  1  0.71436  0.48682  0.38703 11.00000  0.06249   5.25
C00K  1 -0.05938  0.01202  0.45902 11.00000  0.05207   5.12
C00L  1  0.09324  0.34630  0.17662 11.00000  0.05923   4.88
O00M  3  0.36158  0.25255  0.30764 11.00000  0.06303   4.40
HKLF 4
END
