TITL 2_expF_1_4_expS_0_5_2_a.res in P2(1)/n
REM Old TITL 1 in P2/n
REM SHELXT solution in P2(1)/n: R1 0.303, Rweak 0.019, Alpha 0.049
REM <I/s>   1.625 for  106 systematic absences,  Orientation as input
REM Formula found by SHELXT:  C9 N O

CELL  0.71073   7.0400   9.2900  11.5500   90.000   97.870   90.000
ZERR   16.000   0.0014   0.0019   0.0023    0.000    0.030    0.000
LATT  1
SYMM 1/2-X, 1/2+Y, 1/2-Z
SFAC C N O
UNIT 16 16 16
L.S. 10
BOND
LIST 6
FMAP 2
PLAN 20
N001  2  0.34038  0.07623  0.27924 11.00000  0.04786   6.54
C002  1  0.44779  0.44727  0.66046 11.00000  0.03938   6.37
C003  1  0.21647  0.26299  0.38953 11.00000  0.04705   6.08
C004  1  0.41027  0.35466  0.56208 11.00000  0.04301   6.03
C005  1  0.32474  0.51396  0.72119 11.00000  0.04840   5.99
C006  1  0.53870  0.17183  0.44485 11.00000  0.04694   5.96
O007  3  0.14393  0.50513  0.69065 11.00000  0.06677   5.96
C008  1  0.36533  0.16727  0.37106 11.00000  0.04646   5.82
C009  1  0.23898  0.35998  0.48473 11.00000  0.05098   5.75
C00A  1  0.55669  0.26543  0.53932 11.00000  0.05438   5.66
C00B  1  0.40761  0.59529  0.82377 11.00000  0.05346   5.33
HKLF 4
END
