TITL 2_expF_0_9_expS_1_1_2_a.res in P2(1)/n
REM Old TITL 1 in P2/n
REM SHELXT solution in P2(1)/n: R1 0.274, Rweak 0.095, Alpha 0.163
REM <I/s>   1.172 for  106 systematic absences,  Orientation as input
REM Formula found by SHELXT:  C9 N O

CELL  0.71073   7.0400   9.2900  11.5500   90.000   97.870   90.000
ZERR   16.000   0.0014   0.0019   0.0023    0.000    0.030    0.000
LATT  1
SYMM 1/2-X, 1/2+Y, 1/2-Z
SFAC C N O
UNIT 16 16 16
L.S. 10
BOND
LIST 6
FMAP 2
PLAN 20
N001  2  0.55199  0.44870  0.33896 11.00000  0.02635   6.52
O002  3  0.85007  0.50670  0.30831 11.00000  0.03176   6.51
C003  1  0.66599  0.07546  0.72199 11.00000  0.01662   6.27
C004  1  0.58881  0.35711  0.43822 11.00000  0.02280   6.12
C005  1  0.67830  0.51229  0.27843 11.00000  0.02054   6.12
C006  1  0.77982  0.26439  0.61012 11.00000  0.02182   6.08
C007  1  0.63198  0.17000  0.62962 11.00000  0.02317   5.93
C008  1  0.76074  0.35718  0.51501 11.00000  0.02268   5.64
C009  1  0.45968  0.17144  0.55474 11.00000  0.02531   5.59
C00A  1  0.43867  0.26384  0.45937 11.00000  0.02440   5.55
C00B  1  0.59076  0.60083  0.17666 11.00000  0.02303   5.51
HKLF 4
END
