TITL 2_expF_0_8_expS_1_4_2_c.res in P2(1)
REM Old TITL 1 in P2/n
REM SHELXT solution in P2(1): R1 0.254, Rweak 0.134, Alpha 0.184
REM <I/s>   0.766 for    6 systematic absences,  Orientation as input
REM Formula found by SHELXT:  C16 N3 O3

CELL  0.71073   7.0400   9.2900  11.5500   90.000   97.870   90.000
ZERR   16.000   0.0014   0.0019   0.0023    0.000    0.030    0.000
LATT -1
SYMM -X, 1/2+Y, -Z
SFAC C N O
UNIT 16 16 16
L.S. 10
BOND
LIST 6
FMAP 2
PLAN 20
O001  3  0.60630  0.75632  0.55561 11.00000  0.02630   8.33
N002  2  0.49988  0.60426  0.76510 11.00000  0.03228   7.17
C003  1  0.33219  0.62074  0.68550 11.00000  0.01795   7.03
O004  3  0.91985  0.68118  0.46985 11.00000  0.04055   6.67
N005  2  0.29687  0.70906  0.58863 11.00000  0.02960   6.64
N006  2  0.84503  0.14865 -0.06063 11.00000  0.02998   6.53
C007  1  0.43435  0.77198  0.53273 11.00000  0.01675   6.25
C008  1  0.88728  0.58505  0.37604 11.00000  0.01301   6.15
C009  1  0.92246  0.24570  0.02534 11.00000  0.01739   5.99
C00A  1  0.80693  0.31300  0.09081 11.00000  0.01176   5.72
C00B  1  0.21108  0.43472  0.80982 11.00000  0.01689   5.72
C00C  1  0.54039  0.50863  0.86253 11.00000  0.02404   5.69
C00D  1  0.36665  0.42484  0.88553 11.00000  0.02792   5.66
C00E  1  1.01866  0.47914  0.35768 11.00000  0.01478   5.64
C00F  1  0.68546  0.49453  0.20651 11.00000  0.02531   5.61
C00G  1  0.70391  0.59487  0.29742 11.00000  0.03280   5.59
C00H  1  0.19015  0.51655  0.71049 11.00000  0.01951   5.09
C00I  1  0.41535  0.33353  0.97591 11.00000  0.01093   5.06
C00J  1  0.84397  0.40664  0.19457 11.00000  0.02316   4.86
C00K  1  0.34256  0.85135  0.41775 11.00000  0.01159   4.19
O00L  3  1.09638  0.24501  0.06215 11.00000  0.02923   4.03
C00M  1  1.02422  0.39359  0.26592 11.00000  0.01297   3.90
HKLF 4
END
