TITL 2_expF_1_4_expS_1_3_2_b.res in Pn
REM Old TITL 1 in P2/n
REM SHELXT solution in Pn: R1 0.289, Rweak 0.017, Alpha 0.015
REM <I/s>   1.539 for  100 systematic absences,  Orientation as input
REM Formula found by SHELXT:  C13 N6 O3

CELL  0.71073   7.0400   9.2900  11.5500   90.000   97.870   90.000
ZERR   16.000   0.0014   0.0019   0.0023    0.000    0.030    0.000
LATT -1
SYMM 1/2+X, -Y, 1/2+Z
SFAC C N O
UNIT 16 16 16
L.S. 10
BOND
LIST 6
FMAP 2
PLAN 20
N001  2  0.17745  0.75724  0.27654 11.00000  0.04969   7.30
O002  3  0.16430  0.32561  0.72423 11.00000  0.04851   7.25
N003  2  0.27587  0.51369  0.61161 11.00000  0.05250   7.16
N004  2  0.08176  0.60323  0.43541 11.00000  0.04747   7.11
O005  3  0.65207  0.73989  0.69469 11.00000  0.05715   7.01
N006  2  0.05005  0.69868  0.34137 11.00000  0.04606   6.98
N007  2 -0.04630  0.41557  0.55493 11.00000  0.05047   6.78
N008  2  0.86509  1.07964  0.37233 11.00000  0.04744   6.77
C009  1  0.25744  0.60535  0.51761 11.00000  0.04824   6.03
C00A  1  0.90423  0.65479  0.82336 11.00000  0.05424   6.00
C00B  1  0.84192  1.17160  0.28052 11.00000  0.03745   5.97
C00C  1 -0.05897  0.51015  0.45729 11.00000  0.04860   5.97
C00D  1  1.02893  1.07304  0.44315 11.00000  0.05180   5.61
C00E  1  0.94390  0.80263  0.66164 11.00000  0.03725   5.61
C00F  1  1.05897  0.97999  0.53761 11.00000  0.04428   5.59
C00G  1  0.73583  0.89104  0.48696 11.00000  0.04286   5.56
C00H  1  0.71273  0.98544  0.39328 11.00000  0.04585   5.42
C00I  1  0.90460  0.89037  0.55951 11.00000  0.03773   5.35
O00J  3  0.35799  0.75372  0.31096 11.00000  0.05305   4.86
C00K  1  0.08646  0.85199  0.17664 11.00000  0.04669   4.85
C00L  1  0.12857  0.41509  0.63223 11.00000  0.05319   4.75
C00M  1  0.82064  0.73257  0.71566 11.00000  0.04232   4.54
HKLF 4
END
