TITL 2_expF_1_5_expS_1_2_2_c.res in P2(1)
REM Old TITL 1 in P2/n
REM SHELXT solution in P2(1): R1 0.323, Rweak 0.014, Alpha 0.052
REM <I/s>   5.577 for    6 systematic absences,  Orientation as input
REM Formula found by SHELXT:  C19 N O2

CELL  0.71073   7.0400   9.2900  11.5500   90.000   97.870   90.000
ZERR   16.000   0.0014   0.0019   0.0023    0.000    0.030    0.000
LATT -1
SYMM -X, 1/2+Y, -Z
SFAC C N O
UNIT 16 16 16
L.S. 10
BOND
LIST 6
FMAP 2
PLAN 20
N001  2  0.16053  0.39922  0.81295 11.00000  0.06049   6.61
C002  1  0.58689  0.32663  0.02696 11.00000  0.04130   6.47
C003  1  0.19666  0.29886  0.90895 11.00000  0.04346   6.46
C004  1  0.46530  0.51208  0.14130 11.00000  0.04981   6.43
C005  1  0.08719  0.67107  0.52869 11.00000  0.04070   6.42
C006  1  0.77707  0.42416  0.19487 11.00000  0.05612   6.38
C007  1  0.48974  0.60495  0.23489 11.00000  0.05348   6.32
C008  1  0.11877  0.58619  0.62177 11.00000  0.05134   6.07
C009  1  0.31036  0.48614  0.78960 11.00000  0.05213   5.98
C00A  1 -0.03203  0.48656  0.63983 11.00000  0.05519   5.91
C00B  1  0.29265  0.58438  0.69218 11.00000  0.05599   5.87
C00C  1  0.15312  0.15074  1.07240 11.00000  0.06442   5.87
C00D  1  0.07268  0.24279  0.96979 11.00000  0.05482   5.85
C00E  1  0.69927  0.69476  0.41003 11.00000  0.05120   5.85
O00F  3  0.39841  0.75216  0.44086 11.00000  0.05820   5.71
O00G  3 -0.10220  0.23921  0.94005 11.00000  0.07783   5.69
C00H  1  0.66107  0.61055  0.31222 11.00000  0.04553   5.50
C00I  1  0.56767  0.76831  0.47071 11.00000  0.05120   5.44
C00J  1  0.61895  0.42305  0.11841 11.00000  0.05473   5.32
C00K  1  0.80712  0.51411  0.29057 11.00000  0.05723   5.27
C00L  1 -0.00678  0.39251  0.73486 11.00000  0.05149   5.06
C00M  1  0.66357  0.84926  0.57330 11.00000  0.05490   4.31
HKLF 4
END
