TITL 2_expF_0_6_expS_1_3_2_a.res in Pn
REM Old TITL 1 in P2/n
REM SHELXT solution in Pn: R1 0.268, Rweak 0.286, Alpha 0.170
REM <I/s>   1.294 for   97 systematic absences,  Orientation as input
REM Formula found by SHELXT:  C13 N3 O4

CELL  0.71073   7.0400   9.2900  11.5500   90.000   97.870   90.000
ZERR   16.000   0.0014   0.0019   0.0023    0.000    0.030    0.000
LATT -1
SYMM 1/2+X, -Y, 1/2+Z
SFAC C N O
UNIT 16 16 16
L.S. 10
BOND
LIST 6
FMAP 2
PLAN 20
N001  2  0.89342  0.90150  0.57016 11.00000  0.00367  10.16
O002  3  0.72292  0.98061  0.40390 11.00000  0.00010   9.65
N003  2  0.80213  0.74563  0.73581 11.00000  0.02095   7.93
C004  1  0.13543  0.41976  0.63401 11.00000  0.01773   7.19
N005  2  0.94054  0.79357  0.67154 11.00000  0.00010   7.14
O006  3  0.63058  0.74058  0.69986 11.00000  0.01775   6.71
C007  1  0.90472  0.65605  0.82932 11.00000  0.00010   6.31
C008  1  0.25408  0.61173  0.53724 11.00000  0.01724   5.83
O009  3  0.33320  0.75316  0.31388 11.00000  0.01819   5.70
C00A  1  0.81245  1.16202  0.27800 11.00000  0.00010   5.64
C00B  1 -0.05746  0.43004  0.56638 11.00000  0.00667   5.25
O00C  3  0.14507  0.30823  0.71830 11.00000  0.04374   5.24
C00D  1  1.06360  0.98685  0.55050 11.00000  0.01724   5.21
C00E  1  1.02308  1.08354  0.45900 11.00000  0.02187   5.04
C00F  1 -0.06360  0.50961  0.46997 11.00000  0.02055   4.98
C00G  1  0.05190  0.68418  0.35368 11.00000  0.03463   4.76
C00H  1  0.08065  0.84855  0.17068 11.00000  0.02477   4.26
C00I  1  0.15172  0.76311  0.29410 11.00000  0.01957   3.68
C00J  1  0.86454  1.08332  0.37942 11.00000  0.00801   3.63
C00K  1  0.72132  0.89068  0.50064 11.00000  0.00581   3.26
HKLF 4
END
