TITL 2_expF_0_7_expS_0_5_2_a.res in Pn
REM Old TITL 1 in P2/n
REM SHELXT solution in Pn: R1 0.249, Rweak 0.184, Alpha 0.079
REM <I/s>   0.877 for  100 systematic absences,  Orientation as input
REM Formula found by SHELXT:  C11 N4 O4

CELL  0.71073   7.0400   9.2900  11.5500   90.000   97.870   90.000
ZERR   16.000   0.0014   0.0019   0.0023    0.000    0.030    0.000
LATT -1
SYMM 1/2+X, -Y, 1/2+Z
SFAC C N O
UNIT 16 16 16
L.S. 10
BOND
LIST 6
FMAP 2
PLAN 20
N001  2  0.14653  1.08446  0.62655 11.00000  0.00010  10.95
O002  3  0.92202  0.60817  0.55785 11.00000  0.00272  10.38
C003  1  0.81845  0.75967  0.71749 11.00000  0.01263   9.55
O004  3 -0.04287  0.98367  0.45541 11.00000  0.01010   7.89
O005  3  0.35955  0.73754  0.30330 11.00000  0.00954   7.35
N006  2  0.17833  1.16987  0.72283 11.00000  0.01371   6.82
N007  2  0.05867  0.80388  0.33802 11.00000  0.01656   6.57
C008  1  0.73581  0.52155  0.38564 11.00000  0.02258   6.25
C009  1  0.95636  0.70261  0.65960 11.00000  0.02119   6.16
C00A  1  1.04642  0.42823  0.43966 11.00000  0.01192   6.06
C00B  1  0.92069  0.84630  0.82169 11.00000  0.01645   5.88
O00C  3  0.66146  0.75110  0.67876 11.00000  0.04470   5.55
C00D  1  0.29908  0.99398  0.60651 11.00000  0.01206   5.42
C00E  1  0.10665  0.64575  0.17831 11.00000  0.01455   5.41
C00F  1  0.74805  0.60943  0.48261 11.00000  0.02279   5.20
C00G  1  0.26465  0.89348  0.51381 11.00000  0.01704   4.93
N00H  2  0.84959  0.31869  0.28008 11.00000  0.02911   4.88
C00I  1 -0.04642  1.09109  0.53916 11.00000  0.05415   3.69
C00J  1  0.17829  0.73623  0.27862 11.00000  0.01705   3.09
HKLF 4
END
