TITL 2_expF_0_8_expS_1_1_2_a.res in Pn
REM Old TITL 1 in P2/n
REM SHELXT solution in Pn: R1 0.236, Rweak 0.122, Alpha 0.074
REM <I/s>   1.131 for  100 systematic absences,  Orientation as input
REM Formula found by SHELXT:  C11 N3 O5

CELL  0.71073   7.0400   9.2900  11.5500   90.000   97.870   90.000
ZERR   16.000   0.0014   0.0019   0.0023    0.000    0.030    0.000
LATT -1
SYMM 1/2+X, -Y, 1/2+Z
SFAC C N O
UNIT 16 16 16
L.S. 10
BOND
LIST 6
FMAP 2
PLAN 20
N001  2  0.08446  0.60496  0.43312 11.00000  0.00010   9.67
O002  3  0.16484  0.32835  0.71674 11.00000  0.00528   9.49
O003  3  0.87215  1.08637  0.36620 11.00000  0.01159   9.04
N004  2  0.17419  0.76518  0.27366 11.00000  0.02139   8.99
O005  3  0.28672  0.51757  0.60271 11.00000  0.03040   8.66
O006  3  1.06083  0.98665  0.53846 11.00000  0.04057   7.84
N007  2  0.05722  0.70154  0.33578 11.00000  0.00871   7.49
C008  1  0.65208  0.73951  0.68592 11.00000  0.00722   7.35
C009  1  0.08958  0.85490  0.17602 11.00000  0.01419   6.22
C00A  1  0.89850  0.65459  0.82398 11.00000  0.02582   6.10
O00B  3  0.35479  0.75368  0.30228 11.00000  0.02473   5.82
C00C  1  0.74411  0.89954  0.47921 11.00000  0.01994   5.79
C00D  1  0.96531  0.80460  0.65914 11.00000  0.02897   5.78
C00E  1 -0.03421  0.42914  0.55084 11.00000  0.01366   5.63
C00F  1  1.05297  1.09167  0.44556 11.00000  0.02933   5.45
C00G  1  0.25803  0.61304  0.50976 11.00000  0.01923   5.40
C00H  1  0.81748  0.73845  0.71561 11.00000  0.01750   4.35
C00I  1  0.72096  0.99033  0.38285 11.00000  0.01770   3.76
C00J  1 -0.06083  0.50914  0.45573 11.00000  0.01627   3.38
HKLF 4
END
