TITL 2_expF_0_8_expS_1_0_2_b.res in P2(1)
REM Old TITL 1 in P2/n
REM SHELXT solution in P2(1): R1 0.240, Rweak 0.128, Alpha 0.212
REM <I/s>   1.402 for    6 systematic absences,  Orientation as input
REM Formula found by SHELXT:  C14 N3 O5

CELL  0.71073   7.0400   9.2900  11.5500   90.000   97.870   90.000
ZERR   16.000   0.0014   0.0019   0.0023    0.000    0.030    0.000
LATT -1
SYMM -X, 1/2+Y, -Z
SFAC C N O
UNIT 16 16 16
L.S. 10
BOND
LIST 6
FMAP 2
PLAN 20
O001  3  0.70279  0.70196  0.41308 11.00000  0.03069   8.94
O002  3 -0.10647  0.25269  0.93791 11.00000  0.01383   8.70
O003  3  0.64927  0.85183  0.57063 11.00000  0.02934   8.12
O004  3  0.08621  0.66847  0.52068 11.00000  0.01097   8.03
N005  2 -0.03416  0.49019  0.63578 11.00000  0.03764   7.47
N006  2  0.29486  0.57254  0.68868 11.00000  0.01647   7.00
C007  1  0.57523  0.76471  0.46927 11.00000  0.01377   6.90
N008  2  0.31281  0.47696  0.78914 11.00000  0.02340   6.89
C009  1  0.12058  0.58258  0.62183 11.00000  0.02337   6.36
C00A  1 -0.00850  0.39431  0.73330 11.00000  0.01691   6.21
C00B  1  0.65120  0.60579  0.30651 11.00000  0.02883   6.21
C00C  1  0.06652  0.23771  0.97400 11.00000  0.02077   6.13
C00D  1  0.16919  0.39069  0.81448 11.00000  0.00710   5.89
C00E  1  0.57869  0.31363  0.03783 11.00000  0.01866   5.78
C00F  1  0.61522  0.42441  0.11782 11.00000  0.01737   5.77
C00G  1  0.48864  0.60900  0.23722 11.00000  0.01804   5.41
C00H  1  0.47325  0.52023  0.14108 11.00000  0.01205   4.98
C00I  1  0.78855  0.41356  0.20314 11.00000  0.03055   4.77
C00J  1  0.19295  0.30250  0.90715 11.00000  0.01072   4.35
C00K  1  0.80945  0.50093  0.29143 11.00000  0.02028   4.33
O00L  3  0.40303  0.77106  0.44506 11.00000  0.03672   4.30
C00M  1  0.16946  0.14817  1.07460 11.00000  0.02836   3.65
HKLF 4
END
