TITL 2_expF_0_8_expS_0_5_2_b.res in P2(1)
REM Old TITL 1 in P2/n
REM SHELXT solution in P2(1): R1 0.246, Rweak 0.132, Alpha 0.229
REM <I/s>   3.035 for    6 systematic absences,  Orientation as input
REM Formula found by SHELXT:  C12 N7 O3

CELL  0.71073   7.0400   9.2900  11.5500   90.000   97.870   90.000
ZERR   16.000   0.0014   0.0019   0.0023    0.000    0.030    0.000
LATT -1
SYMM -X, 1/2+Y, -Z
SFAC C N O
UNIT 16 16 16
L.S. 10
BOND
LIST 6
FMAP 2
PLAN 20
N001  2  0.92756  0.23714  0.02892 11.00000  0.02188   8.74
O002  3  0.79840  0.30716  0.08781 11.00000  0.03179   7.99
N003  2  0.33508  0.61201  0.68220 11.00000  0.02389   7.72
O004  3  0.60332  0.76554  0.55489 11.00000  0.02467   7.40
N005  2  0.87900  0.58241  0.38242 11.00000  0.01866   7.00
N006  2  0.40844  0.34984  0.97618 11.00000  0.01620   6.96
N007  2  0.33376  0.85249  0.41944 11.00000  0.01945   6.86
N008  2  0.69512  0.49943  0.20449 11.00000  0.03138   6.81
N009  2  1.01059  0.40781  0.26583 11.00000  0.02593   6.69
C00A  1  1.03180  0.50530  0.35843 11.00000  0.01406   6.21
C00B  1  0.71761  0.59812  0.29767 11.00000  0.02401   6.00
C00C  1  0.53251  0.53368  0.86542 11.00000  0.02524   5.91
C00D  1  0.20315  0.43973  0.81039 11.00000  0.01599   5.87
O00E  3  1.09917  0.25209  0.06441 11.00000  0.03726   5.74
C00F  1  0.92218  0.69569  0.46915 11.00000  0.01027   5.49
C00G  1  0.30873  0.70956  0.59209 11.00000  0.01778   5.32
C00H  1  0.85311  0.14751 -0.06375 11.00000  0.01925   4.88
C00I  1  0.38929  0.41585  0.87794 11.00000  0.03118   4.79
C00J  1  0.84336  0.39645  0.19372 11.00000  0.02019   4.55
C00K  1  0.50714  0.62248  0.76297 11.00000  0.02273   4.54
C00L  1  0.18716  0.53100  0.71289 11.00000  0.02338   4.47
C00M  1  0.43207  0.76357  0.52923 11.00000  0.02091   3.94
HKLF 4
END
