TITL 2_expF_1_2_expS_0_7_2_a.res in P2(1)/n
REM Old TITL 1 in P2/n
REM SHELXT solution in P2(1)/n: R1 0.275, Rweak 0.032, Alpha 0.061
REM <I/s>   1.413 for  106 systematic absences,  Orientation as input
REM Formula found by SHELXT:  C9 N O

CELL  0.71073   7.0400   9.2900  11.5500   90.000   97.870   90.000
ZERR   16.000   0.0014   0.0019   0.0023    0.000    0.030    0.000
LATT  1
SYMM 1/2-X, 1/2+Y, 1/2-Z
SFAC C N O
UNIT 16 16 16
L.S. 10
BOND
LIST 6
FMAP 2
PLAN 20
N001  2  0.65943  0.07558  0.72026 11.00000  0.04181   6.52
C002  1  0.55110  0.44734  0.34035 11.00000  0.03178   6.40
O003  3  0.85061  0.50439  0.30837 11.00000  0.06174   6.16
C004  1  0.58656  0.35650  0.43830 11.00000  0.03583   6.12
C005  1  0.78005  0.26215  0.60960 11.00000  0.04027   6.08
C006  1  0.46278  0.17055  0.55585 11.00000  0.04083   5.95
C007  1  0.67819  0.51215  0.27892 11.00000  0.03649   5.90
C008  1  0.63361  0.16824  0.62974 11.00000  0.03620   5.81
C009  1  0.76018  0.35632  0.51419 11.00000  0.04013   5.72
C00A  1  0.43974  0.26448  0.45953 11.00000  0.04195   5.56
C00B  1  0.59144  0.60072  0.17624 11.00000  0.04297   5.39
HKLF 4
END
