TITL 2_expF_0_9_expS_1_4_2_a.res in P2(1)/n
REM Old TITL 1 in P2/n
REM SHELXT solution in P2(1)/n: R1 0.274, Rweak 0.097, Alpha 0.136
REM <I/s>   1.286 for  106 systematic absences,  Orientation as input
REM Formula found by SHELXT:  C9 N O

CELL  0.71073   7.0400   9.2900  11.5500   90.000   97.870   90.000
ZERR   16.000   0.0014   0.0019   0.0023    0.000    0.030    0.000
LATT  1
SYMM 1/2-X, 1/2+Y, 1/2-Z
SFAC C N O
UNIT 16 16 16
L.S. 10
BOND
LIST 6
FMAP 2
PLAN 20
N001  2  0.44749  0.55138  0.66134 11.00000  0.02712   6.56
O002  3  0.15078  0.49307  0.69199 11.00000  0.03037   6.40
C003  1  0.33269  0.92381  0.27749 11.00000  0.01698   6.27
C004  1  0.32224  0.48751  0.72215 11.00000  0.02229   6.05
C005  1  0.36875  0.82991  0.37087 11.00000  0.02379   6.05
C006  1  0.23766  0.64334  0.48470 11.00000  0.02445   5.81
C007  1  0.22124  0.73513  0.39028 11.00000  0.02194   5.81
C008  1  0.41132  0.64361  0.56220 11.00000  0.02551   5.73
C009  1  0.41025  0.39905  0.82398 11.00000  0.02352   5.50
C00A  1  0.54049  0.82829  0.44560 11.00000  0.02417   5.36
C00B  1  0.56157  0.73700  0.54077 11.00000  0.02531   5.24
HKLF 4
END
