TITL 2_expF_1_1_expS_0_6_2_a.res in P2(1)/n
REM Old TITL 1 in P2/n
REM SHELXT solution in P2(1)/n: R1 0.269, Rweak 0.044, Alpha 0.082
REM <I/s>   1.268 for  106 systematic absences,  Orientation as input
REM Formula found by SHELXT:  C10 O

CELL  0.71073   7.0400   9.2900  11.5500   90.000   97.870   90.000
ZERR   16.000   0.0014   0.0019   0.0023    0.000    0.030    0.000
LATT  1
SYMM 1/2-X, 1/2+Y, 1/2-Z
SFAC C N O
UNIT 16 16 16
L.S. 10
BOND
LIST 6
FMAP 2
PLAN 20
C001  1  0.55143  0.55212  0.33973 11.00000  0.03104   6.49
C002  1  0.66194  0.92306  0.72113 11.00000  0.02756   6.36
O003  3  0.85050  0.49551  0.30835 11.00000  0.05792   6.20
C004  1  0.67809  0.48695  0.27864 11.00000  0.03332   6.14
C005  1  0.78185  0.73849  0.61020 11.00000  0.03685   6.03
C006  1  0.58669  0.64256  0.43829 11.00000  0.03294   5.97
C007  1  0.63452  0.83059  0.63084 11.00000  0.03437   5.85
C008  1  0.46296  0.82984  0.55522 11.00000  0.03855   5.76
C009  1  0.75895  0.64284  0.51479 11.00000  0.03658   5.75
C00A  1  0.43979  0.73463  0.45866 11.00000  0.03809   5.55
C00B  1  0.59174  0.40010  0.17640 11.00000  0.03965   5.41
HKLF 4
END
