TITL 2_expF_0_7_expS_1_4_2_a.res in Pn
REM Old TITL 1 in P2/n
REM SHELXT solution in Pn: R1 0.249, Rweak 0.198, Alpha 0.125
REM <I/s>   1.303 for  100 systematic absences,  Orientation as input
REM Formula found by SHELXT:  C9 N4 O8

CELL  0.71073   7.0400   9.2900  11.5500   90.000   97.870   90.000
ZERR   16.000   0.0014   0.0019   0.0023    0.000    0.030    0.000
LATT -1
SYMM 1/2+X, -Y, 1/2+Z
SFAC C N O
UNIT 16 16 16
L.S. 10
BOND
LIST 6
FMAP 2
PLAN 20
O001  3  0.73953  0.10228  0.47512 11.00000  0.00010  11.74
C002  1  0.18483  0.24308  0.26954 11.00000  0.02411   9.41
O003  3  0.64971  0.25275  0.69127 11.00000  0.01857   8.44
O004  3  0.07080  0.30299  0.33336 11.00000  0.00814   8.17
O005  3  0.91344  0.34939  0.82199 11.00000  0.00453   8.11
O006  3 -0.03428  0.58329  0.53758 11.00000  0.02336   7.91
O007  3  0.84874 -0.16599  0.27275 11.00000  0.02526   7.64
N008  2  0.87676 -0.06829  0.36865 11.00000  0.00559   7.60
N009  2 -0.06054  0.49810  0.45456 11.00000  0.01395   7.33
O00A  3  0.28002  0.48677  0.59631 11.00000  0.01538   7.31
N00B  2  0.97074  0.20145  0.65369 11.00000  0.02094   7.26
C00C  1  0.91571  0.10941  0.55375 11.00000  0.00548   7.10
O00D  3  0.35262  0.24020  0.30540 11.00000  0.00513   6.73
N00E  2  0.17952  0.67757  0.71419 11.00000  0.00646   6.50
C00F  1  0.08570  0.40321  0.42463 11.00000  0.01784   6.29
C00G  1  0.72314  0.01594  0.37687 11.00000  0.01273   6.19
C00H  1  0.13726  0.59563  0.62337 11.00000  0.01614   5.32
C00I  1  1.06054  0.01957  0.53316 11.00000  0.01397   5.06
C00J  1  0.82779  0.26726  0.71448 11.00000  0.00506   4.57
C00K  1  1.04545 -0.06955  0.42955 11.00000  0.01347   4.29
C00L  1  0.08140  0.14677  0.17801 11.00000  0.04693   3.99
HKLF 4
END
