TITL 2_expF_1_2_expS_1_1_2_a.res in P2(1)/n
REM Old TITL 1 in P2/n
REM SHELXT solution in P2(1)/n: R1 0.274, Rweak 0.030, Alpha 0.052
REM <I/s>   1.368 for  106 systematic absences,  Orientation as input
REM Formula found by SHELXT:  C10 O

CELL  0.71073   7.0400   9.2900  11.5500   90.000   97.870   90.000
ZERR   16.000   0.0014   0.0019   0.0023    0.000    0.030    0.000
LATT  1
SYMM 1/2-X, 1/2+Y, 1/2-Z
SFAC C N O
UNIT 16 16 16
L.S. 10
BOND
LIST 6
FMAP 2
PLAN 20
C001  1  0.44842  0.44761  0.65977 11.00000  0.03287   6.44
C002  1  0.33786  0.07702  0.27870 11.00000  0.02943   6.39
O003  3  0.14943  0.50509  0.69174 11.00000  0.05622   6.19
C004  1  0.21887  0.26234  0.39042 11.00000  0.03879   6.12
C005  1  0.41263  0.35670  0.56152 11.00000  0.03583   6.04
C006  1  0.32123  0.51266  0.72180 11.00000  0.03559   5.97
C007  1  0.53701  0.17055  0.44388 11.00000  0.04158   5.96
C008  1  0.36708  0.16829  0.37014 11.00000  0.03816   5.77
C009  1  0.56109  0.26494  0.54034 11.00000  0.04084   5.71
C00A  1  0.23964  0.35677  0.48586 11.00000  0.03887   5.68
C00B  1  0.40918  0.60059  0.82343 11.00000  0.04201   5.43
HKLF 4
END
