TITL 2_expF_1_2_expS_0_8_2_b.res in Pn
REM Old TITL 1 in P2/n
REM SHELXT solution in Pn: R1 0.249, Rweak 0.017, Alpha 0.016
REM <I/s>   1.200 for  100 systematic absences,  Orientation as input
REM Formula found by SHELXT:  C10 N7 O5

CELL  0.71073   7.0400   9.2900  11.5500   90.000   97.870   90.000
ZERR   16.000   0.0014   0.0019   0.0023    0.000    0.030    0.000
LATT -1
SYMM 1/2+X, -Y, 1/2+Z
SFAC C N O
UNIT 16 16 16
L.S. 10
BOND
LIST 6
FMAP 2
PLAN 20
N001  2  0.42709  0.10462  0.56226 11.00000  0.04027   9.86
N002  2  0.64093  0.58560  0.62947 11.00000  0.03968   9.32
O003  3  0.23294  0.01276  0.39105 11.00000  0.04093   8.75
C004  1  0.33226  0.25337  0.72454 11.00000  0.03298   8.59
O005  3  0.34095 -0.16922  0.27559 11.00000  0.03089   8.14
O006  3  0.54934 -0.08456  0.45029 11.00000  0.05699   8.03
O007  3  0.85095  0.23998  0.31108 11.00000  0.04324   7.78
N008  2  0.45053  0.19665  0.66096 11.00000  0.03895   7.42
N009  2  0.76750  0.39159  0.51139 11.00000  0.04089   7.30
N00A  2  0.45190  0.48500  0.45937 11.00000  0.05211   7.02
N00B  2  0.55825  0.30055  0.34156 11.00000  0.03873   6.75
N00C  2  0.65998  0.68136  0.71610 11.00000  0.05237   6.50
C00D  1  0.41776  0.34985  0.82288 11.00000  0.03957   6.43
C00E  1  0.60205  0.14740  0.17712 11.00000  0.04234   5.95
O00F  3  0.14905  0.25232  0.69493 11.00000  0.05777   5.76
C00G  1  0.57099  0.01461  0.53988 11.00000  0.03301   5.68
C00H  1  0.47277  0.57553  0.56408 11.00000  0.04368   5.52
C00I  1  0.80158  0.48896  0.61132 11.00000  0.06185   5.46
C00J  1  0.24941  0.10303  0.48265 11.00000  0.04046   5.38
C00K  1  0.68906  0.22850  0.28449 11.00000  0.03291   5.16
C00L  1  0.60126  0.39155  0.43956 11.00000  0.03571   3.85
C00M  1  0.37684 -0.07959  0.36817 11.00000  0.03877   3.38
HKLF 4
END
