TITL 2_expF_1_2_expS_1_4_2_a.res in P2(1)/n
REM Old TITL 1 in P2/n
REM SHELXT solution in P2(1)/n: R1 0.279, Rweak 0.031, Alpha 0.057
REM <I/s>   1.417 for  106 systematic absences,  Orientation as input
REM Formula found by SHELXT:  C10 O

CELL  0.71073   7.0400   9.2900  11.5500   90.000   97.870   90.000
ZERR   16.000   0.0014   0.0019   0.0023    0.000    0.030    0.000
LATT  1
SYMM 1/2-X, 1/2+Y, 1/2-Z
SFAC C N O
UNIT 16 16 16
L.S. 10
BOND
LIST 6
FMAP 2
PLAN 20
C001  1  0.66309  0.92283  0.72177 11.00000  0.02736   6.40
C002  1  0.55234  0.55188  0.34041 11.00000  0.03095   6.35
C003  1  0.78111  0.73693  0.60927 11.00000  0.03648   6.11
C004  1  0.67917  0.48713  0.27838 11.00000  0.03419   6.11
O005  3  0.85111  0.49443  0.30851 11.00000  0.04987   6.07
C006  1  0.58806  0.64346  0.43840 11.00000  0.03435   5.95
C007  1  0.46255  0.82909  0.55592 11.00000  0.03914   5.88
C008  1  0.63226  0.83136  0.62953 11.00000  0.03668   5.82
C009  1  0.76102  0.64314  0.51413 11.00000  0.03668   5.77
C00A  1  0.43905  0.73499  0.45993 11.00000  0.03917   5.62
C00B  1  0.58979  0.39888  0.17652 11.00000  0.03989   5.35
HKLF 4
END
