TITL 2_expF_1_1_expS_1_4_2_a.res in P2(1)/n
REM Old TITL 1 in P2/n
REM SHELXT solution in P2(1)/n: R1 0.270, Rweak 0.042, Alpha 0.090
REM <I/s>   1.343 for  106 systematic absences,  Orientation as input
REM Formula found by SHELXT:  C10 O

CELL  0.71073   7.0400   9.2900  11.5500   90.000   97.870   90.000
ZERR   16.000   0.0014   0.0019   0.0023    0.000    0.030    0.000
LATT  1
SYMM 1/2-X, 1/2+Y, 1/2-Z
SFAC C N O
UNIT 16 16 16
L.S. 10
BOND
LIST 6
FMAP 2
PLAN 20
C001  1  0.55199  0.44829  0.34010 11.00000  0.02733   6.43
C002  1  0.66399  0.07681  0.72204 11.00000  0.02404   6.35
O003  3  0.85128  0.50595  0.30817 11.00000  0.04380   6.15
C004  1  0.67865  0.51323  0.27819 11.00000  0.03047   6.15
C005  1  0.78031  0.26343  0.60940 11.00000  0.03240   6.07
C006  1  0.58782  0.35692  0.43811 11.00000  0.03137   5.95
C007  1  0.63231  0.16940  0.62963 11.00000  0.03206   5.84
C008  1  0.46186  0.17093  0.55555 11.00000  0.03360   5.80
C009  1  0.76083  0.35754  0.51441 11.00000  0.03274   5.78
C00A  1  0.43939  0.26491  0.45952 11.00000  0.03481   5.49
C00B  1  0.58980  0.60064  0.17650 11.00000  0.03464   5.40
HKLF 4
END
