TITL 2_expF_1_5_expS_0_9_2_a.res in P2(1)/n
REM Old TITL 1 in P2/n
REM SHELXT solution in P2(1)/n: R1 0.330, Rweak 0.015, Alpha 0.044
REM <I/s>   1.498 for  106 systematic absences,  Orientation as input
REM Formula found by SHELXT:  C9 N O

CELL  0.71073   7.0400   9.2900  11.5500   90.000   97.870   90.000
ZERR   16.000   0.0014   0.0019   0.0023    0.000    0.030    0.000
LATT  1
SYMM 1/2-X, 1/2+Y, 1/2-Z
SFAC C N O
UNIT 16 16 16
L.S. 10
BOND
LIST 6
FMAP 2
PLAN 20
N001  2  0.66060  0.92297  0.72144 11.00000  0.04839   6.55
C002  1  0.55069  0.55351  0.34035 11.00000  0.04341   6.26
C003  1  0.78372  0.73725  0.60933 11.00000  0.04890   6.11
C004  1  0.58982  0.64287  0.43726 11.00000  0.04394   6.07
C005  1  0.46420  0.83142  0.55702 11.00000  0.05493   6.03
C006  1  0.67935  0.48800  0.27899 11.00000  0.05098   5.89
O007  3  0.85081  0.49570  0.30899 11.00000  0.06907   5.84
C008  1  0.75894  0.64392  0.51613 11.00000  0.05089   5.82
C009  1  0.62987  0.83184  0.63091 11.00000  0.04822   5.82
C00A  1  0.43984  0.73704  0.46042 11.00000  0.05131   5.68
C00B  1  0.59034  0.40186  0.17736 11.00000  0.05685   5.24
HKLF 4
END
