TITL 2_expF_0_6_expS_0_5_2_a.res in Pn
REM Old TITL 1 in P2/n
REM SHELXT solution in Pn: R1 0.255, Rweak 0.281, Alpha 0.109
REM <I/s>   0.868 for  100 systematic absences,  Orientation as input
REM Formula found by SHELXT:  C12 N O7

CELL  0.71073   7.0400   9.2900  11.5500   90.000   97.870   90.000
ZERR   16.000   0.0014   0.0019   0.0023    0.000    0.030    0.000
LATT -1
SYMM 1/2+X, -Y, 1/2+Z
SFAC C N O
UNIT 16 16 16
L.S. 10
BOND
LIST 6
FMAP 2
PLAN 20
O001  3  0.18323  0.75846  0.68885 11.00000  0.00010  10.37
O002  3  0.81677  0.98542  0.60862 11.00000  0.00582  10.12
O003  3  0.69912  1.17124  0.72178 11.00000  0.00010   7.97
O004  3  0.57438  0.80091  0.33570 11.00000  0.01887   7.93
N005  2  0.36050  0.77351  0.71589 11.00000  0.00674   7.55
O006  3  0.62882  0.65402  0.17661 11.00000  0.03104   7.53
C007  1  0.39204  0.41464  0.36660 11.00000  0.02205   6.66
C008  1  0.50041  1.08881  0.55282 11.00000  0.00240   6.36
C009  1  0.45580  0.60697  0.56752 11.00000  0.01052   6.25
O00A  3  0.29113  0.61186  0.48811 11.00000  0.04295   6.24
C00B  1  0.60735  0.50830  0.53711 11.00000  0.01462   5.74
C00C  1  0.47768  0.97546  0.45385 11.00000  0.01810   5.72
C00D  1  0.62865  0.88443  0.44693 11.00000  0.02112   5.67
C00E  1  0.47162  0.69704  0.65396 11.00000  0.01648   5.61
C00F  1  0.66270  1.08010  0.62752 11.00000  0.00010   5.34
C00G  1  0.80894  0.89512  0.51748 11.00000  0.01604   5.28
C00H  1  0.71594  0.74687  0.27578 11.00000  0.01472   4.67
C00I  1  0.58512  0.43354  0.44087 11.00000  0.03993   4.16
O00J  3  0.42972  0.31437  0.28873 11.00000  0.23242   3.84
C00K  1  0.44274  0.85894  0.82339 11.00000  0.01764   3.31
HKLF 4
END
