TITL 2_expF_0_7_expS_1_4_2_b.res in P2(1)
REM Old TITL 1 in P2/n
REM SHELXT solution in P2(1): R1 0.263, Rweak 0.202, Alpha 0.212
REM <I/s>   0.590 for    6 systematic absences,  Orientation as input
REM Formula found by SHELXT:  C11 N6 O5

CELL  0.71073   7.0400   9.2900  11.5500   90.000   97.870   90.000
ZERR   16.000   0.0014   0.0019   0.0023    0.000    0.030    0.000
LATT -1
SYMM -X, 1/2+Y, -Z
SFAC C N O
UNIT 16 16 16
L.S. 10
BOND
LIST 6
FMAP 2
PLAN 20
O001  3  0.09228  0.66346  0.52813 11.00000  0.00997   8.30
O002  3  0.19474  0.29057  0.90637 11.00000  0.01776   8.00
O003  3 -0.10539  0.24318  0.93860 11.00000  0.01019   7.71
N004  2  0.15410  0.38753  0.81160 11.00000  0.01499   7.31
N005  2  0.78565  0.40863  0.19636 11.00000  0.01285   7.08
N006  2  0.07128  0.22060  0.96687 11.00000  0.01164   7.05
N007  2  0.65172  0.84740  0.57178 11.00000  0.00714   7.00
C008  1  0.61727  0.40747  0.12232 11.00000  0.00268   6.68
N009  2  0.81008  0.50271  0.29920 11.00000  0.01644   6.59
N00A  2 -0.03298  0.46824  0.63574 11.00000  0.02829   6.50
C00B  1  0.48818  0.58879  0.23557 11.00000  0.00959   5.78
C00C  1  0.11984  0.56337  0.62067 11.00000  0.03425   5.53
C00D  1 -0.00112  0.37766  0.73745 11.00000  0.01311   5.42
C00E  1  0.46978  0.49834  0.14020 11.00000  0.00247   5.25
C00F  1  0.56689  0.74673  0.47524 11.00000  0.02040   5.07
O00G  3  0.40735  0.76272  0.44486 11.00000  0.01642   4.97
C00H  1  0.67539  0.59984  0.31180 11.00000  0.02348   4.78
C00I  1  0.30638  0.47811  0.77902 11.00000  0.01562   4.62
C00J  1  0.68706  0.68799  0.41472 11.00000  0.02077   4.38
O00K  3  0.57259  0.31577  0.03497 11.00000  0.04313   3.99
C00L  1  0.16921  0.15260  1.07045 11.00000  0.03212   3.97
C00M  1  0.32559  0.55652  0.70208 11.00000  0.02912   3.12
HKLF 4
END
