TITL 2_expF_1_0_expS_0_9_2_a.res in P2(1)/n
REM Old TITL 1 in P2/n
REM SHELXT solution in P2(1)/n: R1 0.266, Rweak 0.065, Alpha 0.130
REM <I/s>   1.193 for  106 systematic absences,  Orientation as input
REM Formula found by SHELXT:  C9 N O

CELL  0.71073   7.0400   9.2900  11.5500   90.000   97.870   90.000
ZERR   16.000   0.0014   0.0019   0.0023    0.000    0.030    0.000
LATT  1
SYMM 1/2-X, 1/2+Y, 1/2-Z
SFAC C N O
UNIT 16 16 16
L.S. 10
BOND
LIST 6
FMAP 2
PLAN 20
N001  2  0.55098  0.44872  0.33910 11.00000  0.03243   6.56
O002  3  0.85047  0.50603  0.30836 11.00000  0.04197   6.37
C003  1  0.66392  0.07543  0.72197 11.00000  0.02082   6.32
C004  1  0.58842  0.35724  0.43843 11.00000  0.02561   6.17
C005  1  0.67821  0.51189  0.27867 11.00000  0.02438   6.07
C006  1  0.78126  0.26354  0.61006 11.00000  0.02799   5.93
C007  1  0.63331  0.17003  0.63020 11.00000  0.02781   5.85
C008  1  0.46081  0.17108  0.55509 11.00000  0.03146   5.75
C009  1  0.75957  0.35699  0.51473 11.00000  0.02745   5.66
C00A  1  0.43937  0.26467  0.45928 11.00000  0.02958   5.53
C00B  1  0.59148  0.60084  0.17679 11.00000  0.02957   5.52
HKLF 4
END
