TITL 2_expF_0_8_expS_0_7_2_b.res in Pn
REM Old TITL 1 in P2/n
REM SHELXT solution in Pn: R1 0.227, Rweak 0.110, Alpha 0.086
REM <I/s>   0.967 for  100 systematic absences,  Orientation as input
REM Formula found by SHELXT:  C10 N2 O11

CELL  0.71073   7.0400   9.2900  11.5500   90.000   97.870   90.000
ZERR   16.000   0.0014   0.0019   0.0023    0.000    0.030    0.000
LATT -1
SYMM 1/2+X, -Y, 1/2+Z
SFAC C N O
UNIT 16 16 16
L.S. 10
BOND
LIST 6
FMAP 2
PLAN 20
N001  2  0.90919  0.89514  0.56356 11.00000  0.00010  10.58
O002  3  0.95716  0.80363  0.66322 11.00000  0.00584   9.27
O003  3  0.65358  0.74242  0.69682 11.00000  0.01789   9.12
N004  2  0.12863  0.41679  0.63882 11.00000  0.01700   8.93
O005  3  0.16492  0.31408  0.71791 11.00000  0.03544   8.52
O006  3  0.28301  0.51229  0.61831 11.00000  0.01841   8.49
O007  3  1.04035  1.06914  0.44772 11.00000  0.02585   7.91
O008  3  0.75125  0.88637  0.49261 11.00000  0.02128   7.85
O009  3 -0.05949  0.51846  0.46104 11.00000  0.03245   7.57
O00A  3  0.08712  0.85585  0.17622 11.00000  0.03813   7.45
C00B  1  0.17903  0.76123  0.28424 11.00000  0.00892   6.98
C00C  1  0.82055  0.73050  0.72399 11.00000  0.01732   6.80
O00D  3  0.35894  0.75491  0.31678 11.00000  0.02709   5.86
C00E  1  0.06843  0.70522  0.34392 11.00000  0.03116   5.65
C00F  1  0.71781  0.98779  0.40215 11.00000  0.03403   5.33
O00G  3  0.83910  1.16548  0.27627 11.00000  0.01633   5.32
C00H  1 -0.04458  0.40865  0.55424 11.00000  0.02686   5.29
C00I  1  1.05949  0.98981  0.54287 11.00000  0.01352   5.23
C00J  1  0.27355  0.59830  0.52122 11.00000  0.02054   5.10
C00K  1  0.90933  0.65287  0.82378 11.00000  0.01365   5.06
C00L  1  0.86181  1.07815  0.37812 11.00000  0.01422   4.64
O00M  3  0.59176  0.95897  0.33068 11.00000  0.16510   3.59
C00N  1  0.06773  0.61879  0.43412 11.00000  0.04936   3.13
HKLF 4
END
