TITL 2_expF_0_8_expS_0_6_2_b.res in P2(1)
REM Old TITL 1 in P2/n
REM SHELXT solution in P2(1): R1 0.246, Rweak 0.123, Alpha 0.188
REM <I/s>   2.594 for    6 systematic absences,  Orientation as input
REM Formula found by SHELXT:  C16 N3 O3

CELL  0.71073   7.0400   9.2900  11.5500   90.000   97.870   90.000
ZERR   16.000   0.0014   0.0019   0.0023    0.000    0.030    0.000
LATT -1
SYMM -X, 1/2+Y, -Z
SFAC C N O
UNIT 16 16 16
L.S. 10
BOND
LIST 6
FMAP 2
PLAN 20
O001  3  0.20379  0.70031  0.90700 11.00000  0.03567   8.66
O002  3 -0.09533  0.75760  0.94472 11.00000  0.02078   8.36
N003  2  0.12037  0.42367  0.61861 11.00000  0.03300   7.94
N004  2  0.16775  0.61932  0.81099 11.00000  0.02003   7.93
O005  3  0.58277  0.67673  0.03016 11.00000  0.03595   7.49
N006  2  0.56589  0.24675  0.47427 11.00000  0.02271   7.41
C007  1  0.46995  0.48207  0.13746 11.00000  0.02120   6.43
C008  1 -0.00835  0.60436  0.73689 11.00000  0.02181   6.35
C009  1  0.15987  0.85181  1.07952 11.00000  0.01241   6.17
C00A  1  0.81026  0.50421  0.29311 11.00000  0.01381   5.89
C00B  1  0.78902  0.59474  0.19801 11.00000  0.06081   5.76
C00C  1  0.29100  0.42957  0.69498 11.00000  0.00970   5.75
C00D  1  0.49176  0.39250  0.23338 11.00000  0.02233   5.49
C00E  1  0.30853  0.53897  0.78802 11.00000  0.02420   5.36
C00F  1 -0.03150  0.50846  0.64273 11.00000  0.02861   5.27
C00G  1  0.07472  0.77315  0.96514 11.00000  0.02499   5.01
C00H  1  0.08874  0.32887  0.52534 11.00000  0.01973   4.92
C00I  1  0.65058  0.14819  0.56412 11.00000  0.03421   4.67
C00J  1  0.69099  0.30430  0.41307 11.00000  0.01794   4.61
C00K  1  0.64982  0.40707  0.31286 11.00000  0.03078   4.59
C00L  1  0.38971  0.24244  0.43528 11.00000  0.02282   4.37
C00M  1  0.61192  0.58484  0.12170 11.00000  0.02160   3.92
HKLF 4
END
