TITL 2_expF_1_4_expS_0_6_2_a.res in P2(1)/n
REM Old TITL 1 in P2/n
REM SHELXT solution in P2(1)/n: R1 0.303, Rweak 0.019, Alpha 0.046
REM <I/s>   1.590 for  106 systematic absences,  Orientation as input
REM Formula found by SHELXT:  C9 N O

CELL  0.71073   7.0400   9.2900  11.5500   90.000   97.870   90.000
ZERR   16.000   0.0014   0.0019   0.0023    0.000    0.030    0.000
LATT  1
SYMM 1/2-X, 1/2+Y, 1/2-Z
SFAC C N O
UNIT 16 16 16
L.S. 10
BOND
LIST 6
FMAP 2
PLAN 20
N001  2  0.65970  0.07611  0.72087 11.00000  0.04752   6.54
C002  1  0.55239  0.44731  0.33958 11.00000  0.03925   6.35
C003  1  0.78323  0.26312  0.61022 11.00000  0.04676   6.14
C004  1  0.46137  0.17162  0.55521 11.00000  0.04704   6.09
C005  1  0.58958  0.35493  0.43793 11.00000  0.04268   6.07
O006  3  0.85579  0.50512  0.30920 11.00000  0.06626   6.02
C007  1  0.67546  0.51389  0.27885 11.00000  0.04795   5.85
C008  1  0.76132  0.35969  0.51528 11.00000  0.05049   5.76
C009  1  0.63447  0.16754  0.62896 11.00000  0.04622   5.74
C00A  1  0.44271  0.26551  0.46057 11.00000  0.05397   5.69
C00B  1  0.59224  0.59562  0.17623 11.00000  0.05353   5.36
HKLF 4
END
