TITL 2_expF_1_0_expS_0_6_2_a.res in P2(1)/n
REM Old TITL 1 in P2/n
REM SHELXT solution in P2(1)/n: R1 0.267, Rweak 0.060, Alpha 0.111
REM <I/s>   1.202 for  106 systematic absences,  Orientation as input
REM Formula found by SHELXT:  C9 N O

CELL  0.71073   7.0400   9.2900  11.5500   90.000   97.870   90.000
ZERR   16.000   0.0014   0.0019   0.0023    0.000    0.030    0.000
LATT  1
SYMM 1/2-X, 1/2+Y, 1/2-Z
SFAC C N O
UNIT 16 16 16
L.S. 10
BOND
LIST 6
FMAP 2
PLAN 20
N001  2  0.55083  0.55106  0.33919 11.00000  0.03555   6.57
O002  3  0.85055  0.49472  0.30865 11.00000  0.04772   6.30
C003  1  0.66276  0.92462  0.72183 11.00000  0.02233   6.29
C004  1  0.67835  0.48792  0.27883 11.00000  0.02561   6.09
C005  1  0.78210  0.73724  0.61034 11.00000  0.03074   6.06
C006  1  0.58830  0.64259  0.43840 11.00000  0.02627   6.01
C007  1  0.46060  0.82898  0.55478 11.00000  0.03344   5.86
C008  1  0.63422  0.82980  0.63035 11.00000  0.02925   5.85
C009  1  0.75905  0.64295  0.51470 11.00000  0.02983   5.56
C00A  1  0.44032  0.73470  0.45923 11.00000  0.03167   5.55
C00B  1  0.59199  0.39932  0.17664 11.00000  0.03193   5.52
HKLF 4
END
