TITL 2_expF_0_9_expS_0_7_2_b.res in Pn
REM Old TITL 1 in P2/n
REM SHELXT solution in Pn: R1 0.236, Rweak 0.072, Alpha 0.078
REM <I/s>   0.990 for  100 systematic absences,  Orientation as input
REM Formula found by SHELXT:  C13 N4 O4

CELL  0.71073   7.0400   9.2900  11.5500   90.000   97.870   90.000
ZERR   16.000   0.0014   0.0019   0.0023    0.000    0.030    0.000
LATT -1
SYMM 1/2+X, -Y, 1/2+Z
SFAC C N O
UNIT 16 16 16
L.S. 10
BOND
LIST 6
FMAP 2
PLAN 20
O001  3  0.54669  0.19995  0.33867 11.00000  0.00802   9.15
O002  3  0.14648  0.24211  0.69156 11.00000  0.02557   8.97
C003  1  0.32024  0.23515  0.71685 11.00000  0.02289   8.08
O004  3  0.77579  0.01563  0.60983 11.00000  0.03755   7.61
N005  2  0.74601  0.10508  0.51555 11.00000  0.02150   7.27
N006  2  0.65904 -0.16787  0.72372 11.00000  0.02064   7.00
N007  2  0.41031  0.38957  0.55646 11.00000  0.03128   6.88
C008  1  0.63494 -0.08186  0.62540 11.00000  0.02311   6.69
N009  2  0.44584 -0.08140  0.54952 11.00000  0.04205   6.54
C00A  1  0.58753  0.34789  0.17672 11.00000  0.02561   5.64
C00B  1  0.55566  0.48669  0.54128 11.00000  0.04357   5.63
C00C  1  0.43623  0.01299  0.45974 11.00000  0.01499   5.62
C00D  1  0.58514  0.10197  0.43264 11.00000  0.02143   5.48
C00E  1  0.36938  0.57703  0.36601 11.00000  0.02283   5.43
C00F  1  0.33418  0.67857  0.28146 11.00000  0.02770   5.41
C00G  1  0.40452  0.14707  0.82328 11.00000  0.03125   5.27
C00H  1  0.52959  0.57547  0.43957 11.00000  0.02669   4.99
C00I  1  0.67599  0.26171  0.27618 11.00000  0.02358   4.19
C00J  1  0.20701  0.48929  0.38948 11.00000  0.04065   4.03
C00K  1  0.22602  0.39141  0.48578 11.00000  0.03845   3.93
O00L  3  0.85352  0.24885  0.31017 11.00000  0.05007   3.86
HKLF 4
END
