TITL 2_expF_1_3_expS_1_3_2_a.res in P2(1)/n
REM Old TITL 1 in P2/n
REM SHELXT solution in P2(1)/n: R1 0.295, Rweak 0.020, Alpha 0.050
REM <I/s>   1.516 for  106 systematic absences,  Orientation as input
REM Formula found by SHELXT:  C10 O

CELL  0.71073   7.0400   9.2900  11.5500   90.000   97.870   90.000
ZERR   16.000   0.0014   0.0019   0.0023    0.000    0.030    0.000
LATT  1
SYMM 1/2-X, 1/2+Y, 1/2-Z
SFAC C N O
UNIT 16 16 16
L.S. 10
BOND
LIST 6
FMAP 2
PLAN 20
C001  1  0.33723  0.07764  0.27809 11.00000  0.03110   6.49
C002  1  0.44630  0.44748  0.65960 11.00000  0.03544   6.34
C003  1  0.21902  0.26269  0.39062 11.00000  0.04327   6.15
C004  1  0.32272  0.51301  0.72093 11.00000  0.04178   5.96
C005  1  0.53939  0.16954  0.44394 11.00000  0.04561   5.94
C006  1  0.24023  0.35713  0.48552 11.00000  0.04061   5.93
C007  1  0.56033  0.26539  0.53915 11.00000  0.04476   5.89
O008  3  0.14686  0.50551  0.69209 11.00000  0.05541   5.88
C009  1  0.36706  0.16855  0.37053 11.00000  0.03996   5.79
C00A  1  0.41134  0.35602  0.56159 11.00000  0.03807   5.74
C00B  1  0.41108  0.59962  0.82318 11.00000  0.04734   5.20
HKLF 4
END
