TITL 2_expF_0_5_expS_1_3_2_a.res in Pn
REM Old TITL 1 in P2/n
REM SHELXT solution in Pn: R1 0.295, Rweak 0.404, Alpha 0.149
REM <I/s>   1.306 for   97 systematic absences,  Orientation as input
REM Formula found by SHELXT:  C7 N3 O7

CELL  0.71073   7.0400   9.2900  11.5500   90.000   97.870   90.000
ZERR   16.000   0.0014   0.0019   0.0023    0.000    0.030    0.000
LATT -1
SYMM 1/2+X, -Y, 1/2+Z
SFAC C N O
UNIT 16 16 16
L.S. 10
BOND
LIST 6
FMAP 2
PLAN 20
O001  3  0.33289  0.88600  0.24066 11.00000  0.00010  11.09
O002  3  0.33318  0.65543 -0.01867 11.00000  0.00010   9.39
O003  3  0.40051  0.25040  0.99633 11.00000  0.00345   9.25
O004  3  0.61620  0.58670  0.67579 11.00000  0.00048   9.18
O005  3  0.80139  0.49071  0.84065 11.00000  0.00010   7.50
N006  2  0.31161  0.79206  0.14808 11.00000  0.02112   7.07
N007  2  0.58632  0.68349  0.58438 11.00000  0.00236   6.84
C008  1  0.41476  0.73460  0.07719 11.00000  0.00010   6.53
C009  1  0.50111  0.88926  0.31469 11.00000  0.00010   6.28
C00A  1  0.58813  0.22909  1.01867 11.00000  0.02814   6.07
C00B  1  0.19861  1.07562  0.34864 11.00000  0.00010   5.78
C00C  1  0.47414  0.49743  0.68432 11.00000  0.00639   5.74
O00D  3  0.70859  0.31027  0.96303 11.00000  0.01322   5.31
C00E  1  0.51849  0.97522  0.41794 11.00000  0.00503   4.57
N00F  2  0.41071  1.16965  0.53377 11.00000  0.03323   4.50
C00G  1  0.46915  0.40642  0.77956 11.00000  0.00970   3.97
O00H  3  0.57727  0.73367  0.11718 11.00000  0.01169   3.91
HKLF 4
END
