TITL 2_expF_1_0_expS_0_6_2_b.res in P2(1)
REM Old TITL 1 in P2/n
REM SHELXT solution in P2(1): R1 0.244, Rweak 0.057, Alpha 0.128
REM <I/s>   4.502 for    6 systematic absences,  Orientation as input
REM Formula found by SHELXT:  C12 N7 O3

CELL  0.71073   7.0400   9.2900  11.5500   90.000   97.870   90.000
ZERR   16.000   0.0014   0.0019   0.0023    0.000    0.030    0.000
LATT -1
SYMM -X, 1/2+Y, -Z
SFAC C N O
UNIT 16 16 16
L.S. 10
BOND
LIST 6
FMAP 2
PLAN 20
O001  3  0.30392  0.69076  0.58831 11.00000  0.04885   8.49
N002  2  0.88613  0.58578  0.37841 11.00000  0.04078   7.72
N003  2  0.42934  0.76928  0.52871 11.00000  0.03057   7.44
O004  3  1.09357  0.24147  0.05356 11.00000  0.04780   7.20
N005  2  0.53402  0.50682  0.85978 11.00000  0.03897   7.16
N006  2  0.91300  0.66462  0.47333 11.00000  0.02792   6.94
N007  2  0.83993  0.39647  0.18252 11.00000  0.03650   6.88
N008  2  0.21464  0.40642  0.79793 11.00000  0.04037   6.69
N009  2  0.84113  0.14904 -0.07828 11.00000  0.03841   6.58
C00A  1  0.50490  0.61084  0.76477 11.00000  0.02425   6.40
C00B  1  0.19724  0.50465  0.70555 11.00000  0.02872   6.36
C00C  1  0.41477  0.31871  0.97157 11.00000  0.02385   6.32
C00D  1  0.33694  0.60965  0.69344 11.00000  0.02274   6.19
C00E  1  0.70824  0.56594  0.31149 11.00000  0.02766   5.68
O00F  3  0.60784  0.75239  0.56354 11.00000  0.03828   5.65
C00G  1  1.03222  0.48136  0.36250 11.00000  0.03343   5.58
C00H  1  0.93011  0.24392  0.03064 11.00000  0.02810   5.46
C00I  1  1.01237  0.39761  0.26438 11.00000  0.03012   5.45
C00J  1  0.80133  0.29248  0.09100 11.00000  0.02051   5.41
C00K  1  0.68528  0.47361  0.21287 11.00000  0.03040   5.39
C00L  1  0.34403  0.85096  0.43280 11.00000  0.03269   5.06
C00M  1  0.38219  0.42447  0.88279 11.00000  0.02588   4.68
HKLF 4
END
