TITL 2_expF_0_9_expS_0_5_2_a.res in P2(1)/n
REM Old TITL 1 in P2/n
REM SHELXT solution in P2(1)/n: R1 0.275, Rweak 0.097, Alpha 0.134
REM <I/s>   1.104 for  106 systematic absences,  Orientation as input
REM Formula found by SHELXT:  C9 N O

CELL  0.71073   7.0400   9.2900  11.5500   90.000   97.870   90.000
ZERR   16.000   0.0014   0.0019   0.0023    0.000    0.030    0.000
LATT  1
SYMM 1/2-X, 1/2+Y, 1/2-Z
SFAC C N O
UNIT 16 16 16
L.S. 10
BOND
LIST 6
FMAP 2
PLAN 20
N001  2  0.55099  0.55091  0.33923 11.00000  0.03115   6.56
C002  1  0.67831  0.48779  0.27896 11.00000  0.02127   6.40
C003  1  0.66297  0.92497  0.72182 11.00000  0.01892   6.25
O004  3  0.85090  0.49475  0.30869 11.00000  0.04147   6.11
C005  1  0.63436  0.82971  0.63017 11.00000  0.02519   5.97
C006  1  0.58848  0.64233  0.43829 11.00000  0.02202   5.93
C007  1  0.78188  0.73706  0.61089 11.00000  0.02677   5.90
C008  1  0.75913  0.64223  0.51494 11.00000  0.02579   5.68
C009  1  0.45958  0.82880  0.55455 11.00000  0.02963   5.56
C00A  1  0.59179  0.39955  0.17679 11.00000  0.02643   5.45
C00B  1  0.43999  0.73451  0.45936 11.00000  0.02710   5.37
HKLF 4
END
