TITL 2_expF_0_9_expS_0_9_2_b.res in Pn
REM Old TITL 1 in P2/n
REM SHELXT solution in Pn: R1 0.238, Rweak 0.083, Alpha 0.044
REM <I/s>   1.062 for  100 systematic absences,  Orientation as input
REM Formula found by SHELXT:  C13 N4 O4

CELL  0.71073   7.0400   9.2900  11.5500   90.000   97.870   90.000
ZERR   16.000   0.0014   0.0019   0.0023    0.000    0.030    0.000
LATT -1
SYMM 1/2+X, -Y, 1/2+Z
SFAC C N O
UNIT 16 16 16
L.S. 10
BOND
LIST 6
FMAP 2
PLAN 20
N001  2  0.09209  0.10568  0.43832 11.00000  0.00194   8.58
C002  1  0.19073  0.25697  0.27340 11.00000  0.02280   7.49
N003  2  0.28008  0.01180  0.60619 11.00000  0.02206   7.48
N004  2  0.05507  0.20467  0.33975 11.00000  0.02305   7.33
C005  1  0.86656  0.57990  0.37140 11.00000  0.02967   6.66
N006  2  0.17486 -0.17479  0.72724 11.00000  0.01421   6.65
O007  3  0.65662  0.23946  0.68933 11.00000  0.02878   6.45
C008  1  0.09018  0.34970  0.17620 11.00000  0.02398   6.32
O009  3  1.05923  0.48148  0.54197 11.00000  0.04289   5.79
C00A  1  0.26963  0.10963  0.51371 11.00000  0.02796   5.64
C00B  1 -0.03180 -0.07506  0.55583 11.00000  0.01002   5.32
O00C  3  0.36134  0.24886  0.30542 11.00000  0.04338   5.03
C00D  1  1.05808  0.58850  0.44793 11.00000  0.05117   4.90
O00E  3  0.85178  0.67521  0.28719 11.00000  0.05461   4.43
C00F  1  0.90720  0.15012  0.82380 11.00000  0.02914   4.35
C00G  1  0.83186  0.23235  0.71566 11.00000  0.01968   4.29
C00H  1  0.74768  0.39349  0.48044 11.00000  0.02730   4.22
C00I  1  0.95365  0.30952  0.66098 11.00000  0.02362   4.05
C00J  1 -0.05923  0.00509  0.45859 11.00000  0.02657   4.05
C00K  1  0.13214 -0.07906  0.63268 11.00000  0.02481   3.97
C00L  1  0.71243  0.48544  0.38583 11.00000  0.03524   3.39
HKLF 4
END
