TITL 2_expF_1_5_expS_1_1_2_b.res in Pn
REM Old TITL 1 in P2/n
REM SHELXT solution in Pn: R1 0.320, Rweak 0.013, Alpha 0.007
REM <I/s>   1.139 for  100 systematic absences,  Orientation as input
REM Formula found by SHELXT:  C14 N6 O3

CELL  0.71073   7.0400   9.2900  11.5500   90.000   97.870   90.000
ZERR   16.000   0.0014   0.0019   0.0023    0.000    0.030    0.000
LATT -1
SYMM 1/2+X, -Y, 1/2+Z
SFAC C N O
UNIT 16 16 16
L.S. 10
BOND
LIST 6
FMAP 2
PLAN 20
N001  2  0.05530  0.80112  0.33711 11.00000  0.05044   7.41
N002  2  0.09101  0.88947  0.43559 11.00000  0.04912   7.41
N003  2  0.29031  0.98769  0.61238 11.00000  0.05891   7.21
N004  2 -0.02446  1.07802  0.55567 11.00000  0.06436   7.06
O005  3  0.65676  0.75313  0.69037 11.00000  0.06469   6.83
N006  2  0.84234  0.32687  0.27914 11.00000  0.04417   6.77
C007  1  0.86843  0.41240  0.37049 11.00000  0.04238   6.74
N008  2  0.16851  1.17242  0.72284 11.00000  0.05007   6.68
C009  1  0.18044  0.73949  0.27636 11.00000  0.04763   6.01
C00A  1  0.74104  0.60187  0.48326 11.00000  0.04918   5.96
C00B  1  0.10268  0.64899  0.17605 11.00000  0.05212   5.95
C00C  1  1.05845  0.51015  0.54100 11.00000  0.05530   5.89
C00D  1  0.81921  0.76359  0.71422 11.00000  0.04940   5.89
C00E  1  0.25844  0.89038  0.51554 11.00000  0.05010   5.85
C00F  1 -0.05845  0.98311  0.46115 11.00000  0.04473   5.66
C00G  1  1.04543  0.41852  0.44197 11.00000  0.05318   5.58
C00H  1  0.72332  0.51373  0.39434 11.00000  0.04797   5.42
C00I  1  0.95214  0.69762  0.65718 11.00000  0.04536   5.18
O00J  3  0.35835  0.73975  0.30716 11.00000  0.05958   5.02
C00K  1  0.91198  0.60009  0.55970 11.00000  0.04954   4.99
C00L  1  0.12902  1.07600  0.63286 11.00000  0.05636   4.86
C00M  1  0.92060  0.84780  0.82395 11.00000  0.05800   4.74
O00N  3  0.43154  0.84840  0.49707 11.00000  0.48028   3.02
HKLF 4
END
