TITL 2_expF_0_9_expS_0_5_2_b.res in Pn
REM Old TITL 1 in P2/n
REM SHELXT solution in Pn: R1 0.224, Rweak 0.079, Alpha 0.067
REM <I/s>   0.930 for  100 systematic absences,  Orientation as input
REM Formula found by SHELXT:  C11 N3 O8

CELL  0.71073   7.0400   9.2900  11.5500   90.000   97.870   90.000
ZERR   16.000   0.0014   0.0019   0.0023    0.000    0.030    0.000
LATT -1
SYMM 1/2+X, -Y, 1/2+Z
SFAC C N O
UNIT 16 16 16
L.S. 10
BOND
LIST 6
FMAP 2
PLAN 20
O001  3  0.84914  0.25949  0.30959 11.00000  0.01017  10.02
N002  2  0.63272 -0.07907  0.62823 11.00000  0.02962   9.44
O003  3  0.21742  0.48394  0.39317 11.00000  0.01830   9.34
O004  3  0.45142  0.29336  0.66209 11.00000  0.02980   9.26
N005  2  0.40519  0.38767  0.56124 11.00000  0.01707   9.17
O006  3  0.43761  0.00934  0.46000 11.00000  0.03991   8.87
O007  3  0.40128  0.14782  0.82307 11.00000  0.03428   8.79
O008  3  0.32874  0.67756  0.27902 11.00000  0.02529   8.59
O009  3  0.74060  0.11126  0.51265 11.00000  0.03940   8.54
C00A  1  0.67388  0.26935  0.28384 11.00000  0.01748   8.42
O00B  3  0.45238 -0.07984  0.55838 11.00000  0.05830   8.11
N00C  2  0.55314  0.19029  0.34056 11.00000  0.02620   6.73
C00D  1  0.31922  0.24334  0.72546 11.00000  0.02134   6.23
C00E  1  0.65385 -0.16712  0.72473 11.00000  0.02417   5.98
C00F  1  0.53065  0.57981  0.44791 11.00000  0.01962   5.50
C00G  1  0.22173  0.39479  0.48297 11.00000  0.02308   5.33
C00H  1  0.78836  0.00538  0.62406 11.00000  0.05980   5.11
C00I  1  0.15086  0.25349  0.69057 11.00000  0.04748   5.10
C00J  1  0.55916  0.47997  0.54352 11.00000  0.03047   4.66
C00K  1  0.58067  0.09910  0.43699 11.00000  0.03477   4.60
C00L  1  0.36365  0.58338  0.36652 11.00000  0.01980   4.55
C00M  1  0.58591  0.34894  0.17693 11.00000  0.03696   4.05
HKLF 4
END
