TITL 2_expF_1_0_expS_0_9_2_c.res in P2(1)
REM Old TITL 1 in P2/n
REM SHELXT solution in P2(1): R1 0.240, Rweak 0.060, Alpha 0.170
REM <I/s>   2.815 for    6 systematic absences,  Orientation as input
REM Formula found by SHELXT:  C18 N2 O3

CELL  0.71073   7.0400   9.2900  11.5500   90.000   97.870   90.000
ZERR   16.000   0.0014   0.0019   0.0023    0.000    0.030    0.000
LATT -1
SYMM -X, 1/2+Y, -Z
SFAC C N O
UNIT 16 16 16
L.S. 10
BOND
LIST 6
FMAP 2
PLAN 20
O001  3  0.39586  0.49895  0.43923 11.00000  0.03036   7.22
N002  2  0.58650  0.07577  0.02672 11.00000  0.02892   6.63
N003  2 -0.20168  0.54972  0.08765 11.00000  0.03297   6.57
C004  1 -0.14356  0.39681 -0.07131 11.00000  0.02584   6.47
C005  1  0.48793  0.35226  0.23388 11.00000  0.03188   6.44
C006  1 -0.07355  0.49028  0.03115 11.00000  0.02360   6.34
C007  1  0.69409  0.44743  0.40789 11.00000  0.02810   6.19
C008  1  0.47164  0.26136  0.13854 11.00000  0.03531   6.18
C009  1 -0.16008  0.64661  0.18708 11.00000  0.03023   6.16
C00A  1 -0.28615  0.83432  0.30237 11.00000  0.04156   6.11
C00B  1  0.81370  0.27527  0.28637 11.00000  0.02812   5.83
C00C  1 -0.11744  0.82158  0.38578 11.00000  0.03050   5.76
C00D  1  0.03467  0.73521  0.35883 11.00000  0.03153   5.75
C00E  1 -0.08655  0.92423  0.47048 11.00000  0.02802   5.73
C00F  1  0.66392  0.36175  0.31113 11.00000  0.02853   5.71
C00G  1  0.79269  0.17394  0.19224 11.00000  0.03060   5.67
C00H  1  0.56854  0.51651  0.47317 11.00000  0.03496   5.66
C00I  1  0.61450  0.15981  0.12493 11.00000  0.02829   5.62
C00J  1 -0.30708  0.74593  0.20402 11.00000  0.03026   5.32
O00K  3  0.09701  0.48329  0.05497 11.00000  0.06132   5.25
C00L  1  0.00668  0.63894  0.26298 11.00000  0.02863   5.00
C00M  1  0.67399  0.59848  0.57575 11.00000  0.03406   4.49
O00N  3  0.33711  0.28283  0.06884 11.00000  0.49889   3.03
HKLF 4
END
