TITL 2_expF_1_4_expS_1_2_2_a.res in P2(1)/n
REM Old TITL 1 in P2/n
REM SHELXT solution in P2(1)/n: R1 0.308, Rweak 0.018, Alpha 0.036
REM <I/s>   1.531 for  106 systematic absences,  Orientation as input
REM Formula found by SHELXT:  C9 N O

CELL  0.71073   7.0400   9.2900  11.5500   90.000   97.870   90.000
ZERR   16.000   0.0014   0.0019   0.0023    0.000    0.030    0.000
LATT  1
SYMM 1/2-X, 1/2+Y, 1/2-Z
SFAC C N O
UNIT 16 16 16
L.S. 10
BOND
LIST 6
FMAP 2
PLAN 20
N001  2  0.66070  0.92386  0.72173 11.00000  0.04298   6.55
C002  1  0.55337  0.55212  0.34005 11.00000  0.03683   6.35
C003  1  0.78123  0.73569  0.60898 11.00000  0.04443   6.07
C004  1  0.58929  0.64345  0.43800 11.00000  0.03911   6.01
C005  1  0.67709  0.48672  0.27947 11.00000  0.04372   5.99
C006  1  0.46125  0.82904  0.55539 11.00000  0.04589   5.98
O007  3  0.85406  0.49427  0.30871 11.00000  0.05873   5.95
C008  1  0.63311  0.83158  0.62948 11.00000  0.04401   5.83
C009  1  0.76284  0.64202  0.51511 11.00000  0.04577   5.77
C00A  1  0.44020  0.73414  0.46056 11.00000  0.04912   5.66
C00B  1  0.58973  0.40240  0.17629 11.00000  0.05095   5.30
HKLF 4
END
