TITL 2_expF_0_5_expS_1_0_2_a.res in Pn
REM Old TITL 1 in P2/n
REM SHELXT solution in Pn: R1 0.280, Rweak 0.402, Alpha 0.197
REM <I/s>   1.131 for   97 systematic absences,  Orientation as input
REM Formula found by SHELXT:  C14 N2 O8

CELL  0.71073   7.0400   9.2900  11.5500   90.000   97.870   90.000
ZERR   16.000   0.0014   0.0019   0.0023    0.000    0.030    0.000
LATT -1
SYMM 1/2+X, -Y, 1/2+Z
SFAC C N O
UNIT 16 16 16
L.S. 10
BOND
LIST 6
FMAP 2
PLAN 20
C001  1  0.39755  0.88549  0.57270 11.00000  0.00010  12.57
O002  3  0.39087  0.65959  0.82925 11.00000  0.00010  11.19
C003  1  0.66904  0.76781  0.29763 11.00000  0.00010  11.12
O004  3  0.84501  0.75512  0.32924 11.00000  0.00010  10.23
O005  3  0.53535  1.07329  0.45990 11.00000  0.01082  10.12
O006  3  0.33979  1.16681  0.28225 11.00000  0.00352   9.85
O007  3  0.55913  0.98563  0.55512 11.00000  0.00307   9.15
O008  3  0.45221  0.79406  0.66225 11.00000  0.00607   8.80
O009  3  0.56212  0.69501  0.34423 11.00000  0.02090   7.96
N00A  2  0.63346  0.42082  0.65512 11.00000  0.02944   7.41
C00B  1  0.36441  1.08104  0.38319 11.00000  0.00010   7.20
O00C  3  0.76194  0.59706  0.53650 11.00000  0.00010   7.14
N00D  2  0.24414  0.98058  0.40235 11.00000  0.01379   6.76
C00E  1  0.14096  0.74813  0.70826 11.00000  0.00200   6.50
C00F  1  0.77828  0.50492  0.62055 11.00000  0.01194   6.44
C00G  1  0.57896  0.87099  0.17075 11.00000  0.00044   5.71
C00H  1  0.24292  0.85260  0.51639 11.00000  0.02546   5.25
C00I  1  0.65236  0.30955  0.73104 11.00000  0.01835   4.33
C00J  1  0.43646  0.50779  0.48964 11.00000  0.03719   4.15
C00K  1  0.85904  0.76086  0.48983 11.00000  0.09059   3.86
C00L  1  0.38514  0.51332  0.68786 11.00000  0.05161   3.53
C00M  1  0.44307  0.39798  0.57647 11.00000  0.01261   3.36
C00N  1  0.22104  1.23014  0.45363 11.00000  0.04053   3.13
C00O  1  0.60392  0.26328  0.62274 11.00000  0.13551   3.09
HKLF 4
END
