TITL 2_expF_1_3_expS_0_9_2_a.res in P2(1)/n
REM Old TITL 1 in P2/n
REM SHELXT solution in P2(1)/n: R1 0.285, Rweak 0.024, Alpha 0.056
REM <I/s>   1.547 for  106 systematic absences,  Orientation as input
REM Formula found by SHELXT:  C10 O

CELL  0.71073   7.0400   9.2900  11.5500   90.000   97.870   90.000
ZERR   16.000   0.0014   0.0019   0.0023    0.000    0.030    0.000
LATT  1
SYMM 1/2-X, 1/2+Y, 1/2-Z
SFAC C N O
UNIT 16 16 16
L.S. 10
BOND
LIST 6
FMAP 2
PLAN 20
C001  1  0.66149  0.07778  0.72143 11.00000  0.03458   6.48
C002  1  0.55327  0.44710  0.33995 11.00000  0.03866   6.43
C003  1  0.78054  0.26142  0.60977 11.00000  0.04700   6.04
C004  1  0.67601  0.51321  0.27927 11.00000  0.04484   6.04
O005  3  0.85325  0.50521  0.30746 11.00000  0.06476   6.02
C006  1  0.58864  0.35624  0.43872 11.00000  0.04095   6.01
C007  1  0.46076  0.16930  0.55619 11.00000  0.04913   5.90
C008  1  0.63366  0.16822  0.62942 11.00000  0.04186   5.81
C009  1  0.75807  0.35701  0.51447 11.00000  0.04401   5.76
C00A  1  0.43966  0.26527  0.46020 11.00000  0.04838   5.63
C00B  1  0.59029  0.59878  0.17705 11.00000  0.05145   5.36
HKLF 4
END
