TITL 2_expF_1_3_expS_1_4_2_b.res in Pn
REM Old TITL 1 in P2/n
REM SHELXT solution in Pn: R1 0.273, Rweak 0.019, Alpha 0.015
REM <I/s>   1.474 for  100 systematic absences,  Orientation as input
REM Formula found by SHELXT:  C15 N4 O3

CELL  0.71073   7.0400   9.2900  11.5500   90.000   97.870   90.000
ZERR   16.000   0.0014   0.0019   0.0023    0.000    0.030    0.000
LATT -1
SYMM 1/2+X, -Y, 1/2+Z
SFAC C N O
UNIT 16 16 16
L.S. 10
BOND
LIST 6
FMAP 2
PLAN 20
O001  3  0.33531  1.17210  0.27993 11.00000  0.04405   7.97
N002  2  0.56532  0.98228  0.54253 11.00000  0.06214   7.35
N003  2  0.55207  0.70301  0.34025 11.00000  0.04085   7.30
N004  2  0.22666  0.98732  0.39452 11.00000  0.04189   7.10
N005  2  0.54957  1.08296  0.45252 11.00000  0.06070   6.74
O006  3  0.14663  0.74620  0.69613 11.00000  0.04872   6.46
C007  1  0.41379  0.89334  0.56326 11.00000  0.04623   6.46
C008  1  0.32653  0.74283  0.72216 11.00000  0.03825   6.39
C009  1  0.76580  0.60636  0.51414 11.00000  0.04203   6.14
C00A  1  0.24642  0.89462  0.48443 11.00000  0.03964   5.92
C00B  1  0.36698  1.08139  0.37238 11.00000  0.04774   5.90
C00C  1  0.63419  0.41712  0.63326 11.00000  0.03847   5.66
C00D  1  0.46560  0.42366  0.56403 11.00000  0.04253   5.56
O00E  3  0.85337  0.75776  0.31267 11.00000  0.06410   5.56
C00F  1  0.66008  0.32580  0.72443 11.00000  0.04382   5.34
C00G  1  0.78885  0.51502  0.61334 11.00000  0.06472   5.32
C00H  1  0.40979  0.64495  0.82295 11.00000  0.04944   5.25
C00I  1  0.58809  0.60646  0.43981 11.00000  0.03677   5.20
C00J  1  0.67952  0.77060  0.28323 11.00000  0.05012   5.15
C00K  1  0.44473  0.80744  0.66016 11.00000  0.04214   5.11
C00L  1  0.59282  0.84458  0.17705 11.00000  0.05035   5.04
C00M  1  0.44197  0.51069  0.46323 11.00000  0.03947   4.68
HKLF 4
END
