TITL 2_expF_1_1_expS_1_3_2_a.res in P2(1)/n
REM Old TITL 1 in P2/n
REM SHELXT solution in P2(1)/n: R1 0.268, Rweak 0.040, Alpha 0.100
REM <I/s>   1.313 for  106 systematic absences,  Orientation as input
REM Formula found by SHELXT:  C9 N O

CELL  0.71073   7.0400   9.2900  11.5500   90.000   97.870   90.000
ZERR   16.000   0.0014   0.0019   0.0023    0.000    0.030    0.000
LATT  1
SYMM 1/2-X, 1/2+Y, 1/2-Z
SFAC C N O
UNIT 16 16 16
L.S. 10
BOND
LIST 6
FMAP 2
PLAN 20
N001  2  0.55205  0.55183  0.33961 11.00000  0.03501   6.52
C002  1  0.66425  0.92368  0.72216 11.00000  0.02220   6.38
O003  3  0.84994  0.49335  0.30811 11.00000  0.04294   6.23
C004  1  0.67861  0.48772  0.27857 11.00000  0.02858   6.11
C005  1  0.58810  0.64281  0.43825 11.00000  0.02947   6.06
C006  1  0.63257  0.83054  0.63011 11.00000  0.03116   5.95
C007  1  0.78053  0.73629  0.60956 11.00000  0.03106   5.94
C008  1  0.76086  0.64302  0.51461 11.00000  0.03155   5.73
C009  1  0.46197  0.82901  0.55556 11.00000  0.03299   5.70
C00A  1  0.43969  0.73506  0.45947 11.00000  0.03281   5.52
C00B  1  0.58990  0.39903  0.17650 11.00000  0.03300   5.35
HKLF 4
END
