TITL 2_expF_1_3_expS_0_7_2_a.res in P2(1)/n
REM Old TITL 1 in P2/n
REM SHELXT solution in P2(1)/n: R1 0.285, Rweak 0.024, Alpha 0.064
REM <I/s>   1.637 for  106 systematic absences,  Orientation as input
REM Formula found by SHELXT:  C10 O

CELL  0.71073   7.0400   9.2900  11.5500   90.000   97.870   90.000
ZERR   16.000   0.0014   0.0019   0.0023    0.000    0.030    0.000
LATT  1
SYMM 1/2-X, 1/2+Y, 1/2-Z
SFAC C N O
UNIT 16 16 16
L.S. 10
BOND
LIST 6
FMAP 2
PLAN 20
C001  1  0.66116  0.07774  0.72132 11.00000  0.03510   6.46
C002  1  0.55320  0.44706  0.33982 11.00000  0.03889   6.42
C003  1  0.67543  0.51329  0.27953 11.00000  0.04537   6.03
C004  1  0.78042  0.26101  0.61011 11.00000  0.04783   6.03
O005  3  0.85317  0.50516  0.30756 11.00000  0.06695   6.02
C006  1  0.58856  0.35634  0.43873 11.00000  0.04138   6.01
C007  1  0.46062  0.16926  0.55603 11.00000  0.04934   5.90
C008  1  0.63397  0.16833  0.62936 11.00000  0.04173   5.83
C009  1  0.75728  0.35700  0.51444 11.00000  0.04483   5.78
C00A  1  0.43977  0.26525  0.45984 11.00000  0.04891   5.64
C00B  1  0.59084  0.59874  0.17702 11.00000  0.05207   5.38
HKLF 4
END
