TITL 2_expF_1_5_expS_0_5_2_a.res in P2(1)/n
REM Old TITL 1 in P2/n
REM SHELXT solution in P2(1)/n: R1 0.329, Rweak 0.009, Alpha 0.034
REM <I/s>   1.859 for  106 systematic absences,  Orientation as input
REM Formula found by SHELXT:  C9 N O

CELL  0.71073   7.0400   9.2900  11.5500   90.000   97.870   90.000
ZERR   16.000   0.0014   0.0019   0.0023    0.000    0.030    0.000
LATT  1
SYMM 1/2-X, 1/2+Y, 1/2-Z
SFAC C N O
UNIT 16 16 16
L.S. 10
BOND
LIST 6
FMAP 2
PLAN 20
N001  2  0.33868  0.07752  0.27865 11.00000  0.05242   6.51
C002  1  0.45047  0.44581  0.65964 11.00000  0.04578   6.27
C003  1  0.53512  0.16753  0.44343 11.00000  0.05711   6.17
C004  1  0.21579  0.26255  0.39010 11.00000  0.05077   6.17
C005  1  0.41058  0.35681  0.56304 11.00000  0.04670   6.10
O006  3  0.15150  0.50356  0.69025 11.00000  0.07509   5.91
C007  1  0.24292  0.35601  0.48367 11.00000  0.05391   5.77
C008  1  0.32003  0.51168  0.72092 11.00000  0.05447   5.76
C009  1  0.55891  0.26232  0.54078 11.00000  0.05308   5.76
C00A  1  0.37081  0.16882  0.36876 11.00000  0.05116   5.70
C00B  1  0.40947  0.59824  0.82264 11.00000  0.05912   5.28
HKLF 4
END
