TITL 2_expF_1_3_expS_1_3_2_b.res in Pn
REM Old TITL 1 in P2/n
REM SHELXT solution in Pn: R1 0.272, Rweak 0.019, Alpha 0.016
REM <I/s>   1.437 for  100 systematic absences,  Orientation as input
REM Formula found by SHELXT:  C15 N4 O3

CELL  0.71073   7.0400   9.2900  11.5500   90.000   97.870   90.000
ZERR   16.000   0.0014   0.0019   0.0023    0.000    0.030    0.000
LATT -1
SYMM 1/2+X, -Y, 1/2+Z
SFAC C N O
UNIT 16 16 16
L.S. 10
BOND
LIST 6
FMAP 2
PLAN 20
O001  3  0.66786  0.32662  0.71568 11.00000  0.05129   8.40
N002  2  0.76794  0.60563  0.51274 11.00000  0.04926   7.38
O003  3  0.14643  0.74411  0.69169 11.00000  0.05242   7.21
N004  2  0.78304  0.51314  0.60084 11.00000  0.05795   7.17
N005  2  0.64624  0.42071  0.62927 11.00000  0.05120   6.76
N006  2  0.41537  0.89741  0.55612 11.00000  0.04247   6.52
C007  1  0.55996  0.99235  0.53526 11.00000  0.04217   6.45
C008  1  0.42764  0.65315  0.82410 11.00000  0.05943   6.10
C009  1  0.32805  0.72941  0.71743 11.00000  0.04575   6.07
C00A  1  0.55156  0.70249  0.33737 11.00000  0.03628   6.06
C00B  1  0.44450  0.80521  0.65680 11.00000  0.03436   6.02
C00C  1  0.53975  1.08102  0.44263 11.00000  0.04421   6.00
C00D  1  0.46229  0.42081  0.55467 11.00000  0.04736   5.96
C00E  1  0.43861  0.52109  0.45583 11.00000  0.04509   5.42
C00F  1  0.68219  0.75673  0.27738 11.00000  0.04000   5.38
C00G  1  0.22291  0.98621  0.38283 11.00000  0.04060   5.19
C00H  1  0.37838  1.08529  0.36948 11.00000  0.03881   5.00
C00I  1  0.34295  1.17167  0.27147 11.00000  0.03445   4.76
C00J  1  0.59074  0.61103  0.43189 11.00000  0.04569   4.74
C00K  1  0.25013  0.89269  0.48383 11.00000  0.04513   4.72
O00L  3  0.85357  0.75529  0.30849 11.00000  0.05673   4.50
C00M  1  0.60244  0.85255  0.17590 11.00000  0.03822   4.15
HKLF 4
END
