TITL 2_expF_1_1_expS_1_1_2_a.res in P2(1)/n
REM Old TITL 1 in P2/n
REM SHELXT solution in P2(1)/n: R1 0.268, Rweak 0.043, Alpha 0.083
REM <I/s>   1.263 for  106 systematic absences,  Orientation as input
REM Formula found by SHELXT:  C10 O

CELL  0.71073   7.0400   9.2900  11.5500   90.000   97.870   90.000
ZERR   16.000   0.0014   0.0019   0.0023    0.000    0.030    0.000
LATT  1
SYMM 1/2-X, 1/2+Y, 1/2-Z
SFAC C N O
UNIT 16 16 16
L.S. 10
BOND
LIST 6
FMAP 2
PLAN 20
C001  1  0.44862  0.55200  0.66006 11.00000  0.02814   6.46
C002  1  0.33676  0.92320  0.27834 11.00000  0.02492   6.28
O003  3  0.14890  0.49447  0.69191 11.00000  0.04754   6.16
C004  1  0.32158  0.48704  0.72178 11.00000  0.03080   6.16
C005  1  0.21904  0.73724  0.39026 11.00000  0.03333   6.08
C006  1  0.41265  0.64281  0.56177 11.00000  0.03117   5.96
C007  1  0.36694  0.83086  0.36984 11.00000  0.03239   5.84
C008  1  0.53754  0.82951  0.44438 11.00000  0.03523   5.80
C009  1  0.24014  0.64237  0.48542 11.00000  0.03305   5.71
C00A  1  0.56080  0.73501  0.54080 11.00000  0.03507   5.60
C00B  1  0.40933  0.39987  0.82348 11.00000  0.03558   5.44
HKLF 4
END
