TITL 2_expF_0_8_expS_0_7_2_a.res in P2(1)/n
REM Old TITL 1 in P2/n
REM SHELXT solution in P2(1)/n: R1 0.291, Rweak 0.143, Alpha 0.160
REM <I/s>   1.038 for  106 systematic absences,  Orientation as input
REM Formula found by SHELXT:  C10 O

CELL  0.71073   7.0400   9.2900  11.5500   90.000   97.870   90.000
ZERR   16.000   0.0014   0.0019   0.0023    0.000    0.030    0.000
LATT  1
SYMM 1/2-X, 1/2+Y, 1/2-Z
SFAC C N O
UNIT 16 16 16
L.S. 10
BOND
LIST 6
FMAP 2
PLAN 20
O001  3  0.14897  0.50579  0.69159 11.00000  0.02953   6.54
C002  1  0.44853  0.44921  0.66092 11.00000  0.01526   6.46
C003  1  0.33453  0.07540  0.27806 11.00000  0.01616   6.21
C004  1  0.32086  0.51319  0.72113 11.00000  0.01834   6.13
C005  1  0.21929  0.26367  0.38881 11.00000  0.02040   6.10
C006  1  0.41136  0.35747  0.56222 11.00000  0.01944   5.97
C007  1  0.36740  0.16977  0.37067 11.00000  0.02044   5.76
C008  1  0.56127  0.26450  0.54068 11.00000  0.02162   5.57
C009  1  0.40798  0.60027  0.82282 11.00000  0.01995   5.52
C00A  1  0.24068  0.35806  0.48502 11.00000  0.01982   5.50
C00B  1  0.54171  0.17101  0.44590 11.00000  0.02457   5.42
HKLF 4
END
