TITL 2_expF_1_0_expS_0_9_2_b.res in Pn
REM Old TITL 1 in P2/n
REM SHELXT solution in Pn: R1 0.233, Rweak 0.043, Alpha 0.033
REM <I/s>   1.096 for  100 systematic absences,  Orientation as input
REM Formula found by SHELXT:  C11 N3 O7

CELL  0.71073   7.0400   9.2900  11.5500   90.000   97.870   90.000
ZERR   16.000   0.0014   0.0019   0.0023    0.000    0.030    0.000
LATT -1
SYMM 1/2+X, -Y, 1/2+Z
SFAC C N O
UNIT 16 16 16
L.S. 10
BOND
LIST 6
FMAP 2
PLAN 20
O001  3  0.74526  0.89364  0.48669 11.00000  0.01198  10.53
O002  3  0.95868  0.80034  0.66361 11.00000  0.02720  10.03
O003  3  0.36410  0.75638  0.31225 11.00000  0.03216   8.86
N004  2  0.86872  1.07609  0.37096 11.00000  0.02312   8.73
C005  1  0.18722  0.76488  0.28228 11.00000  0.01903   7.97
O006  3  0.71170  0.98889  0.39416 11.00000  0.05853   7.86
O007  3  0.91378  0.64911  0.82372 11.00000  0.03689   7.71
O008  3  0.17563  0.31968  0.72475 11.00000  0.03822   7.52
N009  2 -0.03388  0.42058  0.55470 11.00000  0.03874   6.89
N00A  2 -0.05788  0.51140  0.46214 11.00000  0.03342   6.56
C00B  1  0.09729  0.60598  0.44227 11.00000  0.02450   6.48
C00C  1  0.92330  0.89306  0.56564 11.00000  0.02559   6.41
C00D  1  0.85096  1.16887  0.28007 11.00000  0.01724   6.34
C00E  1  1.04609  1.07948  0.44492 11.00000  0.02670   6.03
C00F  1  1.05788  0.98524  0.54202 11.00000  0.02355   5.89
O00G  3  0.66051  0.74430  0.69459 11.00000  0.03800   5.69
C00H  1  0.28125  0.51497  0.61414 11.00000  0.01834   5.34
C00I  1  0.82930  0.73945  0.72304 11.00000  0.02906   5.33
C00J  1  0.09850  0.84850  0.17628 11.00000  0.04365   4.33
C00K  1  0.06414  0.69729  0.34426 11.00000  0.02998   4.23
C00L  1  0.12962  0.41492  0.63168 11.00000  0.03401   4.06
HKLF 4
END
