TITL 2_expF_1_2_expS_0_9_2_b.res in Pn
REM Old TITL 1 in P2/n
REM SHELXT solution in Pn: R1 0.247, Rweak 0.028, Alpha 0.024
REM <I/s>   1.223 for  100 systematic absences,  Orientation as input
REM Formula found by SHELXT:  C12 N6 O4

CELL  0.71073   7.0400   9.2900  11.5500   90.000   97.870   90.000
ZERR   16.000   0.0014   0.0019   0.0023    0.000    0.030    0.000
LATT -1
SYMM 1/2+X, -Y, 1/2+Z
SFAC C N O
UNIT 16 16 16
L.S. 10
BOND
LIST 6
FMAP 2
PLAN 20
O001  3  0.45142  0.70165  0.66470 11.00000  0.04365   9.18
O002  3  0.22797  0.60806  0.48759 11.00000  0.04718   8.09
N003  2  0.46037  1.08572  0.55639 11.00000  0.04404   7.30
C004  1  0.67544  0.74042  0.28117 11.00000  0.03623   7.18
N005  2  0.35471  0.41996  0.36868 11.00000  0.04175   7.12
N006  2  0.54983  0.51354  0.54301 11.00000  0.04506   6.86
N007  2  0.66185  1.17007  0.72771 11.00000  0.02729   6.86
O008  3  0.85075  0.74113  0.30649 11.00000  0.04510   6.76
N009  2  0.77272  0.98461  0.61536 11.00000  0.03637   6.73
N00A  2  0.33887  0.32284  0.28523 11.00000  0.04391   6.54
C00B  1  0.39919  0.85427  0.82394 11.00000  0.03396   6.47
C00C  1  0.58673  0.89544  0.44524 11.00000  0.03133   6.40
C00D  1  0.41228  0.60720  0.56883 11.00000  0.03474   6.16
C00E  1  0.21073  0.50718  0.39747 11.00000  0.04721   6.13
O00F  3  0.14925  0.75382  0.68889 11.00000  0.05488   5.89
C00G  1  0.31931  0.76479  0.72234 11.00000  0.03645   5.34
C00H  1  0.53685  0.42687  0.44381 11.00000  0.04376   5.30
C00I  1  0.43011  0.98383  0.46257 11.00000  0.03926   5.22
C00J  1  0.61868  1.08482  0.62830 11.00000  0.04031   5.20
C00K  1  0.57938  0.65422  0.17606 11.00000  0.04991   4.87
C00L  1  0.56005  0.80672  0.34488 11.00000  0.03335   4.11
C00M  1  0.74628  0.89629  0.51627 11.00000  0.04989   4.00
HKLF 4
END
