TITL 2_expF_1_5_expS_1_2_2_b.res in Pn
REM Old TITL 1 in P2/n
REM SHELXT solution in Pn: R1 0.318, Rweak 0.013, Alpha 0.010
REM <I/s>   1.190 for  100 systematic absences,  Orientation as input
REM Formula found by SHELXT:  C15 N5 O2

CELL  0.71073   7.0400   9.2900  11.5500   90.000   97.870   90.000
ZERR   16.000   0.0014   0.0019   0.0023    0.000    0.030    0.000
LATT -1
SYMM 1/2+X, -Y, 1/2+Z
SFAC C N O
UNIT 16 16 16
L.S. 10
BOND
LIST 6
FMAP 2
PLAN 20
N001  2  0.41960  0.89202  0.56259 11.00000  0.05130   7.55
N002  2  0.44495  0.51329  0.46070 11.00000  0.05303   7.30
C003  1  0.33064  0.73892  0.72277 11.00000  0.05160   7.02
N004  2  0.66865  0.32496  0.71878 11.00000  0.04650   6.97
N005  2  0.64066  0.41234  0.62689 11.00000  0.05307   6.90
N006  2  0.55173  0.69126  0.34091 11.00000  0.05344   6.75
C007  1  0.22056  0.98854  0.38922 11.00000  0.04993   6.48
C008  1  0.34323  1.17076  0.27493 11.00000  0.03822   6.34
C009  1  0.46771  0.42340  0.55989 11.00000  0.05563   6.32
O00A  3  0.14953  0.74335  0.69095 11.00000  0.05563   6.11
C00B  1  0.54019  1.08321  0.44612 11.00000  0.05160   6.04
C00C  1  0.76520  0.60479  0.51168 11.00000  0.04686   5.95
C00D  1  0.78506  0.51419  0.60723 11.00000  0.04765   5.86
C00E  1  0.44695  0.79605  0.65958 11.00000  0.04004   5.75
C00F  1  0.41724  0.64664  0.82308 11.00000  0.05236   5.71
O00G  3  0.85047  0.75300  0.30836 11.00000  0.07060   5.69
C00H  1  0.24776  0.89132  0.48153 11.00000  0.05039   5.50
C00I  1  0.60275  0.84415  0.17692 11.00000  0.05952   4.72
C00J  1  0.69011  0.76255  0.28301 11.00000  0.04555   4.66
C00K  1  0.37806  1.07630  0.36582 11.00000  0.05433   4.65
C00L  1  0.59792  0.60377  0.43850 11.00000  0.04782   4.41
C00M  1  0.56315  0.98506  0.54055 11.00000  0.06178   4.17
HKLF 4
END
