TITL 2_expF_1_3_expS_1_5_2_a.res in P2(1)/n
REM Old TITL 1 in P2/n
REM SHELXT solution in P2(1)/n: R1 0.301, Rweak 0.020, Alpha 0.063
REM <I/s>   1.548 for  106 systematic absences,  Orientation as input
REM Formula found by SHELXT:  C10 O

CELL  0.71073   7.0400   9.2900  11.5500   90.000   97.870   90.000
ZERR   16.000   0.0014   0.0019   0.0023    0.000    0.030    0.000
LATT  1
SYMM 1/2-X, 1/2+Y, 1/2-Z
SFAC C N O
UNIT 16 16 16
L.S. 10
BOND
LIST 6
FMAP 2
PLAN 20
C001  1  0.33660  0.07746  0.27782 11.00000  0.02948   6.50
C002  1  0.44601  0.44787  0.65942 11.00000  0.03399   6.26
C003  1  0.21888  0.26322  0.39071 11.00000  0.04146   6.24
C004  1  0.53947  0.16997  0.44418 11.00000  0.04371   5.99
C005  1  0.23972  0.35697  0.48554 11.00000  0.03905   5.94
C006  1  0.32233  0.51306  0.72097 11.00000  0.04044   5.92
O007  3  0.14689  0.50572  0.69179 11.00000  0.05153   5.89
C008  1  0.56019  0.26543  0.53891 11.00000  0.04313   5.87
C009  1  0.36749  0.16889  0.37065 11.00000  0.03870   5.79
C00A  1  0.41127  0.35587  0.56181 11.00000  0.03668   5.73
C00B  1  0.41157  0.60005  0.82324 11.00000  0.04543   5.23
HKLF 4
END
