TITL 2_expF_1_4_expS_1_4_2_a.res in P2(1)/n
REM Old TITL 1 in P2/n
REM SHELXT solution in P2(1)/n: R1 0.316, Rweak 0.018, Alpha 0.044
REM <I/s>   1.540 for  106 systematic absences,  Orientation as input
REM Formula found by SHELXT:  C9 N O

CELL  0.71073   7.0400   9.2900  11.5500   90.000   97.870   90.000
ZERR   16.000   0.0014   0.0019   0.0023    0.000    0.030    0.000
LATT  1
SYMM 1/2-X, 1/2+Y, 1/2-Z
SFAC C N O
UNIT 16 16 16
L.S. 10
BOND
LIST 6
FMAP 2
PLAN 20
N001  2  0.66114  0.07623  0.72188 11.00000  0.04077   6.53
C002  1  0.55351  0.44817  0.34032 11.00000  0.03544   6.34
C003  1  0.78101  0.26458  0.60879 11.00000  0.04274   6.16
C004  1  0.46124  0.17137  0.55539 11.00000  0.04418   6.07
C005  1  0.58916  0.35679  0.43792 11.00000  0.03745   6.05
O006  3  0.85380  0.50592  0.30883 11.00000  0.05513   6.01
C007  1  0.67739  0.51318  0.27962 11.00000  0.04218   5.86
C008  1  0.76307  0.35754  0.51504 11.00000  0.04349   5.77
C009  1  0.63291  0.16847  0.62964 11.00000  0.04252   5.75
C00A  1  0.43996  0.26605  0.46071 11.00000  0.04684   5.68
C00B  1  0.58920  0.59803  0.17640 11.00000  0.04895   5.32
HKLF 4
END
