TITL 2_expF_0_5_expS_0_7_2_a.res in Pn
REM Old TITL 1 in P2/n
REM SHELXT solution in Pn: R1 0.271, Rweak 0.369, Alpha 0.191
REM <I/s>   0.990 for   97 systematic absences,  Orientation as input
REM Formula found by SHELXT:  C13 N4 O2

CELL  0.71073   7.0400   9.2900  11.5500   90.000   97.870   90.000
ZERR   16.000   0.0014   0.0019   0.0023    0.000    0.030    0.000
LATT -1
SYMM 1/2+X, -Y, 1/2+Z
SFAC C N O
UNIT 16 16 16
L.S. 10
BOND
LIST 6
FMAP 2
PLAN 20
N001  2  0.93079  0.11354  0.57117 11.00000  0.00010  11.39
O002  3  0.14495  0.58012  0.64042 11.00000  0.00718  11.04
C003  1  0.83522  0.26111  0.72637 11.00000  0.01740   8.90
O004  3  0.66758  0.26221  0.70263 11.00000  0.00168   8.15
N005  2  0.96763  0.21681  0.66767 11.00000  0.03043   7.18
N006  2  1.05930 -0.08238  0.45694 11.00000  0.00010   7.15
N007  2  0.73622  0.02357  0.39588 11.00000  0.00137   6.81
C008  1  0.91161  0.34975  0.81949 11.00000  0.00641   6.46
C009  1  0.76440  0.11039  0.49739 11.00000  0.00010   6.24
C00A  1  0.06586  0.30959  0.34594 11.00000  0.00010   6.02
C00B  1  0.85686 -0.16475  0.27739 11.00000  0.00029   6.00
C00C  1  0.37804  0.24889  0.32792 11.00000  0.01214   5.80
C00D  1 -0.05930  0.48801  0.47504 11.00000  0.00995   5.51
C00E  1  0.09754  0.14689  0.18051 11.00000  0.00613   5.22
C00F  1  0.19247  0.68866  0.72637 11.00000  0.00010   5.04
C00G  1  1.05901  0.00650  0.55439 11.00000  0.01250   4.52
C00H  1  0.29403  0.50524  0.62053 11.00000  0.03783   4.46
C00I  1  0.19811  0.22360  0.29182 11.00000  0.00094   4.13
C00J  1  0.30201  0.41072  0.51542 11.00000  0.03767   3.38
HKLF 4
END
