TITL 2_expF_0_8_expS_0_7_2_c.res in P2(1)
REM Old TITL 1 in P2/n
REM SHELXT solution in P2(1): R1 0.246, Rweak 0.130, Alpha 0.168
REM <I/s>   2.224 for    6 systematic absences,  Orientation as input
REM Formula found by SHELXT:  C13 N5 O4

CELL  0.71073   7.0400   9.2900  11.5500   90.000   97.870   90.000
ZERR   16.000   0.0014   0.0019   0.0023    0.000    0.030    0.000
LATT -1
SYMM -X, 1/2+Y, -Z
SFAC C N O
UNIT 16 16 16
L.S. 10
BOND
LIST 6
FMAP 2
PLAN 20
N001  2  0.83776  0.39803  0.18837 11.00000  0.01325   8.94
O002  3  0.90761  0.67374  0.47451 11.00000  0.01566   8.53
O003  3  0.80445  0.30004  0.09381 11.00000  0.02172   7.87
C004  1  0.42915  0.76103  0.53041 11.00000  0.01879   7.63
N005  2  0.19227  0.51194  0.70270 11.00000  0.02745   7.38
N006  2  0.88197  0.57067  0.37909 11.00000  0.02269   7.07
N007  2  0.35138  0.85146  0.43040 11.00000  0.02223   6.92
O008  3  1.10524  0.23410  0.05974 11.00000  0.01201   6.88
N009  2  1.03519  0.49529  0.36647 11.00000  0.03905   6.72
O00A  3  0.59247  0.73695  0.55762 11.00000  0.05041   6.35
C00B  1  0.29794  0.69875  0.58386 11.00000  0.02548   6.25
C00C  1  0.69612  0.57790  0.30358 11.00000  0.01421   6.13
C00D  1  0.52777  0.51719  0.85857 11.00000  0.01008   5.98
C00E  1  1.00452  0.38644  0.26425 11.00000  0.01484   5.88
C00F  1  0.51284  0.59875  0.76443 11.00000  0.02357   5.60
C00G  1  0.22874  0.42146  0.80820 11.00000  0.02996   5.34
C00H  1  0.38386  0.40508  0.88237 11.00000  0.02477   4.89
C00I  1  0.92969  0.23330  0.02900 11.00000  0.01611   4.78
C00J  1  0.83281  0.14854 -0.07588 11.00000  0.02246   4.76
C00K  1  0.42709  0.32942  0.96682 11.00000  0.02865   4.24
C00L  1  0.68742  0.48315  0.21613 11.00000  0.01780   4.15
C00M  1  0.33866  0.61842  0.68930 11.00000  0.03447   3.81
HKLF 4
END
