TITL 2_expF_1_4_expS_1_3_2_a.res in P2(1)/n
REM Old TITL 1 in P2/n
REM SHELXT solution in P2(1)/n: R1 0.309, Rweak 0.017, Alpha 0.040
REM <I/s>   1.531 for  106 systematic absences,  Orientation as input
REM Formula found by SHELXT:  C10 O

CELL  0.71073   7.0400   9.2900  11.5500   90.000   97.870   90.000
ZERR   16.000   0.0014   0.0019   0.0023    0.000    0.030    0.000
LATT  1
SYMM 1/2-X, 1/2+Y, 1/2-Z
SFAC C N O
UNIT 16 16 16
L.S. 10
BOND
LIST 6
FMAP 2
PLAN 20
C001  1  0.33754  0.07718  0.27781 11.00000  0.03449   6.44
C002  1  0.44672  0.44811  0.65968 11.00000  0.03938   6.32
C003  1  0.21758  0.26346  0.39041 11.00000  0.04526   6.10
C004  1  0.41054  0.35638  0.56185 11.00000  0.04061   6.03
C005  1  0.53822  0.17068  0.44447 11.00000  0.04825   5.99
C006  1  0.32218  0.51408  0.72073 11.00000  0.04460   5.94
O007  3  0.14633  0.50636  0.69109 11.00000  0.06023   5.91
C008  1  0.36632  0.16860  0.37048 11.00000  0.04698   5.81
C009  1  0.23716  0.35809  0.48507 11.00000  0.04693   5.81
C00A  1  0.55965  0.26650  0.53958 11.00000  0.05067   5.72
C00B  1  0.40985  0.59852  0.82330 11.00000  0.05222   5.30
HKLF 4
END
