TITL 2_expF_1_4_expS_1_4_2_b.res in Pn
REM Old TITL 1 in P2/n
REM SHELXT solution in Pn: R1 0.292, Rweak 0.017, Alpha 0.007
REM <I/s>   1.565 for  100 systematic absences,  Orientation as input
REM Formula found by SHELXT:  C15 N5 O2

CELL  0.71073   7.0400   9.2900  11.5500   90.000   97.870   90.000
ZERR   16.000   0.0014   0.0019   0.0023    0.000    0.030    0.000
LATT -1
SYMM 1/2+X, -Y, 1/2+Z
SFAC C N O
UNIT 16 16 16
L.S. 10
BOND
LIST 6
FMAP 2
PLAN 20
N001  2  0.41908  0.10606  0.56474 11.00000  0.04431   7.40
N002  2  0.63595  0.58691  0.62791 11.00000  0.05238   7.06
N003  2  0.53624 -0.07918  0.44685 11.00000  0.04589   6.87
N004  2  0.76789  0.39444  0.51304 11.00000  0.05594   6.85
N005  2  0.66243  0.67622  0.71848 11.00000  0.04761   6.64
C006  1  0.55237  0.30385  0.34155 11.00000  0.04139   6.42
C007  1  0.32884  0.26480  0.72507 11.00000  0.04784   6.34
C008  1  0.78316  0.48370  0.60909 11.00000  0.05028   6.31
C009  1  0.44270  0.47890  0.46266 11.00000  0.05481   6.16
C00A  1  0.33773 -0.17054  0.27509 11.00000  0.03170   5.91
O00B  3  0.14550  0.25674  0.69204 11.00000  0.05235   5.71
C00C  1  0.41064  0.35125  0.82361 11.00000  0.04671   5.63
O00D  3  0.85450  0.24519  0.30889 11.00000  0.06621   5.49
C00E  1  0.44597  0.20133  0.66096 11.00000  0.03866   5.48
C00F  1  0.21955  0.01083  0.39041 11.00000  0.04421   5.41
C00G  1  0.68513  0.23809  0.28507 11.00000  0.04168   4.80
C00H  1  0.45875  0.57767  0.56116 11.00000  0.06397   4.76
C00I  1  0.56089  0.01261  0.54244 11.00000  0.04732   4.69
C00J  1  0.59391  0.15570  0.17639 11.00000  0.06139   4.53
C00K  1  0.24479  0.10952  0.48347 11.00000  0.04774   4.15
C00L  1  0.59754  0.39223  0.44263 11.00000  0.04875   4.07
C00M  1  0.37055 -0.07778  0.36705 11.00000  0.05215   4.02
HKLF 4
END
