TITL 2_expF_1_5_expS_0_7_2_a.res in P2(1)/n
REM Old TITL 1 in P2/n
REM SHELXT solution in P2(1)/n: R1 0.328, Rweak 0.009, Alpha 0.034
REM <I/s>   1.629 for  106 systematic absences,  Orientation as input
REM Formula found by SHELXT:  C9 N O

CELL  0.71073   7.0400   9.2900  11.5500   90.000   97.870   90.000
ZERR   16.000   0.0014   0.0019   0.0023    0.000    0.030    0.000
LATT  1
SYMM 1/2-X, 1/2+Y, 1/2-Z
SFAC C N O
UNIT 16 16 16
L.S. 10
BOND
LIST 6
FMAP 2
PLAN 20
N001  2  0.33920  0.07730  0.27866 11.00000  0.05073   6.51
C002  1  0.44994  0.44605  0.65962 11.00000  0.04503   6.27
C003  1  0.53548  0.16788  0.44320 11.00000  0.05623   6.17
C004  1  0.21599  0.26256  0.39042 11.00000  0.05015   6.17
C005  1  0.41022  0.35695  0.56297 11.00000  0.04561   6.10
O006  3  0.15063  0.50383  0.69073 11.00000  0.07276   5.91
C007  1  0.24209  0.35616  0.48371 11.00000  0.05285   5.77
C008  1  0.32012  0.51174  0.72092 11.00000  0.05301   5.76
C009  1  0.55953  0.26261  0.54032 11.00000  0.05270   5.76
C00A  1  0.37045  0.16853  0.36883 11.00000  0.04992   5.70
C00B  1  0.40972  0.59816  0.82275 11.00000  0.05836   5.28
HKLF 4
END
