TITL 2_expF_0_9_expS_1_2_2_b.res in Pn
REM Old TITL 1 in P2/n
REM SHELXT solution in Pn: R1 0.222, Rweak 0.081, Alpha 0.044
REM <I/s>   1.197 for  100 systematic absences,  Orientation as input
REM Formula found by SHELXT:  C12 N3 O6

CELL  0.71073   7.0400   9.2900  11.5500   90.000   97.870   90.000
ZERR   16.000   0.0014   0.0019   0.0023    0.000    0.030    0.000
LATT -1
SYMM 1/2+X, -Y, 1/2+Z
SFAC C N O
UNIT 16 16 16
L.S. 10
BOND
LIST 6
FMAP 2
PLAN 20
O001  3  0.66314  0.32737  0.71829 11.00000  0.00010  10.04
O002  3  0.14770  0.73847  0.68486 11.00000  0.02789   9.58
O003  3  0.45630  0.42539  0.55434 11.00000  0.03901   8.84
O004  3  0.45060  0.79981  0.65667 11.00000  0.02975   8.37
N005  2  0.58114  0.60115  0.43506 11.00000  0.01557   7.98
O006  3  0.40556  0.64123  0.82267 11.00000  0.03845   7.37
N007  2  0.78303  0.51162  0.60678 11.00000  0.01909   7.18
N008  2  0.67524  0.76215  0.27331 11.00000  0.02963   6.87
C009  1  0.55531  0.98381  0.53656 11.00000  0.02375   6.13
C00A  1  0.74894  0.60592  0.51092 11.00000  0.00866   6.12
C00B  1  0.21903  0.98459  0.38366 11.00000  0.02865   6.09
C00C  1  0.22872  0.89699  0.48333 11.00000  0.03291   5.83
C00D  1  0.63816  0.42303  0.62784 11.00000  0.02356   5.82
C00E  1  0.31923  0.73542  0.71331 11.00000  0.01767   5.79
C00F  1  0.37342  1.08352  0.36915 11.00000  0.01856   5.73
C00G  1  0.55363  0.70162  0.33577 11.00000  0.02062   5.34
C00H  1  0.43301  0.51130  0.45513 11.00000  0.02141   5.27
C00I  1  0.40557  0.88311  0.55871 11.00000  0.03052   4.77
C00J  1  0.58883  0.84588  0.17733 11.00000  0.02293   4.13
C00K  1  0.53621  1.08611  0.44522 11.00000  0.02615   3.47
O00L  3  0.85230  0.74987  0.30346 11.00000  0.02922   3.44
HKLF 4
END
