TITL 2_expF_0_9_expS_1_2_2_c.res in P2(1)
REM Old TITL 1 in P2/n
REM SHELXT solution in P2(1): R1 0.237, Rweak 0.092, Alpha 0.175
REM <I/s>   1.350 for    6 systematic absences,  Orientation as input
REM Formula found by SHELXT:  C14 N4 O4

CELL  0.71073   7.0400   9.2900  11.5500   90.000   97.870   90.000
ZERR   16.000   0.0014   0.0019   0.0023    0.000    0.030    0.000
LATT -1
SYMM -X, 1/2+Y, -Z
SFAC C N O
UNIT 16 16 16
L.S. 10
BOND
LIST 6
FMAP 2
PLAN 20
O001  3  0.20364  0.29347  0.90863 11.00000  0.02662   8.76
N002  2  0.16495  0.38955  0.81153 11.00000  0.01551   7.36
N003  2  0.12031  0.56934  0.61432 11.00000  0.03044   7.08
N004  2  0.14995  0.14682  1.07114 11.00000  0.02234   7.07
N005  2  0.80261  0.50197  0.28959 11.00000  0.04139   6.81
C006  1  0.06927  0.22654  0.96740 11.00000  0.01865   6.60
O007  3  0.39314  0.74546  0.43958 11.00000  0.02248   6.52
C008  1  0.46898  0.51222  0.13622 11.00000  0.02840   6.45
O009  3  0.58753  0.33025  0.02368 11.00000  0.02973   6.32
C00A  1 -0.00680  0.38735  0.74070 11.00000  0.02833   6.32
C00B  1  0.78088  0.40498  0.19830 11.00000  0.03258   6.20
C00C  1  0.08162  0.67950  0.53183 11.00000  0.01452   6.15
O00D  3 -0.09622  0.22959  0.94422 11.00000  0.04158   6.10
C00E  1  0.57136  0.75341  0.47372 11.00000  0.02343   5.90
C00F  1  0.29790  0.56656  0.69323 11.00000  0.01717   5.65
C00G  1 -0.03212  0.48351  0.64261 11.00000  0.01926   5.58
C00H  1  0.48781  0.59803  0.23290 11.00000  0.01487   5.31
C00I  1  0.65483  0.60674  0.31386 11.00000  0.05086   5.01
C00J  1  0.61596  0.40792  0.12403 11.00000  0.02204   4.88
C00K  1  0.31636  0.47618  0.79115 11.00000  0.01587   4.47
C00L  1  0.69170  0.69056  0.41133 11.00000  0.02427   4.34
C00M  1  0.66733  0.85318  0.57603 11.00000  0.03396   3.82
HKLF 4
END
