TITL 2_expF_1_5_expS_1_5_2_b.res in Pn
REM Old TITL 1 in P2/n
REM SHELXT solution in Pn: R1 0.334, Rweak 0.014, Alpha 0.008
REM <I/s>   1.364 for  100 systematic absences,  Orientation as input
REM Formula found by SHELXT:  C18 N O3

CELL  0.71073   7.0400   9.2900  11.5500   90.000   97.870   90.000
ZERR   16.000   0.0014   0.0019   0.0023    0.000    0.030    0.000
LATT -1
SYMM 1/2+X, -Y, 1/2+Z
SFAC C N O
UNIT 16 16 16
L.S. 10
BOND
LIST 6
FMAP 2
PLAN 20
O001  3  0.33335  1.17033  0.27802 11.00000  0.04501   7.86
O002  3  0.85285  0.75856  0.30964 11.00000  0.05806   7.30
N003  2  0.22357  0.98542  0.39420 11.00000  0.04560   7.28
C004  1  0.41419  0.89301  0.56054 11.00000  0.04152   6.48
C005  1  0.44786  0.51383  0.46193 11.00000  0.04720   6.38
C006  1  0.45082  0.80189  0.65666 11.00000  0.04486   6.38
C007  1  0.24572  0.89526  0.48826 11.00000  0.04764   6.33
C008  1  0.54347  1.07875  0.44073 11.00000  0.04949   6.20
C009  1  0.55645  0.69851  0.33784 11.00000  0.03833   6.19
C00A  1  0.47102  0.41962  0.55235 11.00000  0.05328   6.18
C00B  1  0.32386  0.74446  0.72041 11.00000  0.04412   6.00
C00C  1  0.37300  1.07866  0.37001 11.00000  0.04517   5.84
C00D  1  0.59215  0.60730  0.43583 11.00000  0.04549   5.80
C00E  1  0.63423  0.41445  0.63087 11.00000  0.05134   5.75
C00F  1  0.59735  0.85050  0.17654 11.00000  0.05166   5.74
C00G  1  0.68163  0.76773  0.28053 11.00000  0.04984   5.54
C00H  1  0.65522  0.32183  0.72215 11.00000  0.04718   5.48
C00I  1  0.76512  0.60771  0.51942 11.00000  0.04457   5.28
C00J  1  0.79244  0.51262  0.61305 11.00000  0.06060   5.24
C00K  1  0.56661  0.98758  0.54055 11.00000  0.05062   5.12
C00L  1  0.41481  0.65314  0.82346 11.00000  0.05732   4.87
O00M  3  0.14715  0.74693  0.69230 11.00000  0.05893   4.39
HKLF 4
END
