TITL 2_expF_0_6_expS_1_2_2_a.res in Pn
REM Old TITL 1 in P2/n
REM SHELXT solution in Pn: R1 0.266, Rweak 0.286, Alpha 0.170
REM <I/s>   1.231 for   97 systematic absences,  Orientation as input
REM Formula found by SHELXT:  C13 N3 O4

CELL  0.71073   7.0400   9.2900  11.5500   90.000   97.870   90.000
ZERR   16.000   0.0014   0.0019   0.0023    0.000    0.030    0.000
LATT -1
SYMM 1/2+X, -Y, 1/2+Z
SFAC C N O
UNIT 16 16 16
L.S. 10
BOND
LIST 6
FMAP 2
PLAN 20
N001  2  0.89312  0.90075  0.57006 11.00000  0.00310  10.16
O002  3  0.72219  0.98072  0.40361 11.00000  0.00010   9.65
N003  2  0.80149  0.74524  0.73548 11.00000  0.02070   7.93
C004  1  0.13481  0.41960  0.63397 11.00000  0.01715   7.19
N005  2  0.93987  0.79353  0.67131 11.00000  0.00010   7.14
O006  3  0.63038  0.74017  0.69959 11.00000  0.01773   6.71
C007  1  0.90432  0.65580  0.82924 11.00000  0.00010   6.31
C008  1  0.25331  0.61237  0.53694 11.00000  0.01714   5.83
O009  3  0.33296  0.75315  0.31377 11.00000  0.01769   5.70
C00A  1  0.81199  1.16228  0.27779 11.00000  0.00010   5.64
C00B  1 -0.05816  0.42989  0.56627 11.00000  0.00709   5.25
O00C  3  0.14424  0.30784  0.71811 11.00000  0.04232   5.24
C00D  1  1.06349  0.98669  0.55030 11.00000  0.01630   5.21
C00E  1  1.02285  1.08323  0.45883 11.00000  0.02156   5.04
C00F  1 -0.06349  0.50990  0.46982 11.00000  0.01992   4.98
C00G  1  0.05099  0.68420  0.35340 11.00000  0.03429   4.76
C00H  1  0.07990  0.84895  0.17076 11.00000  0.02461   4.26
C00I  1  0.15166  0.76363  0.29361 11.00000  0.01915   3.68
C00J  1  0.86404  1.08336  0.37912 11.00000  0.00763   3.63
C00K  1  0.72139  0.89098  0.50025 11.00000  0.00559   3.26
HKLF 4
END
