TITL 2_expF_1_3_expS_1_5_2_b.res in Pn
REM Old TITL 1 in P2/n
REM SHELXT solution in Pn: R1 0.277, Rweak 0.019, Alpha 0.011
REM <I/s>   1.522 for  100 systematic absences,  Orientation as input
REM Formula found by SHELXT:  C14 N3 O5

CELL  0.71073   7.0400   9.2900  11.5500   90.000   97.870   90.000
ZERR   16.000   0.0014   0.0019   0.0023    0.000    0.030    0.000
LATT -1
SYMM 1/2+X, -Y, 1/2+Z
SFAC C N O
UNIT 16 16 16
L.S. 10
BOND
LIST 6
FMAP 2
PLAN 20
O001  3  0.21804  0.51126  0.39538 11.00000  0.06770   8.68
O002  3  0.33506  0.32736  0.27682 11.00000  0.04002   8.07
O003  3  0.85279  0.73880  0.30609 11.00000  0.04915   7.97
O004  3  0.45277  0.69477  0.66063 11.00000  0.05122   7.71
N005  2  0.43762  0.98132  0.46327 11.00000  0.04444   7.22
C006  1  0.41253  0.60369  0.56629 11.00000  0.04658   7.18
N007  2  0.24077  0.60253  0.48678 11.00000  0.04047   7.15
N008  2  0.46670  1.07564  0.56058 11.00000  0.04141   6.70
C009  1  0.67878  0.73195  0.28608 11.00000  0.03909   6.69
C00A  1  0.62992  1.07769  0.62922 11.00000  0.03869   6.32
C00B  1  0.54893  0.41560  0.45106 11.00000  0.05432   6.23
C00C  1  0.41824  0.85301  0.82339 11.00000  0.03931   5.96
C00D  1  0.76012  0.89023  0.51659 11.00000  0.04515   5.84
C00E  1  0.65996  1.17233  0.72052 11.00000  0.03668   5.69
C00F  1  0.36730  0.41374  0.37040 11.00000  0.03645   5.65
C00G  1  0.32518  0.75629  0.72501 11.00000  0.03874   5.40
C00H  1  0.55952  0.79759  0.34040 11.00000  0.03295   5.29
C00I  1  0.55674  0.50906  0.54267 11.00000  0.04349   5.18
C00J  1  0.58804  0.89113  0.44105 11.00000  0.02768   4.89
C00K  1  0.60005  0.65211  0.17661 11.00000  0.04975   4.85
O00L  3  0.14721  0.75338  0.68956 11.00000  0.04880   4.48
C00M  1  0.78065  0.98527  0.61271 11.00000  0.03831   4.37
HKLF 4
END
