TITL 2_expF_0_9_expS_0_8_2_a.res in Pn
REM Old TITL 1 in P2/n
REM SHELXT solution in Pn: R1 0.241, Rweak 0.077, Alpha 0.055
REM <I/s>   1.025 for  100 systematic absences,  Orientation as input
REM Formula found by SHELXT:  C10 N O8

CELL  0.71073   7.0400   9.2900  11.5500   90.000   97.870   90.000
ZERR   16.000   0.0014   0.0019   0.0023    0.000    0.030    0.000
LATT -1
SYMM 1/2+X, -Y, 1/2+Z
SFAC C N O
UNIT 16 16 16
L.S. 10
BOND
LIST 6
FMAP 2
PLAN 20
N001  2  0.85740  0.58219  0.37164 11.00000  0.00010  11.34
O002  3  0.08130  0.10926  0.44093 11.00000  0.01068   9.29
C003  1  0.17405  0.26176  0.28472 11.00000  0.02247   8.72
O004  3  1.04887  0.48486  0.54225 11.00000  0.01701   7.99
O005  3  0.74196  0.39335  0.48844 11.00000  0.02917   7.62
O006  3  0.94367  0.30148  0.65978 11.00000  0.02935   7.57
O007  3  0.64199  0.24380  0.69344 11.00000  0.02194   6.83
O008  3  0.82933  0.67700  0.28017 11.00000  0.02310   6.54
C009  1  0.07840  0.35286  0.17751 11.00000  0.02363   6.35
C00A  1  0.15731 -0.16932  0.72395 11.00000  0.03076   6.14
C00B  1  0.70643  0.48935  0.39346 11.00000  0.01908   6.12
O00C  3  0.34513  0.25868  0.31384 11.00000  0.03881   5.94
O00D  3  0.27172  0.01721  0.61485 11.00000  0.04758   5.78
C00E  1  0.04736  0.20089  0.33698 11.00000  0.02417   5.69
C00F  1  1.03429  0.58161  0.44958 11.00000  0.03311   5.56
C00G  1 -0.04887 -0.07697  0.55604 11.00000  0.02398   5.23
C00H  1  0.89591  0.15045  0.82249 11.00000  0.01963   5.20
C00I  1  0.26779  0.11058  0.51990 11.00000  0.04207   3.97
C00J  1  0.81511  0.23374  0.72398 11.00000  0.01954   3.92
HKLF 4
END
