TITL 2_expF_1_3_expS_1_0_2_a.res in P2(1)/n
REM Old TITL 1 in P2/n
REM SHELXT solution in P2(1)/n: R1 0.286, Rweak 0.022, Alpha 0.060
REM <I/s>   1.523 for  106 systematic absences,  Orientation as input
REM Formula found by SHELXT:  C10 O

CELL  0.71073   7.0400   9.2900  11.5500   90.000   97.870   90.000
ZERR   16.000   0.0014   0.0019   0.0023    0.000    0.030    0.000
LATT  1
SYMM 1/2-X, 1/2+Y, 1/2-Z
SFAC C N O
UNIT 16 16 16
L.S. 10
BOND
LIST 6
FMAP 2
PLAN 20
C001  1  0.66173  0.92223  0.72153 11.00000  0.03386   6.49
C002  1  0.55336  0.55290  0.34006 11.00000  0.03812   6.36
C003  1  0.78062  0.73831  0.60966 11.00000  0.04629   6.09
C004  1  0.67630  0.48688  0.27917 11.00000  0.04423   6.07
C005  1  0.58862  0.64378  0.43865 11.00000  0.04040   6.01
O006  3  0.85324  0.49478  0.30750 11.00000  0.06272   5.99
C007  1  0.46079  0.83072  0.55620 11.00000  0.04854   5.90
C008  1  0.63354  0.83183  0.62946 11.00000  0.04162   5.82
C009  1  0.75854  0.64291  0.51448 11.00000  0.04327   5.76
C00A  1  0.43962  0.73473  0.46035 11.00000  0.04759   5.60
C00B  1  0.59000  0.40113  0.17701 11.00000  0.05067   5.37
HKLF 4
END
