TITL 2_expF_1_1_expS_0_8_2_a.res in P2(1)/n
REM Old TITL 1 in P2/n
REM SHELXT solution in P2(1)/n: R1 0.267, Rweak 0.044, Alpha 0.101
REM <I/s>   1.243 for  106 systematic absences,  Orientation as input
REM Formula found by SHELXT:  C10 O

CELL  0.71073   7.0400   9.2900  11.5500   90.000   97.870   90.000
ZERR   16.000   0.0014   0.0019   0.0023    0.000    0.030    0.000
LATT  1
SYMM 1/2-X, 1/2+Y, 1/2-Z
SFAC C N O
UNIT 16 16 16
L.S. 10
BOND
LIST 6
FMAP 2
PLAN 20
C001  1  0.44884  0.55215  0.66024 11.00000  0.02981   6.40
C002  1  0.33766  0.92313  0.27866 11.00000  0.02645   6.28
O003  3  0.14917  0.49511  0.69186 11.00000  0.05328   6.14
C004  1  0.32189  0.48705  0.72162 11.00000  0.03219   6.14
C005  1  0.21854  0.73802  0.38996 11.00000  0.03533   6.09
C006  1  0.41312  0.64261  0.56172 11.00000  0.03200   5.98
C007  1  0.36604  0.83079  0.36939 11.00000  0.03350   5.84
C008  1  0.53719  0.82980  0.44453 11.00000  0.03719   5.79
C009  1  0.24082  0.64255  0.48532 11.00000  0.03488   5.77
C00A  1  0.56067  0.73477  0.54117 11.00000  0.03669   5.53
C00B  1  0.40849  0.40020  0.82353 11.00000  0.03784   5.42
HKLF 4
END
