TITL 2_expF_1_0_expS_0_7_2_b.res in Pn
REM Old TITL 1 in P2/n
REM SHELXT solution in Pn: R1 0.234, Rweak 0.045, Alpha 0.042
REM <I/s>   1.031 for  100 systematic absences,  Orientation as input
REM Formula found by SHELXT:  C16 N2 O3

CELL  0.71073   7.0400   9.2900  11.5500   90.000   97.870   90.000
ZERR   16.000   0.0014   0.0019   0.0023    0.000    0.030    0.000
LATT -1
SYMM 1/2+X, -Y, 1/2+Z
SFAC C N O
UNIT 16 16 16
L.S. 10
BOND
LIST 6
FMAP 2
PLAN 20
O001  3  0.81371  0.25737  0.30970 11.00000  0.01570   9.90
O002  3  0.18629  0.48679  0.39631 11.00000  0.04680   8.50
N003  2  0.41575  0.30029  0.66319 11.00000  0.03453   7.47
O004  3  0.29870  0.67580  0.27970 11.00000  0.03984   7.29
N005  2  0.37442  0.38957  0.56436 11.00000  0.03444   6.87
C006  1  0.40707  0.01180  0.46258 11.00000  0.03062   6.50
C007  1  0.36662  0.15375  0.82307 11.00000  0.03454   6.30
C008  1  0.33342  0.58259  0.36552 11.00000  0.03236   6.29
C009  1  0.63967  0.27496  0.28337 11.00000  0.02186   6.29
C00A  1  0.71509  0.10851  0.51410 11.00000  0.02795   6.17
C00B  1  0.42141 -0.07591  0.55714 11.00000  0.04274   6.14
C00C  1  0.50066  0.58204  0.44622 11.00000  0.03181   5.87
C00D  1  0.20021  0.39518  0.48239 11.00000  0.03513   5.81
C00E  1  0.52089  0.19611  0.34236 11.00000  0.02876   5.69
C00F  1  0.28595  0.25290  0.72359 11.00000  0.03357   5.67
C00G  1  0.62133 -0.16961  0.72465 11.00000  0.03481   5.63
C00H  1  0.60141 -0.07834  0.62864 11.00000  0.02947   5.61
C00I  1  0.54990  0.10269  0.44262 11.00000  0.03389   5.36
C00J  1  0.52955  0.48245  0.54569 11.00000  0.03835   5.07
C00K  1  0.55069  0.35770  0.17693 11.00000  0.03596   4.80
C00L  1  0.74978  0.01352  0.61752 11.00000  0.04396   3.76
HKLF 4
END
