TITL 2_expF_0_5_expS_1_2_2_a.res in Pn
REM Old TITL 1 in P2/n
REM SHELXT solution in Pn: R1 0.277, Rweak 0.400, Alpha 0.189
REM <I/s>   1.243 for   97 systematic absences,  Orientation as input
REM Formula found by SHELXT:  C11 N O8

CELL  0.71073   7.0400   9.2900  11.5500   90.000   97.870   90.000
ZERR   16.000   0.0014   0.0019   0.0023    0.000    0.030    0.000
LATT -1
SYMM 1/2+X, -Y, 1/2+Z
SFAC C N O
UNIT 16 16 16
L.S. 10
BOND
LIST 6
FMAP 2
PLAN 20
O001  3  0.03661  0.69753  0.33924 11.00000  0.00010  10.23
O002  3  0.90577  0.89720  0.56373 11.00000  0.01963   9.70
O003  3 -0.05998  0.50965  0.46363 11.00000  0.00010   9.47
C004  1  0.18882  0.76389  0.27718 11.00000  0.00010   9.14
O005  3  0.89736  0.65323  0.82219 11.00000  0.00124   8.54
O006  3  0.64361  0.73164  0.69767 11.00000  0.00010   7.86
O007  3  0.16719  0.32490  0.71959 11.00000  0.00225   7.78
N008  2  0.12413  0.40997  0.63823 11.00000  0.00010   7.37
O009  3  0.25776  0.59969  0.52298 11.00000  0.00689   7.11
O00A  3  0.36590  0.74607  0.32908 11.00000  0.03462   6.65
C00B  1  0.70214  0.98187  0.40062 11.00000  0.00363   6.27
C00C  1  0.83577  1.16761  0.28262 11.00000  0.03335   5.51
C00D  1 -0.02401  0.42513  0.56565 11.00000  0.00154   5.35
C00E  1  0.84430  1.06095  0.37094 11.00000  0.06100   5.18
C00F  1  0.27303  0.51380  0.61911 11.00000  0.00010   4.89
C00G  1  0.92404  0.79327  0.65370 11.00000  0.03625   4.27
C00H  1  0.73340  0.87672  0.50177 11.00000  0.00638   3.92
C00I  1  1.05998  1.08976  0.45135 11.00000  0.00010   3.86
C00J  1  0.07930  0.85479  0.17781 11.00000  0.00502   3.37
C00K  1  0.82322  0.73312  0.71135 11.00000  0.00010   3.26
HKLF 4
END
