TITL 2_expF_0_8_expS_0_6_2_a.res in Pn
REM Old TITL 1 in P2/n
REM SHELXT solution in Pn: R1 0.235, Rweak 0.120, Alpha 0.084
REM <I/s>   0.933 for  100 systematic absences,  Orientation as input
REM Formula found by SHELXT:  C10 N2 O9

CELL  0.71073   7.0400   9.2900  11.5500   90.000   97.870   90.000
ZERR   16.000   0.0014   0.0019   0.0023    0.000    0.030    0.000
LATT -1
SYMM 1/2+X, -Y, 1/2+Z
SFAC C N O
UNIT 16 16 16
L.S. 10
BOND
LIST 6
FMAP 2
PLAN 20
O001  3 -0.03549 -0.07971  0.55857 11.00000  0.00507   9.84
O002  3  0.65736  0.24068  0.69172 11.00000  0.01557   9.01
O003  3  1.05886  0.48040  0.55041 11.00000  0.03588   8.95
O004  3  0.27792  0.00801  0.61594 11.00000  0.02689   8.92
O005  3  0.95969  0.29877  0.66633 11.00000  0.03630   8.53
O006  3  0.17745 -0.16846  0.73108 11.00000  0.01315   8.07
O007  3  0.90910  0.14806  0.82362 11.00000  0.02943   7.98
N008  2  0.25553  0.10930  0.52037 11.00000  0.01680   7.17
C009  1  0.83168  0.23046  0.72344 11.00000  0.01082   7.10
C00A  1  0.13644 -0.07629  0.63686 11.00000  0.02888   6.62
N00B  2  0.09059  0.10786  0.44579 11.00000  0.00124   6.60
C00C  1  0.19138  0.26021  0.28349 11.00000  0.01793   6.57
C00D  1  0.91723  0.39707  0.57320 11.00000  0.05519   6.23
O00E  3  0.86456  0.68457  0.29093 11.00000  0.05386   5.60
C00F  1  0.86932  0.58256  0.37362 11.00000  0.01406   5.59
C00G  1  0.73197  0.39331  0.49146 11.00000  0.02733   5.37
C00H  1  0.71233  0.48224  0.39320 11.00000  0.02023   5.06
O00I  3  0.36391  0.24847  0.30920 11.00000  0.03539   4.99
C00J  1  0.05769  0.19718  0.34544 11.00000  0.00616   4.86
C00K  1 -0.05886  0.01007  0.46677 11.00000  0.01423   4.02
C00L  1  0.08911  0.34924  0.17638 11.00000  0.02904   3.54
HKLF 4
END
