TITL 2_expF_0_9_expS_0_7_2_c.res in P2(1)
REM Old TITL 1 in P2/n
REM SHELXT solution in P2(1): R1 0.243, Rweak 0.084, Alpha 0.159
REM <I/s>   2.919 for    6 systematic absences,  Orientation as input
REM Formula found by SHELXT:  C15 N5 O2

CELL  0.71073   7.0400   9.2900  11.5500   90.000   97.870   90.000
ZERR   16.000   0.0014   0.0019   0.0023    0.000    0.030    0.000
LATT -1
SYMM -X, 1/2+Y, -Z
SFAC C N O
UNIT 16 16 16
L.S. 10
BOND
LIST 6
FMAP 2
PLAN 20
N001  2  0.92514  0.24432  0.02429 11.00000  0.03011   9.25
N002  2  0.79846  0.29504  0.09048 11.00000  0.03346   7.41
N003  2  0.33762  0.61775  0.68328 11.00000  0.03425   7.13
N004  2  1.02865  0.49140  0.35920 11.00000  0.03527   7.00
N005  2  0.41454  0.33738  0.97464 11.00000  0.02897   6.86
O006  3  0.60144  0.74203  0.55612 11.00000  0.05904   6.81
C007  1  0.71188  0.58555  0.29883 11.00000  0.02667   6.38
C008  1  1.00198  0.39269  0.26412 11.00000  0.01858   6.35
C009  1  0.34784  0.85087  0.42543 11.00000  0.02299   6.30
O00A  3  1.10139  0.23855  0.06017 11.00000  0.02259   6.15
C00B  1  0.87663  0.57584  0.38405 11.00000  0.02075   6.05
C00C  1  0.30524  0.69576  0.58972 11.00000  0.01831   5.95
C00D  1  0.91276  0.68543  0.46871 11.00000  0.01814   5.88
C00E  1  0.39032  0.41490  0.87451 11.00000  0.02918   5.88
C00F  1  0.53506  0.51839  0.86281 11.00000  0.03042   5.86
C00G  1  0.51593  0.60351  0.76535 11.00000  0.03120   5.58
C00H  1  0.19452  0.52258  0.71423 11.00000  0.03350   5.58
C00I  1  0.68656  0.49168  0.20535 11.00000  0.02447   5.58
C00J  1  0.20708  0.42865  0.81085 11.00000  0.03107   5.47
C00K  1  0.83828  0.40223  0.19249 11.00000  0.02124   5.15
C00L  1  0.83696  0.14913 -0.07207 11.00000  0.03126   5.07
C00M  1  0.43417  0.77138  0.53482 11.00000  0.02491   3.51
HKLF 4
END
