TITL 2_expF_1_1_expS_0_7_2_b.res in Pn
REM Old TITL 1 in P2/n
REM SHELXT solution in Pn: R1 0.234, Rweak 0.035, Alpha 0.028
REM <I/s>   1.098 for  100 systematic absences,  Orientation as input
REM Formula found by SHELXT:  C12 N5 O5

CELL  0.71073   7.0400   9.2900  11.5500   90.000   97.870   90.000
ZERR   16.000   0.0014   0.0019   0.0023    0.000    0.030    0.000
LATT -1
SYMM 1/2+X, -Y, 1/2+Z
SFAC C N O
UNIT 16 16 16
L.S. 10
BOND
LIST 6
FMAP 2
PLAN 20
O001  3  0.66616  0.32546  0.71782 11.00000  0.03179   9.88
O002  3  0.14817  0.73854  0.69079 11.00000  0.02385   8.66
O003  3  0.44548  0.80410  0.65588 11.00000  0.04632   7.82
O004  3  0.77517  0.51264  0.60695 11.00000  0.04656   7.79
N005  2  0.58533  0.60871  0.43464 11.00000  0.02767   7.61
N006  2  0.46406  0.42334  0.55457 11.00000  0.03448   7.44
N007  2  0.67474  0.75844  0.27826 11.00000  0.03862   6.87
N008  2  0.41643  0.64833  0.82299 11.00000  0.04614   6.77
N009  2  0.76398  0.60878  0.51715 11.00000  0.03976   6.58
C00A  1  0.54839  0.98834  0.53903 11.00000  0.03666   6.38
C00B  1  0.63617  0.41588  0.63625 11.00000  0.03405   6.24
C00C  1  0.36760  1.07852  0.37373 11.00000  0.02838   5.57
C00D  1  0.55069  0.70270  0.33596 11.00000  0.02696   5.48
C00E  1  0.24556  0.89479  0.48694 11.00000  0.03345   5.43
C00F  1  0.21115  0.98680  0.38451 11.00000  0.04432   5.42
C00G  1  0.31965  0.73377  0.71834 11.00000  0.03200   5.24
C00H  1  0.43103  0.51740  0.45684 11.00000  0.02705   5.19
C00I  1  0.53862  1.08486  0.44230 11.00000  0.05062   5.12
C00J  1  0.40937  0.89668  0.55521 11.00000  0.03920   5.01
C00K  1  0.59872  0.84933  0.17701 11.00000  0.03426   4.44
O00L  3  0.85183  0.74262  0.30813 11.00000  0.08815   4.31
C00M  1  0.34327  1.17008  0.27246 11.00000  0.03475   3.49
HKLF 4
END
