TITL 2_expF_1_5_expS_1_5_2_c.res in P2(1)
REM Old TITL 1 in P2/n
REM SHELXT solution in P2(1): R1 0.338, Rweak 0.014, Alpha 0.044
REM <I/s>   3.404 for    6 systematic absences,  Orientation as input
REM Formula found by SHELXT:  C20 O2

CELL  0.71073   7.0400   9.2900  11.5500   90.000   97.870   90.000
ZERR   16.000   0.0014   0.0019   0.0023    0.000    0.030    0.000
LATT -1
SYMM -X, 1/2+Y, -Z
SFAC C N O
UNIT 16 16 16
L.S. 10
BOND
LIST 6
FMAP 2
PLAN 20
C001  1  0.91315  0.33256  0.47254 11.00000  0.03767   6.47
C002  1  0.87976  0.41876  0.37859 11.00000  0.04979   6.43
C003  1  0.41328  0.67808  0.97234 11.00000  0.03908   6.32
C004  1  0.83789  0.60377  0.18672 11.00000  0.04524   6.29
C005  1  0.53542  0.48927  0.85970 11.00000  0.04969   6.28
C006  1  0.80439  0.70312  0.09166 11.00000  0.03883   6.25
C007  1  0.70774  0.42006  0.30937 11.00000  0.05426   6.18
C008  1  0.51120  0.39745  0.76482 11.00000  0.05277   6.17
C009  1  0.30115  0.30609  0.58967 11.00000  0.05111   6.13
C00A  1  1.03173  0.51552  0.35905 11.00000  0.05049   5.97
C00B  1  0.22022  0.57872  0.80373 11.00000  0.05174   5.93
C00C  1  0.68882  0.51810  0.21070 11.00000  0.04919   5.91
O00D  3  1.10206  0.76528  0.05773 11.00000  0.06807   5.80
C00E  1  0.43039  0.23557  0.52743 11.00000  0.04821   5.74
O00F  3  0.60273  0.25176  0.56059 11.00000  0.05538   5.69
C00G  1  0.33940  0.39144  0.68851 11.00000  0.04465   5.68
C00H  1  0.92811  0.76148  0.03219 11.00000  0.05240   5.62
C00I  1  0.19269  0.48986  0.71017 11.00000  0.05466   5.43
C00J  1  0.84611  0.84901 -0.07225 11.00000  0.05753   5.28
C00K  1  1.00798  0.61037  0.26516 11.00000  0.04655   5.24
C00L  1  0.33559  0.15099  0.42597 11.00000  0.05519   4.96
C00M  1  0.38204  0.58159  0.88128 11.00000  0.05161   4.96
HKLF 4
END
