TITL 2_expF_0_5_expS_0_6_2_a.res in Pn
REM Old TITL 1 in P2/n
REM SHELXT solution in Pn: R1 0.271, Rweak 0.375, Alpha 0.264
REM <I/s>   0.949 for   97 systematic absences,  Orientation as input
REM Formula found by SHELXT:  C13 N4 O3

CELL  0.71073   7.0400   9.2900  11.5500   90.000   97.870   90.000
ZERR   16.000   0.0014   0.0019   0.0023    0.000    0.030    0.000
LATT -1
SYMM 1/2+X, -Y, 1/2+Z
SFAC C N O
UNIT 16 16 16
L.S. 10
BOND
LIST 6
FMAP 2
PLAN 20
C001  1  0.68621  0.23209  0.28565 11.00000  0.00010  11.51
O002  3  0.32961 -0.17826  0.27678 11.00000  0.00010   9.52
O003  3  0.22482  0.01681  0.39005 11.00000  0.00010   9.05
N004  2  0.41824  0.09642  0.56066 11.00000  0.00010   8.60
N005  2  0.62592  0.59053  0.62552 11.00000  0.00010   7.33
N006  2  0.24619  0.10881  0.48764 11.00000  0.00010   7.32
O007  3  0.85466  0.23870  0.31384 11.00000  0.01315   7.27
N008  2  0.40636  0.34799  0.82123 11.00000  0.03091   7.02
C009  1  0.44624  0.20241  0.65705 11.00000  0.00010   6.05
C00A  1  0.55641  0.29825  0.33463 11.00000  0.02168   6.02
C00B  1  0.14534  0.25809  0.69408 11.00000  0.00010   5.62
C00C  1  0.54317 -0.08157  0.44980 11.00000  0.00769   5.60
C00D  1  0.44917  0.47804  0.45827 11.00000  0.01914   5.48
C00E  1  0.56789  0.01097  0.54357 11.00000  0.01498   5.34
C00F  1  0.37072 -0.05093  0.34685 11.00000  0.04268   4.75
C00G  1  0.58986  0.14042  0.17877 11.00000  0.00010   4.46
C00H  1  0.45291  0.54995  0.57083 11.00000  0.05259   4.03
C00I  1  0.79901  0.36244  0.50446 11.00000  0.10526   3.74
C00J  1  0.60301  0.37357  0.43917 11.00000  0.02364   3.67
C00K  1  0.60772  0.69214  0.70745 11.00000  0.09461   3.08
HKLF 4
END
