TITL 2_expF_0_5_expS_1_4_2_a.res in Pn
REM Old TITL 1 in P2/n
REM SHELXT solution in Pn: R1 0.291, Rweak 0.413, Alpha 0.170
REM <I/s>   1.370 for   97 systematic absences,  Orientation as input
REM Formula found by SHELXT:  C8 N3 O7

CELL  0.71073   7.0400   9.2900  11.5500   90.000   97.870   90.000
ZERR   16.000   0.0014   0.0019   0.0023    0.000    0.030    0.000
LATT -1
SYMM 1/2+X, -Y, 1/2+Z
SFAC C N O
UNIT 16 16 16
L.S. 10
BOND
LIST 6
FMAP 2
PLAN 20
N001  2  0.58633  0.10789  0.43474 11.00000  0.00010  12.48
O002  3  0.78697  0.01141  0.60952 11.00000  0.00010   9.87
O003  3  0.37343  0.57815  0.36499 11.00000  0.00010   9.13
N004  2  0.67731  0.26666  0.26787 11.00000  0.00010   8.65
O005  3  0.56315  0.19806  0.33385 11.00000  0.01330   8.33
O006  3  0.15281  0.24482  0.69113 11.00000  0.00326   8.24
O007  3  0.61438  0.34117  0.17619 11.00000  0.01364   6.82
N008  2  0.68317 -0.16126  0.71756 11.00000  0.00716   6.72
O009  3  0.44678 -0.08337  0.54137 11.00000  0.03101   6.43
C00A  1  0.43201  0.13782  0.82381 11.00000  0.00011   5.68
O00B  3  0.84719  0.26246  0.30862 11.00000  0.01050   5.59
C00C  1  0.44393  0.00674  0.45856 11.00000  0.00010   5.56
C00D  1  0.35623  0.68783  0.28559 11.00000  0.02497   5.34
C00E  1  0.32292  0.22008  0.70683 11.00000  0.00010   4.60
C00F  1  0.56661  0.49210  0.54339 11.00000  0.01439   4.53
C00G  1  0.23161  0.38781  0.48441 11.00000  0.00891   4.51
C00H  1  0.73471  0.10020  0.51749 11.00000  0.00010   4.49
C00I  1  0.44587  0.30714  0.63876 11.00000  0.04977   4.20
HKLF 4
END
