TITL 2_expF_0_9_expS_1_5_2_b.res in Pn
REM Old TITL 1 in P2/n
REM SHELXT solution in Pn: R1 0.232, Rweak 0.086, Alpha 0.050
REM <I/s>   1.369 for  100 systematic absences,  Orientation as input
REM Formula found by SHELXT:  C13 N5 O3

CELL  0.71073   7.0400   9.2900  11.5500   90.000   97.870   90.000
ZERR   16.000   0.0014   0.0019   0.0023    0.000    0.030    0.000
LATT -1
SYMM 1/2+X, -Y, 1/2+Z
SFAC C N O
UNIT 16 16 16
L.S. 10
BOND
LIST 6
FMAP 2
PLAN 20
O001  3  0.64478  0.25995  0.69140 11.00000  0.00591   9.77
O002  3  0.15778  0.67562  0.72351 11.00000  0.03066   8.54
N003  2  0.07866  0.39365  0.43959 11.00000  0.02247   8.12
N004  2  0.85930 -0.07903  0.36818 11.00000  0.02706   7.70
N005  2  0.90844  0.35506  0.82289 11.00000  0.02329   7.18
N006  2  0.04534  0.30149  0.33873 11.00000  0.02053   6.97
N007  2 -0.03852  0.58189  0.55406 11.00000  0.02198   6.71
C008  1  0.27399  0.48685  0.61232 11.00000  0.02214   6.41
C009  1 -0.06186  0.48782  0.45686 11.00000  0.01955   6.40
C00A  1  0.74085  0.10818  0.49295 11.00000  0.01947   6.32
C00B  1  0.17329  0.24325  0.28019 11.00000  0.02650   5.97
C00C  1  0.93918  0.19823  0.65901 11.00000  0.02630   5.88
C00D  1  0.71527  0.01713  0.39292 11.00000  0.02577   5.61
C00E  1  0.82109  0.27209  0.72064 11.00000  0.01825   5.51
C00F  1  0.26480  0.39257  0.52407 11.00000  0.02351   4.81
C00G  1  1.06186  0.01180  0.53538 11.00000  0.02717   4.64
C00H  1  1.04167 -0.07587  0.44011 11.00000  0.03392   4.41
C00I  1  0.90047  0.10534  0.56706 11.00000  0.03633   4.27
O00J  3  0.09037  0.15334  0.17711 11.00000  0.05350   3.81
C00K  1  0.11911  0.58306  0.62908 11.00000  0.02748   3.75
C00L  1  0.82743 -0.17254  0.27843 11.00000  0.02448   3.69
HKLF 4
END
