TITL 2_expF_1_2_expS_1_3_2_a.res in P2(1)/n
REM Old TITL 1 in P2/n
REM SHELXT solution in P2(1)/n: R1 0.277, Rweak 0.030, Alpha 0.053
REM <I/s>   1.399 for  106 systematic absences,  Orientation as input
REM Formula found by SHELXT:  C10 O

CELL  0.71073   7.0400   9.2900  11.5500   90.000   97.870   90.000
ZERR   16.000   0.0014   0.0019   0.0023    0.000    0.030    0.000
LATT  1
SYMM 1/2-X, 1/2+Y, 1/2-Z
SFAC C N O
UNIT 16 16 16
L.S. 10
BOND
LIST 6
FMAP 2
PLAN 20
C001  1  0.44791  0.55207  0.65966 11.00000  0.03146   6.45
C002  1  0.33721  0.92289  0.27839 11.00000  0.02796   6.43
C003  1  0.32090  0.48724  0.72169 11.00000  0.03456   6.12
O004  3  0.14907  0.49458  0.69156 11.00000  0.05167   6.11
C005  1  0.41216  0.64341  0.56156 11.00000  0.03471   6.02
C006  1  0.21887  0.73714  0.39065 11.00000  0.03717   5.93
C007  1  0.36755  0.83153  0.37037 11.00000  0.03712   5.92
C008  1  0.53729  0.82922  0.44402 11.00000  0.03996   5.79
C009  1  0.23921  0.64314  0.48587 11.00000  0.03726   5.77
C00A  1  0.56103  0.73504  0.54016 11.00000  0.03957   5.55
C00B  1  0.40991  0.39906  0.82346 11.00000  0.04047   5.35
HKLF 4
END
