TITL 2_expF_1_5_expS_1_1_2_a.res in P2(1)/n
REM Old TITL 1 in P2/n
REM SHELXT solution in P2(1)/n: R1 0.340, Rweak 0.014, Alpha 0.039
REM <I/s>   1.445 for  106 systematic absences,  Orientation as input
REM Formula found by SHELXT:  C9 N O

CELL  0.71073   7.0400   9.2900  11.5500   90.000   97.870   90.000
ZERR   16.000   0.0014   0.0019   0.0023    0.000    0.030    0.000
LATT  1
SYMM 1/2-X, 1/2+Y, 1/2-Z
SFAC C N O
UNIT 16 16 16
L.S. 10
BOND
LIST 6
FMAP 2
PLAN 20
N001  2  0.66096  0.07649  0.72171 11.00000  0.04373   6.54
C002  1  0.55170  0.44735  0.34058 11.00000  0.03994   6.28
C003  1  0.78323  0.26270  0.60919 11.00000  0.04615   6.10
C004  1  0.58996  0.35742  0.43761 11.00000  0.04054   6.08
C005  1  0.46409  0.16976  0.55709 11.00000  0.05132   6.03
C006  1  0.67905  0.51190  0.27922 11.00000  0.04667   5.90
O007  3  0.85175  0.50476  0.30890 11.00000  0.06207   5.83
C008  1  0.62970  0.16795  0.63039 11.00000  0.04544   5.82
C009  1  0.75991  0.35607  0.51572 11.00000  0.04671   5.80
C00A  1  0.43974  0.26389  0.46132 11.00000  0.04820   5.69
C00B  1  0.58961  0.59835  0.17702 11.00000  0.05300   5.26
HKLF 4
END
