TITL 2_expF_1_2_expS_1_0_2_b.res in Pn
REM Old TITL 1 in P2/n
REM SHELXT solution in Pn: R1 0.249, Rweak 0.027, Alpha 0.037
REM <I/s>   1.251 for  100 systematic absences,  Orientation as input
REM Formula found by SHELXT:  C12 N6 O4

CELL  0.71073   7.0400   9.2900  11.5500   90.000   97.870   90.000
ZERR   16.000   0.0014   0.0019   0.0023    0.000    0.030    0.000
LATT -1
SYMM 1/2+X, -Y, 1/2+Z
SFAC C N O
UNIT 16 16 16
L.S. 10
BOND
LIST 6
FMAP 2
PLAN 20
O001  3  0.77735  0.61071  0.51428 11.00000  0.06203   8.39
O002  3  0.34113  1.17148  0.27731 11.00000  0.03688   8.07
N003  2  0.63492  0.41705  0.63131 11.00000  0.04201   7.88
O004  3  0.85059  0.75965  0.30948 11.00000  0.05134   7.63
N005  2  0.33615  0.74311  0.72783 11.00000  0.04013   7.43
N006  2  0.55252  1.08738  0.44784 11.00000  0.04664   7.43
N007  2  0.45295  0.80248  0.66193 11.00000  0.03213   6.78
N008  2  0.78318  0.51322  0.61394 11.00000  0.04936   6.67
N009  2  0.55657  0.69794  0.34247 11.00000  0.04625   6.67
C00A  1  0.42931  0.89937  0.56658 11.00000  0.03480   6.25
C00B  1  0.56805  0.98635  0.54696 11.00000  0.03924   6.04
C00C  1  0.22329  0.98827  0.39426 11.00000  0.03448   5.92
C00D  1  0.60231  0.61168  0.44225 11.00000  0.02881   5.91
C00E  1  0.59659  0.84848  0.17637 11.00000  0.04388   5.84
C00F  1  0.44915  0.51595  0.46505 11.00000  0.03429   5.44
C00G  1  0.66446  0.32548  0.71952 11.00000  0.03526   5.23
C00H  1  0.41415  0.64609  0.82363 11.00000  0.03651   5.09
C00I  1  0.69380  0.76705  0.28682 11.00000  0.03238   4.92
O00J  3  0.14941  0.74500  0.69307 11.00000  0.04607   4.82
C00K  1  0.47860  0.42727  0.56063 11.00000  0.03961   4.80
C00L  1  0.36885  1.08177  0.37124 11.00000  0.03700   3.97
C00M  1  0.25610  0.89859  0.48606 11.00000  0.03099   3.79
HKLF 4
END
