TITL 2_expF_1_0_expS_1_4_2_c.res in P2(1)
REM Old TITL 1 in P2/n
REM SHELXT solution in P2(1): R1 0.240, Rweak 0.058, Alpha 0.140
REM <I/s>   1.305 for    6 systematic absences,  Orientation as input
REM Formula found by SHELXT:  C17 N3 O2

CELL  0.71073   7.0400   9.2900  11.5500   90.000   97.870   90.000
ZERR   16.000   0.0014   0.0019   0.0023    0.000    0.030    0.000
LATT -1
SYMM -X, 1/2+Y, -Z
SFAC C N O
UNIT 16 16 16
L.S. 10
BOND
LIST 6
FMAP 2
PLAN 20
O001  3  0.60399  0.75473  0.56122 11.00000  0.03112   7.43
N002  2  0.91311  0.68525  0.46648 11.00000  0.03306   6.91
N003  2  0.30088  0.70432  0.59223 11.00000  0.02968   6.86
N004  2  0.19369  0.52570  0.70841 11.00000  0.04355   6.75
C005  1  1.00711  0.38763  0.26582 11.00000  0.02497   6.38
C006  1  0.92782  0.23881  0.03093 11.00000  0.03019   6.36
C007  1  0.34530  0.61045  0.68129 11.00000  0.03515   6.35
C008  1  0.37703  0.41434  0.87827 11.00000  0.03451   6.05
C009  1  0.85050  0.14941 -0.07198 11.00000  0.02541   6.03
C00A  1  1.03173  0.48422  0.35959 11.00000  0.03046   5.88
C00B  1  0.53153  0.51030  0.86012 11.00000  0.03153   5.80
C00C  1  0.80506  0.30802  0.08809 11.00000  0.02557   5.80
C00D  1  0.70107  0.59262  0.30105 11.00000  0.02832   5.79
C00E  1  0.21865  0.43367  0.80980 11.00000  0.03095   5.59
C00F  1  0.83310  0.39704  0.19404 11.00000  0.02065   5.58
C00G  1  0.42913  0.76390  0.52725 11.00000  0.02816   5.34
C00H  1  0.88716  0.57736  0.38146 11.00000  0.02749   5.27
C00I  1  0.41851  0.33534  0.97707 11.00000  0.01516   5.21
C00J  1  0.51425  0.60176  0.76339 11.00000  0.03089   4.59
C00K  1  0.33158  0.85059  0.42351 11.00000  0.03889   4.56
O00L  3  1.09995  0.23949  0.05491 11.00000  0.04722   4.44
C00M  1  0.68502  0.49733  0.20988 11.00000  0.02817   4.06
HKLF 4
END
