TITL 2_expF_1_3_expS_0_7_2_b.res in Pn
REM Old TITL 1 in P2/n
REM SHELXT solution in Pn: R1 0.264, Rweak 0.012, Alpha 0.021
REM <I/s>   1.304 for  100 systematic absences,  Orientation as input
REM Formula found by SHELXT:  C11 N5 O7

CELL  0.71073   7.0400   9.2900  11.5500   90.000   97.870   90.000
ZERR   16.000   0.0014   0.0019   0.0023    0.000    0.030    0.000
LATT -1
SYMM 1/2+X, -Y, 1/2+Z
SFAC C N O
UNIT 16 16 16
L.S. 10
BOND
LIST 6
FMAP 2
PLAN 20
N001  2  0.91937  0.89128  0.56227 11.00000  0.03986   9.82
O002  3  0.72618  0.98861  0.38674 11.00000  0.04776   8.80
N003  2  0.13381  0.41445  0.62862 11.00000  0.04505   8.67
C004  1  0.82800  0.74229  0.72445 11.00000  0.03676   8.57
O005  3  0.83567  1.17211  0.27557 11.00000  0.04334   8.22
O006  3  1.04892  1.08275  0.44553 11.00000  0.06722   7.90
O007  3  0.94359  0.80305  0.65886 11.00000  0.05130   7.76
N008  2 -0.06031  0.51533  0.45776 11.00000  0.05445   7.39
O009  3  0.34894  0.75688  0.30785 11.00000  0.04865   7.11
C00A  1  0.74974  0.89399  0.48241 11.00000  0.03489   6.84
N00B  2  0.15895  0.32734  0.71824 11.00000  0.04461   6.80
N00C  2  0.90916  0.64984  0.82334 11.00000  0.05611   6.67
C00D  1  0.05090  0.70075  0.33877 11.00000  0.03401   6.47
O00E  3  0.64029  0.74489  0.69166 11.00000  0.05785   6.47
C00F  1 -0.03185  0.42383  0.55727 11.00000  0.04247   6.04
C00G  1  0.26398  0.60257  0.51089 11.00000  0.04139   6.00
C00H  1  0.08992  0.85070  0.17666 11.00000  0.04443   5.76
C00I  1  1.06031  0.98681  0.53820 11.00000  0.03703   5.54
C00J  1  0.29614  0.51292  0.60421 11.00000  0.05763   5.46
C00K  1  0.18097  0.76906  0.28641 11.00000  0.03845   5.39
C00L  1  0.09337  0.60175  0.43925 11.00000  0.03881   4.42
C00M  1  0.86818  1.07786  0.36800 11.00000  0.03797   4.39
O00N  3  0.66689  0.83611  0.47989 11.00000  0.27169   3.36
HKLF 4
END
