TITL 2_expF_1_0_expS_1_3_2_a.res in P2(1)/n
REM Old TITL 1 in P2/n
REM SHELXT solution in P2(1)/n: R1 0.267, Rweak 0.065, Alpha 0.100
REM <I/s>   1.284 for  106 systematic absences,  Orientation as input
REM Formula found by SHELXT:  C9 N O

CELL  0.71073   7.0400   9.2900  11.5500   90.000   97.870   90.000
ZERR   16.000   0.0014   0.0019   0.0023    0.000    0.030    0.000
LATT  1
SYMM 1/2-X, 1/2+Y, 1/2-Z
SFAC C N O
UNIT 16 16 16
L.S. 10
BOND
LIST 6
FMAP 2
PLAN 20
N001  2  0.55201  0.44865  0.33916 11.00000  0.03053   6.63
C002  1  0.66537  0.07592  0.72224 11.00000  0.01983   6.29
O003  3  0.84999  0.50675  0.30816 11.00000  0.03722   6.27
C004  1  0.67815  0.51206  0.27853 11.00000  0.02445   6.24
C005  1  0.78017  0.26433  0.60970 11.00000  0.02628   6.03
C006  1  0.58868  0.35664  0.43830 11.00000  0.02637   5.85
C007  1  0.63240  0.16996  0.62987 11.00000  0.02761   5.79
C008  1  0.76096  0.35664  0.51476 11.00000  0.02704   5.76
C009  1  0.46072  0.17136  0.55518 11.00000  0.02943   5.69
C00A  1  0.43903  0.26391  0.45941 11.00000  0.02871   5.51
C00B  1  0.59041  0.60116  0.17662 11.00000  0.02805   5.42
HKLF 4
END
