TITL 2_expF_0_8_expS_0_8_2_b.res in P2(1)
REM Old TITL 1 in P2/n
REM SHELXT solution in P2(1): R1 0.242, Rweak 0.133, Alpha 0.228
REM <I/s>   1.907 for    6 systematic absences,  Orientation as input
REM Formula found by SHELXT:  C13 N4 O5

CELL  0.71073   7.0400   9.2900  11.5500   90.000   97.870   90.000
ZERR   16.000   0.0014   0.0019   0.0023    0.000    0.030    0.000
LATT -1
SYMM -X, 1/2+Y, -Z
SFAC C N O
UNIT 16 16 16
L.S. 10
BOND
LIST 6
FMAP 2
PLAN 20
O001  3  0.79470  0.68785  0.08715 11.00000  0.02820   9.12
O002  3  0.40995  0.65281  0.97856 11.00000  0.02204   7.76
C003  1  0.42954  0.24098  0.52503 11.00000  0.02332   7.67
O004  3  0.84946  0.85209 -0.06693 11.00000  0.03054   7.59
O005  3  0.61002  0.23650  0.55894 11.00000  0.01897   6.97
N006  2  1.03193  0.49858  0.35854 11.00000  0.02086   6.91
N007  2  1.01015  0.60576  0.26531 11.00000  0.02636   6.86
N008  2  0.33812  0.39114  0.68389 11.00000  0.01910   6.77
N009  2  0.69277  0.50149  0.20573 11.00000  0.02576   6.57
C00A  1  0.20064  0.56581  0.80953 11.00000  0.00962   6.41
C00B  1  0.88045  0.41661  0.38509 11.00000  0.01524   6.28
C00C  1  0.38472  0.57919  0.87557 11.00000  0.01724   6.12
O00D  3  1.09036  0.74935  0.05940 11.00000  0.03434   6.05
C00E  1  0.53182  0.46972  0.86437 11.00000  0.02363   5.60
C00F  1  0.84045  0.60975  0.19387 11.00000  0.02308   5.30
C00G  1  0.72019  0.40244  0.29830 11.00000  0.02860   4.92
C00H  1  0.50856  0.39042  0.76352 11.00000  0.01621   4.65
C00I  1  0.91865  0.30661  0.46542 11.00000  0.00838   4.63
C00J  1  0.18747  0.47000  0.71172 11.00000  0.02170   4.58
C00K  1  0.92860  0.76471  0.03218 11.00000  0.00899   4.44
C00L  1  0.31053  0.28692  0.59294 11.00000  0.01185   3.80
C00M  1  0.33352  0.14791  0.41935 11.00000  0.02052   3.22
HKLF 4
END
