TITL 2_expF_0_9_expS_1_5_2_a.res in P2(1)/n
REM Old TITL 1 in P2/n
REM SHELXT solution in P2(1)/n: R1 0.276, Rweak 0.101, Alpha 0.146
REM <I/s>   1.340 for  106 systematic absences,  Orientation as input
REM Formula found by SHELXT:  C10 O

CELL  0.71073   7.0400   9.2900  11.5500   90.000   97.870   90.000
ZERR   16.000   0.0014   0.0019   0.0023    0.000    0.030    0.000
LATT  1
SYMM 1/2-X, 1/2+Y, 1/2-Z
SFAC C N O
UNIT 16 16 16
L.S. 10
BOND
LIST 6
FMAP 2
PLAN 20
C001  1  0.55199  0.44871  0.33889 11.00000  0.02068   6.48
O002  3  0.85014  0.50620  0.30798 11.00000  0.03086   6.47
C003  1  0.66748  0.07685  0.72265 11.00000  0.01919   6.20
C004  1  0.77804  0.26488  0.60972 11.00000  0.02336   6.12
C005  1  0.58774  0.35577  0.43713 11.00000  0.02786   6.08
C006  1  0.67766  0.51347  0.27723 11.00000  0.02518   6.02
C007  1  0.63087  0.17005  0.62821 11.00000  0.02429   5.92
C008  1  0.76245  0.35697  0.51511 11.00000  0.02526   5.71
C009  1  0.45949  0.17194  0.55398 11.00000  0.02457   5.66
C00A  1  0.43794  0.26231  0.45921 11.00000  0.02737   5.49
C00B  1  0.58943  0.60080  0.17611 11.00000  0.02561   5.45
HKLF 4
END
