TITL 2_expF_0_9_expS_1_2_2_a.res in P2(1)/n
REM Old TITL 1 in P2/n
REM SHELXT solution in P2(1)/n: R1 0.274, Rweak 0.096, Alpha 0.141
REM <I/s>   1.206 for  106 systematic absences,  Orientation as input
REM Formula found by SHELXT:  C9 N O

CELL  0.71073   7.0400   9.2900  11.5500   90.000   97.870   90.000
ZERR   16.000   0.0014   0.0019   0.0023    0.000    0.030    0.000
LATT  1
SYMM 1/2-X, 1/2+Y, 1/2-Z
SFAC C N O
UNIT 16 16 16
L.S. 10
BOND
LIST 6
FMAP 2
PLAN 20
N001  2  0.44779  0.55133  0.66114 11.00000  0.02635   6.50
O002  3  0.15021  0.49316  0.69178 11.00000  0.03107   6.45
C003  1  0.32174  0.48760  0.72173 11.00000  0.02098   6.15
C004  1  0.33354  0.92433  0.27787 11.00000  0.01670   6.15
C005  1  0.22054  0.73543  0.39003 11.00000  0.02173   6.08
C006  1  0.41119  0.64309  0.56188 11.00000  0.02356   6.05
C007  1  0.36834  0.82998  0.37055 11.00000  0.02336   5.77
C008  1  0.54043  0.82850  0.44539 11.00000  0.02482   5.73
C009  1  0.23877  0.64298  0.48492 11.00000  0.02313   5.71
C00A  1  0.56140  0.73647  0.54063 11.00000  0.02457   5.63
C00B  1  0.40955  0.39914  0.82350 11.00000  0.02304   5.50
HKLF 4
END
