TITL 2_expF_0_6_expS_0_6_2_a.res in Pn
REM Old TITL 1 in P2/n
REM SHELXT solution in Pn: R1 0.255, Rweak 0.279, Alpha 0.109
REM <I/s>   0.904 for  100 systematic absences,  Orientation as input
REM Formula found by SHELXT:  C12 N O7

CELL  0.71073   7.0400   9.2900  11.5500   90.000   97.870   90.000
ZERR   16.000   0.0014   0.0019   0.0023    0.000    0.030    0.000
LATT -1
SYMM 1/2+X, -Y, 1/2+Z
SFAC C N O
UNIT 16 16 16
L.S. 10
BOND
LIST 6
FMAP 2
PLAN 20
O001  3  0.18305  0.75866  0.68853 11.00000  0.00010  10.37
O002  3  0.81695  0.98510  0.60833 11.00000  0.00474  10.12
O003  3  0.69877  1.17158  0.72148 11.00000  0.00010   7.97
O004  3  0.57381  0.80133  0.33570 11.00000  0.01830   7.93
N005  2  0.36028  0.77363  0.71547 11.00000  0.00635   7.55
O006  3  0.62806  0.65365  0.17683 11.00000  0.02871   7.53
C007  1  0.39214  0.41462  0.36611 11.00000  0.02081   6.66
C008  1  0.50084  1.08873  0.55249 11.00000  0.00250   6.36
C009  1  0.45743  0.60734  0.56668 11.00000  0.01190   6.25
O00A  3  0.29223  0.61272  0.48816 11.00000  0.04002   6.24
C00B  1  0.60816  0.50817  0.53718 11.00000  0.01439   5.74
C00C  1  0.47899  0.97611  0.45400 11.00000  0.01741   5.72
C00D  1  0.63004  0.88481  0.44555 11.00000  0.02174   5.67
C00E  1  0.47200  0.69736  0.65375 11.00000  0.01586   5.61
C00F  1  0.66281  1.08000  0.62692 11.00000  0.00010   5.34
C00G  1  0.81047  0.89598  0.51693 11.00000  0.01471   5.28
C00H  1  0.71608  0.74651  0.27532 11.00000  0.01326   4.67
C00I  1  0.58315  0.43237  0.44047 11.00000  0.03615   4.16
O00J  3  0.40946  0.31785  0.29219 11.00000  0.21951   3.84
C00K  1  0.44156  0.85848  0.82317 11.00000  0.01671   3.31
HKLF 4
END
