TITL 2_expF_1_0_expS_0_7_2_a.res in P2(1)/n
REM Old TITL 1 in P2/n
REM SHELXT solution in P2(1)/n: R1 0.266, Rweak 0.066, Alpha 0.119
REM <I/s>   1.191 for  106 systematic absences,  Orientation as input
REM Formula found by SHELXT:  C9 N O

CELL  0.71073   7.0400   9.2900  11.5500   90.000   97.870   90.000
ZERR   16.000   0.0014   0.0019   0.0023    0.000    0.030    0.000
LATT  1
SYMM 1/2-X, 1/2+Y, 1/2-Z
SFAC C N O
UNIT 16 16 16
L.S. 10
BOND
LIST 6
FMAP 2
PLAN 20
N001  2  0.44923  0.44885  0.66088 11.00000  0.03443   6.55
O002  3  0.14945  0.50553  0.69148 11.00000  0.04565   6.22
C003  1  0.32174  0.51199  0.72124 11.00000  0.02513   6.14
C004  1  0.33686  0.07536  0.27811 11.00000  0.02179   6.14
C005  1  0.41166  0.35739  0.56159 11.00000  0.02598   6.04
C006  1  0.36611  0.17014  0.36972 11.00000  0.02871   6.01
C007  1  0.21818  0.26303  0.38977 11.00000  0.02974   5.89
C008  1  0.24083  0.35704  0.48532 11.00000  0.02890   5.71
C009  1  0.56008  0.26510  0.54078 11.00000  0.03090   5.65
C00A  1  0.53931  0.17102  0.44512 11.00000  0.03278   5.63
C00B  1  0.40808  0.60075  0.82328 11.00000  0.03110   5.39
HKLF 4
END
