TITL 2_expF_1_5_expS_1_3_2_c.res in P2(1)
REM Old TITL 1 in P2/n
REM SHELXT solution in P2(1): R1 0.329, Rweak 0.014, Alpha 0.044
REM <I/s>   4.885 for    6 systematic absences,  Orientation as input
REM Formula found by SHELXT:  C20 O2

CELL  0.71073   7.0400   9.2900  11.5500   90.000   97.870   90.000
ZERR   16.000   0.0014   0.0019   0.0023    0.000    0.030    0.000
LATT -1
SYMM -X, 1/2+Y, -Z
SFAC C N O
UNIT 16 16 16
L.S. 10
BOND
LIST 6
FMAP 2
PLAN 20
C001  1  0.58630  0.66751  0.02803 11.00000  0.04072   6.47
C002  1  0.61961  0.58115  0.12100 11.00000  0.05110   6.43
C003  1  0.08793  0.32278  0.52730 11.00000  0.03979   6.32
C004  1  0.66116  0.39670  0.31264 11.00000  0.04824   6.29
C005  1 -0.03552  0.51134  0.64053 11.00000  0.04944   6.28
C006  1  0.69555  0.29634  0.40868 11.00000  0.04222   6.25
C007  1  0.79153  0.58234  0.19183 11.00000  0.05948   6.18
C008  1 -0.01011  0.60353  0.73540 11.00000  0.05446   6.17
C009  1  0.19969  0.69257  0.91042 11.00000  0.05113   6.13
C00A  1  0.46872  0.48530  0.14041 11.00000  0.05535   5.97
C00B  1  0.27948  0.42232  0.69534 11.00000  0.05201   5.92
C00C  1  0.81059  0.48740  0.28993 11.00000  0.05364   5.91
O00D  3  0.39818  0.23699  0.44114 11.00000  0.07581   5.80
C00E  1  0.06833  0.76675  0.97041 11.00000  0.05013   5.74
O00F  3 -0.10230  0.75019  0.94039 11.00000  0.05663   5.69
C00G  1  0.16148  0.60835  0.81254 11.00000  0.04532   5.68
C00H  1  0.57259  0.24137  0.46999 11.00000  0.05435   5.62
C00I  1  0.30737  0.51521  0.78973 11.00000  0.05408   5.43
C00J  1  0.65317  0.15123  0.57219 11.00000  0.06231   5.28
C00K  1  0.49162  0.39088  0.23420 11.00000  0.04935   5.24
C00L  1  0.16435  0.84877  1.07384 11.00000  0.05497   4.97
C00M  1  0.11858  0.41853  0.61922 11.00000  0.05441   4.96
HKLF 4
END
