TITL 2_expF_1_5_expS_1_2_2_a.res in P2(1)/n
REM Old TITL 1 in P2/n
REM SHELXT solution in P2(1)/n: R1 0.346, Rweak 0.014, Alpha 0.041
REM <I/s>   1.438 for  106 systematic absences,  Orientation as input
REM Formula found by SHELXT:  C9 N O

CELL  0.71073   7.0400   9.2900  11.5500   90.000   97.870   90.000
ZERR   16.000   0.0014   0.0019   0.0023    0.000    0.030    0.000
LATT  1
SYMM 1/2-X, 1/2+Y, 1/2-Z
SFAC C N O
UNIT 16 16 16
L.S. 10
BOND
LIST 6
FMAP 2
PLAN 20
N001  2  0.33905  0.07631  0.27813 11.00000  0.04178   6.53
C002  1  0.44782  0.44770  0.65917 11.00000  0.03848   6.24
C003  1  0.21706  0.26275  0.39088 11.00000  0.04485   6.11
C004  1  0.41014  0.35759  0.56244 11.00000  0.03915   6.09
C005  1  0.53629  0.17022  0.44311 11.00000  0.04975   6.05
C006  1  0.32111  0.51194  0.72096 11.00000  0.04510   5.89
O007  3  0.14779  0.50499  0.69092 11.00000  0.05908   5.83
C008  1  0.23961  0.35621  0.48427 11.00000  0.04486   5.81
C009  1  0.37030  0.16798  0.36966 11.00000  0.04410   5.81
C00A  1  0.56033  0.26426  0.53836 11.00000  0.04681   5.69
C00B  1  0.41033  0.59857  0.82293 11.00000  0.05168   5.27
HKLF 4
END
