TITL 2_expF_1_5_expS_1_4_2_a.res in P2(1)/n
REM Old TITL 1 in P2/n
REM SHELXT solution in P2(1)/n: R1 0.360, Rweak 0.014, Alpha 0.033
REM <I/s>   1.459 for  106 systematic absences,  Orientation as input
REM Formula found by SHELXT:  C9 N O

CELL  0.71073   7.0400   9.2900  11.5500   90.000   97.870   90.000
ZERR   16.000   0.0014   0.0019   0.0023    0.000    0.030    0.000
LATT  1
SYMM 1/2-X, 1/2+Y, 1/2-Z
SFAC C N O
UNIT 16 16 16
L.S. 10
BOND
LIST 6
FMAP 2
PLAN 20
N001  2  0.33884  0.07592  0.27796 11.00000  0.03921   6.50
C002  1  0.44707  0.44819  0.65899 11.00000  0.03653   6.25
C003  1  0.21747  0.26283  0.39097 11.00000  0.04309   6.11
C004  1  0.41038  0.35771  0.56236 11.00000  0.03740   6.05
C005  1  0.53649  0.17092  0.44326 11.00000  0.04754   6.05
C006  1  0.32123  0.51190  0.72088 11.00000  0.04280   5.91
O007  3  0.14735  0.50536  0.69108 11.00000  0.05492   5.83
C008  1  0.23903  0.35630  0.48449 11.00000  0.04259   5.82
C009  1  0.37019  0.16805  0.36983 11.00000  0.04251   5.80
C00A  1  0.56008  0.26483  0.53792 11.00000  0.04476   5.72
C00B  1  0.41083  0.59888  0.82308 11.00000  0.04980   5.24
HKLF 4
END
