TITL 2_expF_1_2_expS_1_3_2_b.res in Pn
REM Old TITL 1 in P2/n
REM SHELXT solution in Pn: R1 0.244, Rweak 0.024, Alpha 0.023
REM <I/s>   1.359 for  100 systematic absences,  Orientation as input
REM Formula found by SHELXT:  C15 N4 O3

CELL  0.71073   7.0400   9.2900  11.5500   90.000   97.870   90.000
ZERR   16.000   0.0014   0.0019   0.0023    0.000    0.030    0.000
LATT -1
SYMM 1/2+X, -Y, 1/2+Z
SFAC C N O
UNIT 16 16 16
L.S. 10
BOND
LIST 6
FMAP 2
PLAN 20
O001  3  0.46140  0.80062  0.66360 11.00000  0.05221   7.98
O002  3  0.33869  1.17013  0.27880 11.00000  0.04161   7.80
O003  3  0.85098  0.75637  0.30738 11.00000  0.04299   7.70
N004  2  0.59513  0.60103  0.44037 11.00000  0.03966   7.63
N005  2  0.57182  0.98217  0.53932 11.00000  0.04338   7.34
N006  2  0.53918  1.07238  0.43831 11.00000  0.05242   7.20
N007  2  0.36689  1.07870  0.36853 11.00000  0.04654   7.07
C008  1  0.67817  0.76685  0.28534 11.00000  0.03068   6.55
C009  1  0.24234  0.89317  0.48472 11.00000  0.03111   6.36
C00A  1  0.22665  0.98306  0.38961 11.00000  0.04101   6.35
C00B  1  0.58046  0.84619  0.17669 11.00000  0.04557   6.27
C00C  1  0.78688  0.51085  0.60930 11.00000  0.03647   6.17
C00D  1  0.31937  0.74270  0.72692 11.00000  0.03988   5.70
C00E  1  0.76152  0.60384  0.51303 11.00000  0.04706   5.52
C00F  1  0.66469  0.32279  0.72253 11.00000  0.03554   5.25
C00G  1  0.63133  0.41291  0.62827 11.00000  0.03914   5.00
C00H  1  0.46336  0.41520  0.55210 11.00000  0.03799   5.00
C00I  1  0.56420  0.69587  0.34362 11.00000  0.02688   4.84
C00J  1  0.14902  0.74284  0.69032 11.00000  0.03843   4.80
C00K  1  0.40054  0.64529  0.82331 11.00000  0.03505   4.79
C00L  1  0.42009  0.88890  0.56404 11.00000  0.03803   4.63
C00M  1  0.45190  0.51023  0.45823 11.00000  0.03966   4.35
HKLF 4
END
