TITL 2_expF_0_8_expS_1_0_2_a.res in Pn
REM Old TITL 1 in P2/n
REM SHELXT solution in Pn: R1 0.232, Rweak 0.126, Alpha 0.075
REM <I/s>   1.085 for  100 systematic absences,  Orientation as input
REM Formula found by SHELXT:  C13 N O7

CELL  0.71073   7.0400   9.2900  11.5500   90.000   97.870   90.000
ZERR   16.000   0.0014   0.0019   0.0023    0.000    0.030    0.000
LATT -1
SYMM 1/2+X, -Y, 1/2+Z
SFAC C N O
UNIT 16 16 16
L.S. 10
BOND
LIST 6
FMAP 2
PLAN 20
O001  3  0.22216  0.01609  0.39172 11.00000  0.00288  10.34
O002  3  0.33235 -0.17303  0.27476 11.00000  0.01070   9.11
O003  3  0.55618  0.29760  0.34254 11.00000  0.02462   8.86
O004  3  0.54354 -0.08489  0.44917 11.00000  0.02190   8.52
C005  1  0.68336  0.22771  0.28513 11.00000  0.01479   8.52
O006  3  0.85316  0.24816  0.30950 11.00000  0.01690   7.75
N007  2  0.77005  0.39316  0.51087 11.00000  0.01654   6.78
C008  1  0.37389 -0.07979  0.36507 11.00000  0.01028   6.57
C009  1  0.58319  0.39029  0.44121 11.00000  0.01239   6.45
C00A  1  0.41616  0.34772  0.82246 11.00000  0.01425   6.30
C00B  1  0.40787  0.10663  0.56059 11.00000  0.02401   6.13
O00C  3  0.14684  0.26279  0.68991 11.00000  0.03566   6.11
C00D  1  0.56077  0.01134  0.54170 11.00000  0.01997   5.92
C00E  1  0.64421  0.57979  0.62577 11.00000  0.01985   5.67
C00F  1  0.44078  0.48403  0.45914 11.00000  0.02234   5.53
C00G  1  0.59918  0.14380  0.17754 11.00000  0.01845   5.35
C00H  1  0.25476  0.10682  0.48283 11.00000  0.02046   5.24
C00I  1  0.45142  0.19884  0.66248 11.00000  0.01691   4.85
O00J  3  0.65791  0.68197  0.71463 11.00000  0.04317   4.50
C00K  1  0.32535  0.25422  0.72485 11.00000  0.01377   4.37
C00L  1  0.45182  0.56647  0.56641 11.00000  0.03940   3.60
HKLF 4
END
