TITL 2_expF_1_1_expS_0_9_2_b.res in Pn
REM Old TITL 1 in P2/n
REM SHELXT solution in Pn: R1 0.233, Rweak 0.035, Alpha 0.035
REM <I/s>   1.151 for  100 systematic absences,  Orientation as input
REM Formula found by SHELXT:  C10 N5 O7

CELL  0.71073   7.0400   9.2900  11.5500   90.000   97.870   90.000
ZERR   16.000   0.0014   0.0019   0.0023    0.000    0.030    0.000
LATT -1
SYMM 1/2+X, -Y, 1/2+Z
SFAC C N O
UNIT 16 16 16
L.S. 10
BOND
LIST 6
FMAP 2
PLAN 20
N001  2  0.36998  0.41592  0.36510 11.00000  0.03227   9.44
N002  2  0.58527  0.88966  0.43690 11.00000  0.02600   9.34
O003  3  0.54846  0.51353  0.53887 11.00000  0.04666   9.26
C004  1  0.67814  0.74249  0.27293 11.00000  0.03025   8.58
O005  3  0.77735  0.98631  0.60110 11.00000  0.03500   8.27
O006  3  0.66927  1.16843  0.71685 11.00000  0.02241   8.25
O007  3  0.54555  0.79969  0.33476 11.00000  0.04523   7.92
O008  3  0.14902  0.76065  0.68494 11.00000  0.03258   7.88
O009  3  0.23860  0.60762  0.47855 11.00000  0.04527   7.82
N00A  2  0.59772  0.64719  0.17647 11.00000  0.04165   7.05
N00B  2  0.46358  1.07606  0.55193 11.00000  0.03027   6.97
N00C  2  0.44249  0.69566  0.65558 11.00000  0.03049   6.78
C00D  1  0.54015  0.41474  0.44218 11.00000  0.04507   6.36
C00E  1  0.34857  0.31632  0.27145 11.00000  0.03828   6.24
O00F  3  0.85098  0.75018  0.30165 11.00000  0.05045   6.20
C00G  1  0.21132  0.51118  0.37875 11.00000  0.04579   5.45
C00H  1  0.41533  0.84886  0.82353 11.00000  0.03057   5.38
C00I  1  0.32211  0.76840  0.71439 11.00000  0.02552   5.23
C00J  1  0.75783  0.89540  0.50719 11.00000  0.03253   5.00
C00K  1  0.40896  0.60300  0.56200 11.00000  0.03625   4.20
C00L  1  0.42797  0.98616  0.45665 11.00000  0.02923   3.59
C00M  1  0.63626  1.07912  0.62675 11.00000  0.03351   3.59
HKLF 4
END
