TITL 2_expF_0_9_expS_1_1_2_c.res in P2(1)
REM Old TITL 1 in P2/n
REM SHELXT solution in P2(1): R1 0.242, Rweak 0.090, Alpha 0.197
REM <I/s>   1.574 for    6 systematic absences,  Orientation as input
REM Formula found by SHELXT:  C15 N2 O5

CELL  0.71073   7.0400   9.2900  11.5500   90.000   97.870   90.000
ZERR   16.000   0.0014   0.0019   0.0023    0.000    0.030    0.000
LATT -1
SYMM -X, 1/2+Y, -Z
SFAC C N O
UNIT 16 16 16
L.S. 10
BOND
LIST 6
FMAP 2
PLAN 20
O001  3  0.29152  0.56799  0.69404 11.00000  0.01984   8.40
N002  2  0.16673  0.38129  0.81030 11.00000  0.00734   8.06
O003  3 -0.10237  0.23531  0.93962 11.00000  0.02736   7.72
O004  3  0.69217  0.69792  0.40729 11.00000  0.03398   7.55
O005  3  0.58815  0.32562  0.02704 11.00000  0.03269   7.49
N006  2 -0.02845  0.48219  0.63755 11.00000  0.03184   7.01
C007  1  0.06784  0.23412  0.96646 11.00000  0.01607   6.47
C008  1 -0.01012  0.38707  0.73698 11.00000  0.02183   6.42
C009  1  0.16082  0.14894  1.07239 11.00000  0.02041   6.21
C00A  1  0.61641  0.41740  0.12403 11.00000  0.01925   6.17
C00B  1  0.11970  0.57816  0.61523 11.00000  0.02414   5.97
C00C  1  0.20163  0.30094  0.91190 11.00000  0.01596   5.85
C00D  1  0.81323  0.49820  0.29140 11.00000  0.02398   5.72
C00E  1  0.57603  0.75847  0.47476 11.00000  0.02342   5.61
C00F  1  0.47035  0.51049  0.14188 11.00000  0.02646   5.49
C00G  1  0.30963  0.47261  0.78997 11.00000  0.02114   5.37
C00H  1  0.08258  0.67390  0.52884 11.00000  0.01944   5.37
C00I  1  0.65058  0.85106  0.57227 11.00000  0.03015   5.12
C00J  1  0.49022  0.60190  0.23451 11.00000  0.02073   5.00
O00K  3  0.39936  0.74913  0.44308 11.00000  0.03664   4.87
C00L  1  0.64748  0.58150  0.31416 11.00000  0.04970   4.59
C00M  1  0.78182  0.39692  0.19811 11.00000  0.06892   3.27
HKLF 4
END
