TITL 2_expF_0_9_expS_1_4_2_c.res in P2(1)
REM Old TITL 1 in P2/n
REM SHELXT solution in P2(1): R1 0.245, Rweak 0.093, Alpha 0.145
REM <I/s>   0.997 for    6 systematic absences,  Orientation as input
REM Formula found by SHELXT:  C17 O4

CELL  0.71073   7.0400   9.2900  11.5500   90.000   97.870   90.000
ZERR   16.000   0.0014   0.0019   0.0023    0.000    0.030    0.000
LATT -1
SYMM -X, 1/2+Y, -Z
SFAC C N O
UNIT 16 16 16
L.S. 10
BOND
LIST 6
FMAP 2
PLAN 20
O001  3  0.20318  0.69147  0.91190 11.00000  0.03988   8.74
O002  3  0.29241  0.42450  0.69642 11.00000  0.01533   8.19
O003  3 -0.10130  0.76241  0.93916 11.00000  0.03083   6.99
C004  1  0.17163  0.61551  0.81012 11.00000  0.01049   6.69
C005  1  0.61926  0.58931  0.11877 11.00000  0.02221   6.43
C006  1  0.06732  0.76797  0.96633 11.00000  0.01609   6.42
C007  1  0.47178  0.48225  0.13885 11.00000  0.02173   6.37
C008  1  0.65442  0.14796  0.57675 11.00000  0.02791   6.36
O009  3  0.57956  0.67328  0.02473 11.00000  0.03279   6.33
C00A  1  0.30505  0.52528  0.79224 11.00000  0.01457   6.25
C00B  1  0.08650  0.32513  0.52830 11.00000  0.01849   6.19
C00C  1  0.12041  0.42770  0.62020 11.00000  0.02770   6.03
C00D  1 -0.00911  0.61419  0.73427 11.00000  0.02304   5.89
C00E  1  0.39729  0.24846  0.44186 11.00000  0.01639   5.64
C00F  1  0.48919  0.40102  0.23783 11.00000  0.01768   5.55
C00G  1  0.57784  0.24279  0.47478 11.00000  0.02116   5.44
C00H  1 -0.03253  0.51266  0.63956 11.00000  0.02382   5.27
C00I  1  0.64514  0.40198  0.31380 11.00000  0.03707   5.10
C00J  1  0.15587  0.85204  1.07066 11.00000  0.01927   5.02
C00K  1  0.81840  0.50507  0.28686 11.00000  0.03115   4.84
C00L  1  0.69503  0.29706  0.40955 11.00000  0.01188   3.67
HKLF 4
END
