TITL 2_expF_1_2_expS_1_5_2_a.res in P2(1)/n
REM Old TITL 1 in P2/n
REM SHELXT solution in P2(1)/n: R1 0.283, Rweak 0.043, Alpha 0.101
REM <I/s>   1.454 for  106 systematic absences,  Orientation as input
REM Formula found by SHELXT:  C10 O

CELL  0.71073   7.0400   9.2900  11.5500   90.000   97.870   90.000
ZERR   16.000   0.0014   0.0019   0.0023    0.000    0.030    0.000
LATT  1
SYMM 1/2-X, 1/2+Y, 1/2-Z
SFAC C N O
UNIT 16 16 16
L.S. 10
BOND
LIST 6
FMAP 2
PLAN 20
C001  1  0.66333  0.92278  0.72195 11.00000  0.02685   6.41
C002  1  0.55260  0.55169  0.34045 11.00000  0.03055   6.35
C003  1  0.78102  0.73675  0.60920 11.00000  0.03599   6.33
O004  3  0.85123  0.49433  0.30859 11.00000  0.04834   6.13
C005  1  0.58823  0.64353  0.43831 11.00000  0.03402   6.03
C006  1  0.46235  0.82892  0.55579 11.00000  0.03849   5.94
C007  1  0.76121  0.64317  0.51408 11.00000  0.03623   5.83
C008  1  0.67922  0.48697  0.27842 11.00000  0.03404   5.82
C009  1  0.63208  0.83123  0.62936 11.00000  0.03637   5.70
C00A  1  0.43907  0.73496  0.45997 11.00000  0.03887   5.62
C00B  1  0.58946  0.39872  0.17653 11.00000  0.03954   5.39
HKLF 4
END
