TITL 2_expF_1_4_expS_0_9_2_a.res in P2(1)/n
REM Old TITL 1 in P2/n
REM SHELXT solution in P2(1)/n: R1 0.302, Rweak 0.019, Alpha 0.042
REM <I/s>   1.531 for  106 systematic absences,  Orientation as input
REM Formula found by SHELXT:  C9 N O

CELL  0.71073   7.0400   9.2900  11.5500   90.000   97.870   90.000
ZERR   16.000   0.0014   0.0019   0.0023    0.000    0.030    0.000
LATT  1
SYMM 1/2-X, 1/2+Y, 1/2-Z
SFAC C N O
UNIT 16 16 16
L.S. 10
BOND
LIST 6
FMAP 2
PLAN 20
N001  2  0.33984  0.07602  0.27862 11.00000  0.04627   6.54
C002  1  0.44704  0.44759  0.66042 11.00000  0.03865   6.36
C003  1  0.21810  0.26363  0.39048 11.00000  0.04633   6.06
C004  1  0.41043  0.35587  0.56195 11.00000  0.04138   6.03
C005  1  0.32353  0.51350  0.72074 11.00000  0.04607   5.98
O006  3  0.14533  0.50542  0.69138 11.00000  0.06392   5.97
C007  1  0.53864  0.17091  0.44456 11.00000  0.04759   5.96
C008  1  0.36627  0.16825  0.37090 11.00000  0.04565   5.83
C009  1  0.23794  0.35864  0.48488 11.00000  0.04913   5.79
C00A  1  0.55895  0.26570  0.53977 11.00000  0.05241   5.67
C00B  1  0.40924  0.59682  0.82376 11.00000  0.05314   5.32
HKLF 4
END
