TITL 2_expF_1_5_expS_1_0_2_a.res in P2(1)/n
REM Old TITL 1 in P2/n
REM SHELXT solution in P2(1)/n: R1 0.333, Rweak 0.015, Alpha 0.037
REM <I/s>   1.465 for  106 systematic absences,  Orientation as input
REM Formula found by SHELXT:  C9 N O

CELL  0.71073   7.0400   9.2900  11.5500   90.000   97.870   90.000
ZERR   16.000   0.0014   0.0019   0.0023    0.000    0.030    0.000
LATT  1
SYMM 1/2-X, 1/2+Y, 1/2-Z
SFAC C N O
UNIT 16 16 16
L.S. 10
BOND
LIST 6
FMAP 2
PLAN 20
N001  2  0.66072  0.92324  0.72162 11.00000  0.04650   6.59
C002  1  0.55121  0.55313  0.34038 11.00000  0.04208   6.29
C003  1  0.78363  0.73732  0.60927 11.00000  0.04795   6.10
C004  1  0.58994  0.64281  0.43734 11.00000  0.04264   6.05
C005  1  0.46413  0.83097  0.55708 11.00000  0.05366   6.03
C006  1  0.67914  0.48805  0.27904 11.00000  0.04913   5.93
O007  3  0.85129  0.49549  0.30885 11.00000  0.06618   5.88
C008  1  0.62978  0.83194  0.63075 11.00000  0.04714   5.82
C009  1  0.75950  0.64386  0.51601 11.00000  0.04944   5.78
C00A  1  0.43958  0.73661  0.46078 11.00000  0.05007   5.68
C00B  1  0.58998  0.40181  0.17719 11.00000  0.05539   5.27
HKLF 4
END
