TITL 2_expF_1_0_expS_1_1_2_a.res in P2(1)/n
REM Old TITL 1 in P2/n
REM SHELXT solution in P2(1)/n: R1 0.268, Rweak 0.061, Alpha 0.113
REM <I/s>   1.225 for  106 systematic absences,  Orientation as input
REM Formula found by SHELXT:  C10 O

CELL  0.71073   7.0400   9.2900  11.5500   90.000   97.870   90.000
ZERR   16.000   0.0014   0.0019   0.0023    0.000    0.030    0.000
LATT  1
SYMM 1/2-X, 1/2+Y, 1/2-Z
SFAC C N O
UNIT 16 16 16
L.S. 10
BOND
LIST 6
FMAP 2
PLAN 20
C001  1  0.55112  0.44870  0.33950 11.00000  0.02329   6.34
O002  3  0.85125  0.50573  0.30814 11.00000  0.04042   6.23
C003  1  0.67836  0.51273  0.27834 11.00000  0.02627   6.23
C004  1  0.66428  0.07624  0.72194 11.00000  0.02242   6.15
C005  1  0.78068  0.26366  0.60995 11.00000  0.02828   6.05
C006  1  0.58829  0.35665  0.43811 11.00000  0.02760   5.98
C007  1  0.63274  0.16964  0.62978 11.00000  0.02830   5.90
C008  1  0.75995  0.35717  0.51458 11.00000  0.02778   5.76
C009  1  0.46086  0.17093  0.55511 11.00000  0.03171   5.74
C00A  1  0.43884  0.26406  0.45930 11.00000  0.03045   5.52
C00B  1  0.59137  0.60079  0.17678 11.00000  0.03005   5.41
HKLF 4
END
