TITL 2_expF_0_5_expS_0_9_2_a.res in Pn
REM Old TITL 1 in P2/n
REM SHELXT solution in Pn: R1 0.273, Rweak 0.379, Alpha 0.166
REM <I/s>   1.080 for   97 systematic absences,  Orientation as input
REM Formula found by SHELXT:  C11 N2 O7

CELL  0.71073   7.0400   9.2900  11.5500   90.000   97.870   90.000
ZERR   16.000   0.0014   0.0019   0.0023    0.000    0.030    0.000
LATT -1
SYMM 1/2+X, -Y, 1/2+Z
SFAC C N O
UNIT 16 16 16
L.S. 10
BOND
LIST 6
FMAP 2
PLAN 20
O001  3  0.52590  0.89555  0.72287 11.00000  0.00010  10.86
O002  3  0.35359  0.64976  0.37897 11.00000  0.00010   9.01
O003  3  0.42966  1.17254  0.92259 11.00000  0.00010   8.39
C004  1  0.57841  0.23598  0.42456 11.00000  0.00010   8.16
O005  3  0.53414  0.98452  0.80440 11.00000  0.02163   8.15
O006  3  0.31126  0.79421  0.54513 11.00000  0.01112   7.82
N007  2  0.39853  1.07775  0.83212 11.00000  0.00497   7.37
N008  2  0.80774  0.57661  0.14841 11.00000  0.00010   6.83
O009  3  0.61651  0.74675  0.51038 11.00000  0.01073   6.69
O00A  3  0.42497  0.23966  0.39655 11.00000  0.00594   6.37
C00B  1  0.36504  0.90462  0.63574 11.00000  0.00010   5.84
C00C  1  0.82851  0.49672  0.24583 11.00000  0.00010   5.72
C00D  1  0.68458  0.31301  0.36557 11.00000  0.00759   5.07
C00E  1  0.47815  0.49075  0.07988 11.00000  0.00010   4.24
C00F  1  0.43235  0.72638  0.48060 11.00000  0.00771   4.20
C00G  1  0.21078  0.97525  0.67340 11.00000  0.00165   3.98
C00H  1  0.64571  0.57657  0.07741 11.00000  0.00010   3.67
C00I  1  0.69115  0.38103  0.26226 11.00000  0.00010   3.23
C00J  1  0.54383  0.55981  0.18145 11.00000  0.07172   3.21
C00K  1  0.17149  0.96533  0.54277 11.00000  0.03791   3.12
HKLF 4
END
