TITL 2_expF_0_9_expS_0_5_2_c.res in P2(1)
REM Old TITL 1 in P2/n
REM SHELXT solution in P2(1): R1 0.240, Rweak 0.085, Alpha 0.141
REM <I/s>   3.993 for    6 systematic absences,  Orientation as input
REM Formula found by SHELXT:  C13 N6 O3

CELL  0.71073   7.0400   9.2900  11.5500   90.000   97.870   90.000
ZERR   16.000   0.0014   0.0019   0.0023    0.000    0.030    0.000
LATT -1
SYMM -X, 1/2+Y, -Z
SFAC C N O
UNIT 16 16 16
L.S. 10
BOND
LIST 6
FMAP 2
PLAN 20
O001  3  0.58480  0.33084  0.03096 11.00000  0.04071   8.57
O002  3  0.19701  0.30666  0.90914 11.00000  0.04260   8.12
O003  3 -0.09552  0.24712  0.94490 11.00000  0.02516   7.57
N004  2  0.47186  0.51674  0.13938 11.00000  0.04164   7.41
N005  2  0.11373  0.58477  0.62052 11.00000  0.03023   6.98
N006  2  0.65978  0.59486  0.31149 11.00000  0.03259   6.74
N007  2 -0.01078  0.39973  0.73712 11.00000  0.02639   6.66
N008  2  0.28210  0.57361  0.69138 11.00000  0.04057   6.62
N009  2  0.16308  0.14972  1.07645 11.00000  0.02525   6.61
C00A  1  0.07295  0.22983  0.96829 11.00000  0.01833   6.58
C00B  1  0.56776  0.75684  0.47352 11.00000  0.02554   6.31
C00C  1  0.30283  0.47352  0.79295 11.00000  0.02937   6.25
C00D  1  0.16187  0.38254  0.81246 11.00000  0.02107   6.17
C00E  1  0.69676  0.70531  0.41072 11.00000  0.01997   5.57
C00F  1  0.39036  0.76077  0.43533 11.00000  0.02710   5.52
C00G  1  0.79728  0.41400  0.19992 11.00000  0.02690   5.32
C00H  1  0.81419  0.50423  0.28797 11.00000  0.02153   5.17
C00I  1  0.49364  0.61550  0.23313 11.00000  0.03582   5.12
C00J  1  0.62028  0.42535  0.11852 11.00000  0.03182   5.01
C00K  1 -0.03547  0.49059  0.63879 11.00000  0.02666   4.78
C00L  1  0.64758  0.85028  0.56716 11.00000  0.04127   4.76
C00M  1  0.08752  0.67783  0.52429 11.00000  0.01774   4.02
HKLF 4
END
