TITL 2_expF_0_8_expS_1_3_2_a.res in P2(1)
REM Old TITL 1 in P2/n
REM SHELXT solution in P2(1): R1 0.241, Rweak 0.127, Alpha 0.200
REM <I/s>   0.890 for    6 systematic absences,  Orientation as input
REM Formula found by SHELXT:  C15 N3 O4

CELL  0.71073   7.0400   9.2900  11.5500   90.000   97.870   90.000
ZERR   16.000   0.0014   0.0019   0.0023    0.000    0.030    0.000
LATT -1
SYMM -X, 1/2+Y, -Z
SFAC C N O
UNIT 16 16 16
L.S. 10
BOND
LIST 6
FMAP 2
PLAN 20
O001  3  0.39219  0.75286  0.43855 11.00000  0.01748   9.09
N002  2  0.19726  0.31031  0.91425 11.00000  0.02353   7.29
O003  3  0.58283  0.33527  0.02289 11.00000  0.00868   7.26
O004  3  0.15109  0.14912  1.07020 11.00000  0.03059   7.21
C005  1  0.07571  0.23783  0.97088 11.00000  0.01925   7.20
N006  2  0.62827  0.41796  0.11981 11.00000  0.03084   6.91
N007  2  0.49018  0.60180  0.23391 11.00000  0.02653   6.60
C008  1 -0.02672  0.48047  0.64107 11.00000  0.01542   6.40
C009  1  0.16098  0.39643  0.80361 11.00000  0.02707   6.05
C00A  1  0.79716  0.42910  0.18742 11.00000  0.01083   5.76
C00B  1  0.69756  0.70626  0.40750 11.00000  0.01196   5.70
C00C  1  0.31137  0.50076  0.79332 11.00000  0.02635   5.53
C00D  1  0.81030  0.52394  0.28853 11.00000  0.01435   5.45
C00E  1  0.66331  0.61124  0.31744 11.00000  0.01106   5.39
C00F  1  0.46906  0.51059  0.13647 11.00000  0.02482   5.24
C00G  1  0.56709  0.76417  0.47145 11.00000  0.01869   5.13
C00H  1  0.08078  0.69462  0.53696 11.00000  0.02826   4.87
C00I  1  0.28755  0.58785  0.70363 11.00000  0.02724   4.85
C00J  1  0.10970  0.57723  0.61965 11.00000  0.01563   4.75
C00K  1 -0.01031  0.38777  0.73605 11.00000  0.01490   4.12
C00L  1  0.66848  0.85088  0.57596 11.00000  0.03227   3.73
O00M  3 -0.09627  0.23662  0.94340 11.00000  0.03609   3.24
HKLF 4
END
