TITL 2_expF_1_0_expS_1_1_2_b.res in Pn
REM Old TITL 1 in P2/n
REM SHELXT solution in Pn: R1 0.226, Rweak 0.057, Alpha 0.036
REM <I/s>   1.174 for  100 systematic absences,  Orientation as input
REM Formula found by SHELXT:  C14 N3 O5

CELL  0.71073   7.0400   9.2900  11.5500   90.000   97.870   90.000
ZERR   16.000   0.0014   0.0019   0.0023    0.000    0.030    0.000
LATT -1
SYMM 1/2+X, -Y, 1/2+Z
SFAC C N O
UNIT 16 16 16
L.S. 10
BOND
LIST 6
FMAP 2
PLAN 20
O001  3  0.25765  0.60285  0.52145 11.00000  0.02888   8.16
O002  3  1.03267  1.08383  0.45684 11.00000  0.03741   7.85
N003  2  0.12335  0.41957  0.63698 11.00000  0.03294   7.61
O004  3  0.34016  0.75730  0.31366 11.00000  0.04125   7.57
O005  3  0.82237  1.16834  0.28283 11.00000  0.01764   7.32
N006  2  0.93288  0.79880  0.66566 11.00000  0.02217   7.14
N007  2  0.71407  0.98732  0.40014 11.00000  0.02164   6.52
C008  1  1.05827  0.98707  0.54800 11.00000  0.02085   6.36
C009  1  0.91238  0.89437  0.56809 11.00000  0.02745   6.36
C00A  1  0.07575  0.84631  0.17585 11.00000  0.03620   6.23
C00B  1  0.81661  0.74172  0.72850 11.00000  0.02262   6.12
C00C  1  0.17344  0.76911  0.28721 11.00000  0.02797   5.85
C00D  1  0.27814  0.51501  0.62333 11.00000  0.04723   5.20
C00E  1  0.08477  0.60838  0.44382 11.00000  0.02390   5.16
C00F  1  0.03643  0.69746  0.34504 11.00000  0.03009   5.13
C00G  1  0.14056  0.31342  0.72793 11.00000  0.04473   4.72
O00H  3  0.63633  0.74483  0.69585 11.00000  0.03370   4.59
C00I  1 -0.05827  0.51394  0.46740 11.00000  0.03613   4.49
C00J  1  0.89616  0.64566  0.82415 11.00000  0.02052   4.39
C00K  1  0.74644  0.88524  0.49218 11.00000  0.05098   3.55
C00L  1 -0.04729  0.42620  0.57123 11.00000  0.04198   3.27
C00M  1  0.86076  1.08205  0.37586 11.00000  0.02955   3.22
HKLF 4
END
