TITL 2_expF_0_7_expS_0_6_2_a.res in Pn
REM Old TITL 1 in P2/n
REM SHELXT solution in Pn: R1 0.238, Rweak 0.193, Alpha 0.093
REM <I/s>   0.911 for  100 systematic absences,  Orientation as input
REM Formula found by SHELXT:  C11 N5 O5

CELL  0.71073   7.0400   9.2900  11.5500   90.000   97.870   90.000
ZERR   16.000   0.0014   0.0019   0.0023    0.000    0.030    0.000
LATT -1
SYMM 1/2+X, -Y, 1/2+Z
SFAC C N O
UNIT 16 16 16
L.S. 10
BOND
LIST 6
FMAP 2
PLAN 20
O001  3  0.33007  0.32703  0.28253 11.00000  0.00010  10.21
O002  3  0.20218  0.50804  0.39156 11.00000  0.04449   9.13
N003  2  0.41204  0.60566  0.56121 11.00000  0.00865   8.52
O004  3  0.84877  0.74115  0.31480 11.00000  0.00864   7.98
O005  3  0.54789  0.79474  0.34533 11.00000  0.02542   7.62
N006  2  0.23929  0.60903  0.48795 11.00000  0.01294   7.40
N007  2  0.53051  0.42523  0.44504 11.00000  0.01017   7.26
N008  2  0.43695  0.97702  0.46855 11.00000  0.03557   7.13
C009  1  0.66998  0.73155  0.28799 11.00000  0.01449   6.83
N00A  2  0.58266  0.63808  0.17696 11.00000  0.02290   6.73
C00B  1  0.61249  1.08705  0.63184 11.00000  0.01911   5.60
C00C  1  0.44875  0.69577  0.66698 11.00000  0.01351   5.41
C00D  1  0.35029  0.42501  0.37139 11.00000  0.01207   5.27
C00E  1  0.31648  0.75913  0.72867 11.00000  0.01313   5.19
O00F  3  0.15123  0.74588  0.69968 11.00000  0.05182   5.08
C00G  1  0.39961  0.84118  0.82304 11.00000  0.01564   4.25
C00H  1  0.55744  0.50436  0.54815 11.00000  0.00383   3.62
C00I  1  0.58975  0.88836  0.43524 11.00000  0.03567   3.46
C00J  1  0.76329  0.89927  0.51712 11.00000  0.03715   3.35
C00K  1  0.76881  0.98420  0.61519 11.00000  0.01183   3.19
C00L  1  0.44541  1.08957  0.55009 11.00000  0.03337   3.00
HKLF 4
END
