TITL 2_expF_0_9_expS_1_3_2_c.res in P2(1)
REM Old TITL 1 in P2/n
REM SHELXT solution in P2(1): R1 0.241, Rweak 0.087, Alpha 0.193
REM <I/s>   1.160 for    6 systematic absences,  Orientation as input
REM Formula found by SHELXT:  C14 N3 O5

CELL  0.71073   7.0400   9.2900  11.5500   90.000   97.870   90.000
ZERR   16.000   0.0014   0.0019   0.0023    0.000    0.030    0.000
LATT -1
SYMM -X, 1/2+Y, -Z
SFAC C N O
UNIT 16 16 16
L.S. 10
BOND
LIST 6
FMAP 2
PLAN 20
O001  3  0.41853  0.66011  0.97463 11.00000  0.01590   8.35
O002  3  0.80586  0.68484  0.08659 11.00000  0.02646   7.50
O003  3  0.84467  0.85054 -0.06958 11.00000  0.03371   7.43
N004  2  0.20366  0.56775  0.81220 11.00000  0.02224   7.12
N005  2  1.01379  0.60891  0.26644 11.00000  0.02266   6.99
N006  2  0.60912  0.24020  0.55981 11.00000  0.01464   6.90
C007  1  0.88826  0.41748  0.37937 11.00000  0.01748   6.49
C008  1  0.53159  0.48491  0.86372 11.00000  0.02450   6.27
C009  1  0.33141  0.38723  0.68170 11.00000  0.01635   6.26
C00A  1  0.69111  0.50097  0.20664 11.00000  0.02615   6.19
C00B  1  0.92918  0.75606  0.02799 11.00000  0.01945   6.18
O00C  3  1.09532  0.75635  0.05826 11.00000  0.03472   6.15
C00D  1  0.42716  0.23134  0.52898 11.00000  0.02298   5.98
C00E  1  0.29900  0.28572  0.59220 11.00000  0.01689   5.93
C00F  1  1.02470  0.51657  0.35851 11.00000  0.01898   5.89
C00G  1  0.84588  0.59955  0.19402 11.00000  0.02476   5.63
C00H  1  0.18579  0.47561  0.71148 11.00000  0.01883   5.54
C00I  1  0.37480  0.58047  0.88140 11.00000  0.02581   5.15
C00J  1  0.50779  0.39374  0.76437 11.00000  0.02324   4.68
C00K  1  0.71169  0.40782  0.29634 11.00000  0.02839   4.40
O00L  3  0.91357  0.30538  0.46752 11.00000  0.05320   4.09
C00M  1  0.33788  0.14946  0.42068 11.00000  0.03471   3.78
HKLF 4
END
