TITL 2_expF_1_2_expS_0_5_2_b.res in Pn
REM Old TITL 1 in P2/n
REM SHELXT solution in Pn: R1 0.252, Rweak 0.016, Alpha 0.018
REM <I/s>   1.154 for  100 systematic absences,  Orientation as input
REM Formula found by SHELXT:  C16 N4 O2

CELL  0.71073   7.0400   9.2900  11.5500   90.000   97.870   90.000
ZERR   16.000   0.0014   0.0019   0.0023    0.000    0.030    0.000
LATT -1
SYMM 1/2+X, -Y, 1/2+Z
SFAC C N O
UNIT 16 16 16
L.S. 10
BOND
LIST 6
FMAP 2
PLAN 20
O001  3  0.85130  0.74207  0.30704 11.00000  0.05243   7.80
O002  3  0.45435  0.69219  0.65984 11.00000  0.05998   7.72
N003  2  0.54473  0.41174  0.44951 11.00000  0.05498   7.41
C004  1  0.43151  0.60229  0.56441 11.00000  0.03533   7.10
N005  2  0.34271  0.32520  0.27459 11.00000  0.03462   7.02
N006  2  0.64380  1.08257  0.62955 11.00000  0.05043   6.99
N007  2  0.56514  0.51086  0.54310 11.00000  0.05034   6.76
C008  1  0.76423  0.89005  0.51251 11.00000  0.03680   6.49
C009  1  0.22977  0.51267  0.38802 11.00000  0.03160   6.34
C00A  1  0.68774  0.72837  0.28537 11.00000  0.03640   6.15
C00B  1  0.59726  0.64399  0.17690 11.00000  0.04994   5.73
C00C  1  0.33222  0.75435  0.72666 11.00000  0.03546   5.64
C00D  1  0.66637  1.17339  0.71710 11.00000  0.03704   5.58
C00E  1  0.79451  0.98771  0.60694 11.00000  0.05478   5.50
C00F  1  0.60607  0.88882  0.44118 11.00000  0.03844   5.01
C00G  1  0.41311  0.84649  0.82310 11.00000  0.04257   4.93
C00H  1  0.24543  0.60015  0.48347 11.00000  0.04788   4.83
C00I  1  0.55932  0.79750  0.34035 11.00000  0.03511   4.50
C00J  1  0.14870  0.75405  0.69082 11.00000  0.04070   4.28
C00K  1  0.46708  1.07144  0.56223 11.00000  0.04531   4.26
C00L  1  0.44593  0.97978  0.46229 11.00000  0.04873   4.26
C00M  1  0.37848  0.41790  0.36904 11.00000  0.04391   4.25
HKLF 4
END
