TITL 2_expF_1_1_expS_1_1_2_b.res in Pn
REM Old TITL 1 in P2/n
REM SHELXT solution in Pn: R1 0.234, Rweak 0.039, Alpha 0.022
REM <I/s>   1.218 for  100 systematic absences,  Orientation as input
REM Formula found by SHELXT:  C13 N6 O3

CELL  0.71073   7.0400   9.2900  11.5500   90.000   97.870   90.000
ZERR   16.000   0.0014   0.0019   0.0023    0.000    0.030    0.000
LATT -1
SYMM 1/2+X, -Y, 1/2+Z
SFAC C N O
UNIT 16 16 16
L.S. 10
BOND
LIST 6
FMAP 2
PLAN 20
O001  3  0.44572  0.30299  0.65637 11.00000  0.04220   8.91
C002  1  0.67524  0.26762  0.28309 11.00000  0.02840   8.56
N003  2  0.58461  0.11385  0.43951 11.00000  0.03081   7.54
N004  2  0.54100  0.48560  0.53966 11.00000  0.04305   7.30
N005  2  0.20410  0.48823  0.38310 11.00000  0.05305   7.26
N006  2  0.23027  0.39642  0.48129 11.00000  0.03113   7.11
N007  2  0.35604  0.58170  0.36781 11.00000  0.03729   6.91
N008  2  0.65889 -0.17239  0.71582 11.00000  0.02619   6.85
O009  3  0.85180  0.25488  0.30466 11.00000  0.04872   6.45
C00A  1  0.46106 -0.07207  0.55746 11.00000  0.03027   5.99
C00B  1  0.33236  0.67429  0.27067 11.00000  0.03037   5.94
O00C  3  0.14820  0.24184  0.68804 11.00000  0.04096   5.90
C00D  1  0.53590  0.58781  0.44609 11.00000  0.03679   5.82
C00E  1  0.40873  0.15229  0.82306 11.00000  0.02980   5.73
C00F  1  0.62120 -0.08174  0.62893 11.00000  0.03787   5.12
C00G  1  0.59051  0.35449  0.17694 11.00000  0.03962   5.01
C00H  1  0.76851  0.01405  0.60500 11.00000  0.02568   4.89
C00I  1  0.74705  0.11142  0.50901 11.00000  0.04604   4.55
C00J  1  0.41117  0.40201  0.56598 11.00000  0.03949   4.28
C00K  1  0.55082  0.19951  0.33638 11.00000  0.03386   3.99
C00L  1  0.42099  0.01361  0.45731 11.00000  0.03130   3.98
C00M  1  0.31780  0.24192  0.72369 11.00000  0.03410   3.52
HKLF 4
END
