TITL 2_expF_0_9_expS_0_7_2_a.res in P2(1)/n
REM Old TITL 1 in P2/n
REM SHELXT solution in P2(1)/n: R1 0.274, Rweak 0.097, Alpha 0.151
REM <I/s>   1.099 for  106 systematic absences,  Orientation as input
REM Formula found by SHELXT:  C9 N O

CELL  0.71073   7.0400   9.2900  11.5500   90.000   97.870   90.000
ZERR   16.000   0.0014   0.0019   0.0023    0.000    0.030    0.000
LATT  1
SYMM 1/2-X, 1/2+Y, 1/2-Z
SFAC C N O
UNIT 16 16 16
L.S. 10
BOND
LIST 6
FMAP 2
PLAN 20
N001  2  0.55106  0.55108  0.33904 11.00000  0.02874   6.55
O002  3  0.85077  0.49420  0.30853 11.00000  0.03723   6.36
C003  1  0.66396  0.92499  0.72189 11.00000  0.01778   6.26
C004  1  0.67826  0.48788  0.27880 11.00000  0.02046   6.21
C005  1  0.58859  0.64234  0.43833 11.00000  0.02163   6.06
C006  1  0.78121  0.73648  0.61064 11.00000  0.02447   5.93
C007  1  0.63348  0.82983  0.63001 11.00000  0.02396   5.91
C008  1  0.75939  0.64238  0.51492 11.00000  0.02388   5.73
C009  1  0.45971  0.82879  0.55469 11.00000  0.02797   5.61
C00A  1  0.59171  0.39940  0.17690 11.00000  0.02481   5.52
C00B  1  0.43926  0.73502  0.45932 11.00000  0.02558   5.38
HKLF 4
END
