TITL 2_expF_1_2_expS_1_1_2_b.res in Pn
REM Old TITL 1 in P2/n
REM SHELXT solution in Pn: R1 0.247, Rweak 0.024, Alpha 0.016
REM <I/s>   1.281 for  100 systematic absences,  Orientation as input
REM Formula found by SHELXT:  C12 N O10

CELL  0.71073   7.0400   9.2900  11.5500   90.000   97.870   90.000
ZERR   16.000   0.0014   0.0019   0.0023    0.000    0.030    0.000
LATT -1
SYMM 1/2+X, -Y, 1/2+Z
SFAC C N O
UNIT 16 16 16
L.S. 10
BOND
LIST 6
FMAP 2
PLAN 20
O001  3  0.71588  0.98713  0.39107 11.00000  0.04974   9.17
N002  2  0.91070  0.89100  0.56515 11.00000  0.03151   8.52
O003  3  0.94526  0.79876  0.66362 11.00000  0.04030   8.32
O004  3  0.83025  1.17164  0.27667 11.00000  0.03850   8.02
O005  3  0.34486  0.75106  0.31324 11.00000  0.04420   7.92
O006  3 -0.05878  0.51238  0.46251 11.00000  0.05944   7.88
O007  3  1.02971  1.08190  0.44799 11.00000  0.04955   7.83
C008  1  0.16660  0.77021  0.28788 11.00000  0.02586   7.63
O009  3  0.88778  0.64646  0.82351 11.00000  0.04898   7.54
C00A  1  0.12094  0.41388  0.62974 11.00000  0.02728   6.93
C00B  1  0.73646  0.89370  0.48378 11.00000  0.02851   6.47
O00C  3  0.15520  0.32460  0.72070 11.00000  0.04595   6.46
C00D  1  0.25552  0.60038  0.51230 11.00000  0.03537   6.40
C00E  1  0.85450  1.07847  0.36810 11.00000  0.03612   5.94
C00F  1 -0.05058  0.42334  0.56086 11.00000  0.04200   5.93
O00G  3  0.64003  0.73858  0.69634 11.00000  0.04619   5.84
C00H  1  0.04959  0.69635  0.34433 11.00000  0.02728   5.83
C00I  1  0.81207  0.74393  0.72915 11.00000  0.03250   5.71
C00J  1  0.08530  0.60437  0.44255 11.00000  0.03555   5.19
C00K  1  0.28046  0.51314  0.60907 11.00000  0.03711   4.75
C00L  1  1.05878  0.98520  0.54332 11.00000  0.02638   4.57
C00M  1  0.06940  0.84907  0.17649 11.00000  0.03797   4.29
O00N  3  0.65146  0.85161  0.49105 11.00000  0.18814   3.07
HKLF 4
END
