TITL 2_expF_1_0_expS_1_4_2_b.res in Pn
REM Old TITL 1 in P2/n
REM SHELXT solution in Pn: R1 0.226, Rweak 0.057, Alpha 0.029
REM <I/s>   1.321 for  100 systematic absences,  Orientation as input
REM Formula found by SHELXT:  C14 N4 O4

CELL  0.71073   7.0400   9.2900  11.5500   90.000   97.870   90.000
ZERR   16.000   0.0014   0.0019   0.0023    0.000    0.030    0.000
LATT -1
SYMM 1/2+X, -Y, 1/2+Z
SFAC C N O
UNIT 16 16 16
L.S. 10
BOND
LIST 6
FMAP 2
PLAN 20
O001  3  0.54596  0.70214  0.33628 11.00000  0.02762   8.27
N002  2  0.58252  0.60160  0.43192 11.00000  0.02646   8.13
C003  1  0.66764  0.75557  0.27081 11.00000  0.02544   7.72
N004  2  0.36498  1.07384  0.37437 11.00000  0.02030   7.33
N005  2  0.58293  0.85286  0.17632 11.00000  0.03785   7.10
N006  2  0.42052  0.51740  0.45588 11.00000  0.03131   6.57
O007  3  0.14922  0.73777  0.69339 11.00000  0.04278   6.41
C008  1  0.77227  0.51287  0.61026 11.00000  0.02224   6.26
C009  1  0.52767  1.07306  0.43837 11.00000  0.02621   6.09
C00A  1  0.32441  1.17163  0.28025 11.00000  0.01545   5.98
O00B  3  0.65109  0.32209  0.72300 11.00000  0.03932   5.95
C00C  1  0.74334  0.60513  0.51364 11.00000  0.01660   5.90
O00D  3  0.85078  0.75180  0.30854 11.00000  0.03148   5.77
C00E  1  0.20873  0.98163  0.39145 11.00000  0.03197   5.44
C00F  1  0.22056  0.89269  0.48534 11.00000  0.03729   5.32
C00G  1  0.45108  0.41709  0.55081 11.00000  0.03308   5.18
C00H  1  0.53921  0.99035  0.53543 11.00000  0.03498   4.60
C00I  1  0.30940  0.73195  0.71141 11.00000  0.02237   4.31
C00J  1  0.63638  0.41022  0.63732 11.00000  0.03353   4.28
C00K  1  0.44342  0.80780  0.65666 11.00000  0.03293   4.27
C00L  1  0.41037  0.88832  0.55468 11.00000  0.02749   3.69
C00M  1  0.40261  0.65092  0.82368 11.00000  0.02963   3.37
HKLF 4
END
