TITL 2_expF_0_9_expS_0_9_2_a.res in P2(1)/n
REM Old TITL 1 in P2/n
REM SHELXT solution in P2(1)/n: R1 0.274, Rweak 0.096, Alpha 0.131
REM <I/s>   1.123 for  106 systematic absences,  Orientation as input
REM Formula found by SHELXT:  C9 N O

CELL  0.71073   7.0400   9.2900  11.5500   90.000   97.870   90.000
ZERR   16.000   0.0014   0.0019   0.0023    0.000    0.030    0.000
LATT  1
SYMM 1/2-X, 1/2+Y, 1/2-Z
SFAC C N O
UNIT 16 16 16
L.S. 10
BOND
LIST 6
FMAP 2
PLAN 20
N001  2  0.55146  0.44878  0.33899 11.00000  0.02701   6.68
O002  3  0.85051  0.50632  0.30842 11.00000  0.03393   6.32
C003  1  0.67833  0.51216  0.27865 11.00000  0.02012   6.31
C004  1  0.66501  0.07516  0.72190 11.00000  0.01697   6.20
C005  1  0.78051  0.26401  0.61039 11.00000  0.02273   5.93
C006  1  0.63273  0.17007  0.62986 11.00000  0.02320   5.92
C007  1  0.58871  0.35747  0.43832 11.00000  0.02180   5.92
C008  1  0.75994  0.35742  0.51497 11.00000  0.02274   5.65
C009  1  0.45977  0.17129  0.55478 11.00000  0.02643   5.59
C00A  1  0.59129  0.60069  0.17685 11.00000  0.02353   5.48
C00B  1  0.43883  0.26441  0.45935 11.00000  0.02462   5.37
HKLF 4
END
