TITL 2_expF_1_5_expS_1_3_2_a.res in P2(1)/n
REM Old TITL 1 in P2/n
REM SHELXT solution in P2(1)/n: R1 0.352, Rweak 0.014, Alpha 0.033
REM <I/s>   1.450 for  106 systematic absences,  Orientation as input
REM Formula found by SHELXT:  C9 N O

CELL  0.71073   7.0400   9.2900  11.5500   90.000   97.870   90.000
ZERR   16.000   0.0014   0.0019   0.0023    0.000    0.030    0.000
LATT  1
SYMM 1/2-X, 1/2+Y, 1/2-Z
SFAC C N O
UNIT 16 16 16
L.S. 10
BOND
LIST 6
FMAP 2
PLAN 20
N001  2  0.66103  0.07609  0.72192 11.00000  0.04056   6.50
C002  1  0.55263  0.44794  0.34090 11.00000  0.03760   6.25
C003  1  0.78268  0.26278  0.60907 11.00000  0.04420   6.11
C004  1  0.58974  0.35762  0.43758 11.00000  0.03838   6.05
C005  1  0.46365  0.17057  0.55676 11.00000  0.04878   6.05
C006  1  0.67885  0.51189  0.27905 11.00000  0.04410   5.91
O007  3  0.85245  0.50515  0.30899 11.00000  0.05709   5.83
C008  1  0.76082  0.35627  0.51559 11.00000  0.04388   5.82
C009  1  0.62971  0.16802  0.63023 11.00000  0.04345   5.80
C00A  1  0.43989  0.26460  0.46186 11.00000  0.04596   5.72
C00B  1  0.58939  0.59873  0.17696 11.00000  0.05085   5.24
HKLF 4
END
