TITL 2_expF_0_7_expS_1_2_2_a.res in Pn
REM Old TITL 1 in P2/n
REM SHELXT solution in Pn: R1 0.235, Rweak 0.177, Alpha 0.080
REM <I/s>   1.185 for  100 systematic absences,  Orientation as input
REM Formula found by SHELXT:  C13 N3 O4

CELL  0.71073   7.0400   9.2900  11.5500   90.000   97.870   90.000
ZERR   16.000   0.0014   0.0019   0.0023    0.000    0.030    0.000
LATT -1
SYMM 1/2+X, -Y, 1/2+Z
SFAC C N O
UNIT 16 16 16
L.S. 10
BOND
LIST 6
FMAP 2
PLAN 20
O001  3  0.85083  0.75784  0.25718 11.00000  0.02320  10.10
O002  3  0.23306  0.89061  0.43126 11.00000  0.00539   8.64
O003  3  0.41093  0.65333  0.77448 11.00000  0.00010   8.52
O004  3  0.45959  0.79733  0.61341 11.00000  0.01940   7.82
C005  1  0.35988  1.07079  0.32100 11.00000  0.01102   7.28
C006  1  0.67428  0.76093  0.22992 11.00000  0.01111   7.15
N007  2  0.45371  0.41564  0.49659 11.00000  0.01593   7.11
N008  2  0.22216  0.98493  0.33997 11.00000  0.03111   6.67
N009  2  0.33537  1.16994  0.22552 11.00000  0.01751   6.64
C00A  1  0.43811  0.50668  0.40494 11.00000  0.02245   6.17
C00B  1  0.41419  0.88929  0.51654 11.00000  0.01910   6.03
C00C  1  0.66986  0.32102  0.67047 11.00000  0.01712   5.36
C00D  1  0.58928  0.60053  0.39322 11.00000  0.01802   5.25
C00E  1  0.31652  0.73209  0.67324 11.00000  0.01734   5.13
C00F  1  0.77286  0.51548  0.55886 11.00000  0.01497   4.94
C00G  1  0.56260  0.98477  0.48736 11.00000  0.00562   4.63
C00H  1  0.56697  0.69625  0.29383 11.00000  0.01468   4.44
C00I  1  0.53287  1.07169  0.38700 11.00000  0.02028   3.66
C00J  1  0.14917  0.74330  0.64189 11.00000  0.00529   3.12
C00K  1  0.61803  0.41013  0.57772 11.00000  0.01213   3.08
HKLF 4
END
