TITL 2_expF_1_2_expS_0_6_2_a.res in P2(1)/n
REM Old TITL 1 in P2/n
REM SHELXT solution in P2(1)/n: R1 0.275, Rweak 0.033, Alpha 0.079
REM <I/s>   1.450 for  106 systematic absences,  Orientation as input
REM Formula found by SHELXT:  C10 O

CELL  0.71073   7.0400   9.2900  11.5500   90.000   97.870   90.000
ZERR   16.000   0.0014   0.0019   0.0023    0.000    0.030    0.000
LATT  1
SYMM 1/2-X, 1/2+Y, 1/2-Z
SFAC C N O
UNIT 16 16 16
L.S. 10
BOND
LIST 6
FMAP 2
PLAN 20
C001  1  0.44859  0.55268  0.65970 11.00000  0.03546   6.47
C002  1  0.33962  0.92348  0.27916 11.00000  0.03251   6.47
C003  1  0.32216  0.48703  0.72149 11.00000  0.03794   6.11
O004  3  0.15031  0.49579  0.69187 11.00000  0.06819   6.11
C005  1  0.21907  0.73871  0.38990 11.00000  0.04265   6.07
C006  1  0.41371  0.64315  0.56141 11.00000  0.03813   5.94
C007  1  0.53724  0.82967  0.44400 11.00000  0.04408   5.85
C008  1  0.36554  0.83161  0.36984 11.00000  0.04004   5.79
C009  1  0.23998  0.64404  0.48585 11.00000  0.04368   5.77
C00A  1  0.56050  0.73505  0.54040 11.00000  0.04446   5.58
C00B  1  0.40784  0.39905  0.82338 11.00000  0.04528   5.32
HKLF 4
END
