TITL 2_expF_1_3_expS_1_2_2_b.res in Pn
REM Old TITL 1 in P2/n
REM SHELXT solution in Pn: R1 0.272, Rweak 0.019, Alpha 0.023
REM <I/s>   1.402 for  100 systematic absences,  Orientation as input
REM Formula found by SHELXT:  C15 N4 O3

CELL  0.71073   7.0400   9.2900  11.5500   90.000   97.870   90.000
ZERR   16.000   0.0014   0.0019   0.0023    0.000    0.030    0.000
LATT -1
SYMM 1/2+X, -Y, 1/2+Z
SFAC C N O
UNIT 16 16 16
L.S. 10
BOND
LIST 6
FMAP 2
PLAN 20
O001  3  0.14728  0.73866  0.69318 11.00000  0.05896   7.96
O002  3  0.54425  0.69339  0.33868 11.00000  0.05879   7.74
N003  2  0.65774  0.32306  0.72454 11.00000  0.04340   6.90
N004  2  0.44314  0.50809  0.45873 11.00000  0.04903   6.84
N005  2  0.77866  0.50713  0.61636 11.00000  0.06529   6.72
N006  2  0.44836  0.41756  0.55581 11.00000  0.05554   6.55
C007  1  0.33097  1.16849  0.28015 11.00000  0.03234   6.47
C008  1  0.31683  0.73625  0.71381 11.00000  0.04165   6.43
C009  1  0.62886  0.41481  0.63296 11.00000  0.04417   6.34
C00A  1  0.75015  0.60568  0.51714 11.00000  0.03769   6.30
C00B  1  0.21515  0.98281  0.39499 11.00000  0.03558   6.21
C00C  1  0.40079  0.89127  0.56019 11.00000  0.03897   6.05
C00D  1  0.59026  0.84933  0.17698 11.00000  0.05174   6.00
C00E  1  0.23071  0.89332  0.48861 11.00000  0.04691   5.90
C00F  1  0.52915  1.07729  0.44335 11.00000  0.05180   5.83
C00G  1  0.57552  0.60448  0.43660 11.00000  0.03900   5.71
C00H  1  0.56612  0.97812  0.53786 11.00000  0.04888   5.50
C00I  1  0.36285  1.07960  0.37328 11.00000  0.04175   5.42
C00J  1  0.67102  0.76107  0.27493 11.00000  0.04378   5.27
C00K  1  0.40723  0.64886  0.82302 11.00000  0.04779   4.74
C00L  1  0.43780  0.79816  0.65891 11.00000  0.03616   4.64
O00M  3  0.85272  0.75148  0.30915 11.00000  0.05405   4.04
HKLF 4
END
