TITL 2_expF_1_0_expS_1_2_2_c.res in P2(1)
REM Old TITL 1 in P2/n
REM SHELXT solution in P2(1): R1 0.239, Rweak 0.056, Alpha 0.125
REM <I/s>   1.770 for    6 systematic absences,  Orientation as input
REM Formula found by SHELXT:  C12 N8 O2

CELL  0.71073   7.0400   9.2900  11.5500   90.000   97.870   90.000
ZERR   16.000   0.0014   0.0019   0.0023    0.000    0.030    0.000
LATT -1
SYMM -X, 1/2+Y, -Z
SFAC C N O
UNIT 16 16 16
L.S. 10
BOND
LIST 6
FMAP 2
PLAN 20
N001  2  0.38281  0.40895  0.87734 11.00000  0.02884   8.19
O002  3  0.59409  0.74367  0.55546 11.00000  0.03844   7.44
N003  2  0.29825  0.70275  0.59038 11.00000  0.03089   7.22
N004  2  0.33859  0.85041  0.42720 11.00000  0.03265   7.14
N005  2  0.90966  0.67117  0.47301 11.00000  0.02653   7.09
N006  2  0.92954  0.23697  0.02859 11.00000  0.03308   6.81
N007  2  0.19348  0.51360  0.70872 11.00000  0.04230   6.64
N008  2  0.83782  0.39505  0.18668 11.00000  0.02157   6.64
N009  2  1.03194  0.48787  0.36515 11.00000  0.04279   6.60
C00A  1  0.22054  0.41659  0.79896 11.00000  0.03408   6.31
C00B  1  0.80503  0.30398  0.08905 11.00000  0.01961   5.98
C00C  1  1.00590  0.38040  0.26253 11.00000  0.02519   5.74
C00D  1  0.51177  0.59350  0.76570 11.00000  0.02434   5.73
C00E  1  0.53057  0.51433  0.85630 11.00000  0.02197   5.59
C00F  1  0.42923  0.76232  0.53026 11.00000  0.02815   5.53
C00G  1  0.42043  0.32534  0.97175 11.00000  0.02286   5.49
C00H  1  0.70222  0.57513  0.31077 11.00000  0.02010   5.49
C00I  1  0.34092  0.61117  0.69320 11.00000  0.04710   5.43
O00J  3  1.10922  0.23259  0.06253 11.00000  0.03266   5.19
C00K  1  0.68589  0.48604  0.20888 11.00000  0.02671   4.58
C00L  1  0.84606  0.14959 -0.07424 11.00000  0.03794   4.13
C00M  1  0.88220  0.56806  0.38408 11.00000  0.03245   3.47
HKLF 4
END
