TITL 2_expF_0_6_expS_1_0_2_a.res in Pn
REM Old TITL 1 in P2/n
REM SHELXT solution in Pn: R1 0.263, Rweak 0.282, Alpha 0.170
REM <I/s>   1.117 for   97 systematic absences,  Orientation as input
REM Formula found by SHELXT:  C13 N3 O4

CELL  0.71073   7.0400   9.2900  11.5500   90.000   97.870   90.000
ZERR   16.000   0.0014   0.0019   0.0023    0.000    0.030    0.000
LATT -1
SYMM 1/2+X, -Y, 1/2+Z
SFAC C N O
UNIT 16 16 16
L.S. 10
BOND
LIST 6
FMAP 2
PLAN 20
N001  2  0.89277  0.89886  0.56970 11.00000  0.00069  10.16
O002  3  0.72062  0.98123  0.40280 11.00000  0.00010   9.65
N003  2  0.80027  0.74466  0.73481 11.00000  0.01938   7.93
C004  1  0.13298  0.41911  0.63368 11.00000  0.01563   7.19
N005  2  0.93840  0.79345  0.67089 11.00000  0.00010   7.14
O006  3  0.63035  0.73897  0.69912 11.00000  0.01806   6.71
C007  1  0.90329  0.65489  0.82903 11.00000  0.00010   6.31
C008  1  0.25120  0.61383  0.53576 11.00000  0.01792   5.83
O009  3  0.33258  0.75267  0.31379 11.00000  0.01654   5.70
C00A  1  0.81108  1.16320  0.27740 11.00000  0.00010   5.64
C00B  1 -0.05964  0.42915  0.56630 11.00000  0.00961   5.25
O00C  3  0.14264  0.30735  0.71769 11.00000  0.03911   5.24
C00D  1  1.06328  0.98680  0.55029 11.00000  0.01414   5.21
C00E  1  1.02290  1.08235  0.45852 11.00000  0.01911   5.04
C00F  1 -0.06328  0.51153  0.46959 11.00000  0.01856   4.98
C00G  1  0.04845  0.68475  0.35260 11.00000  0.03274   4.76
C00H  1  0.07796  0.84985  0.17097 11.00000  0.02417   4.26
C00I  1  0.15152  0.76514  0.29264 11.00000  0.01879   3.68
C00J  1  0.86286  1.08320  0.37804 11.00000  0.00802   3.63
C00K  1  0.72145  0.89198  0.49937 11.00000  0.00595   3.26
HKLF 4
END
