TITL 2_expF_0_5_expS_0_8_2_a.res in Pn
REM Old TITL 1 in P2/n
REM SHELXT solution in Pn: R1 0.272, Rweak 0.385, Alpha 0.214
REM <I/s>   1.034 for   97 systematic absences,  Orientation as input
REM Formula found by SHELXT:  C12 N3 O8

CELL  0.71073   7.0400   9.2900  11.5500   90.000   97.870   90.000
ZERR   16.000   0.0014   0.0019   0.0023    0.000    0.030    0.000
LATT -1
SYMM 1/2+X, -Y, 1/2+Z
SFAC C N O
UNIT 16 16 16
L.S. 10
BOND
LIST 6
FMAP 2
PLAN 20
O001  3  0.70443  0.69719  0.35685 11.00000  0.00552  10.73
N002  2  0.65325  0.61250  0.26456 11.00000  0.00010   9.48
O003  3  0.80914  0.51724  0.23685 11.00000  0.00010   9.21
O004  3  0.59349  0.26186  0.50385 11.00000  0.00010   9.05
O005  3  0.41022 -0.16699  0.91725 11.00000  0.00010   8.93
N006  2  0.38385 -0.07638  0.82420 11.00000  0.00010   8.36
N007  2  0.44143  0.26001  0.46873 11.00000  0.02504   7.79
C008  1  0.51558  0.59194  0.17445 11.00000  0.00010   6.88
O009  3  0.46583  0.51409  0.08275 11.00000  0.03054   6.85
C00A  1  0.33050  0.35369  0.37910 11.00000  0.00010   6.53
C00B  1  0.20021 -0.08397  0.74519 11.00000  0.00010   5.51
C00C  1  0.57651  0.77317  0.41431 11.00000  0.00010   5.37
C00D  1  0.33335  0.09705  0.64706 11.00000  0.01914   4.59
C00E  1  0.53756  0.00360  0.80722 11.00000  0.02069   4.24
O00F  3  0.39592  0.74982  0.38441 11.00000  0.02173   4.24
C00G  1  0.77896  0.43154  0.12826 11.00000  0.09295   4.19
C00H  1  0.52149  0.11794  0.71145 11.00000  0.00427   4.14
C00I  1  0.64937  0.83436  0.52901 11.00000  0.00692   3.59
O00J  3  0.80096  0.82887  0.52490 11.00000  0.07130   3.56
C00K  1  0.32488  0.19316  0.53496 11.00000  0.03001   3.26
O00L  3  0.52926  0.31569  0.26064 11.00000  0.24389   3.20
C00M  1  0.19086  0.00795  0.65580 11.00000  0.04969   3.10
C00N  1  0.39695  0.06970  0.54307 11.00000  0.05456   3.00
HKLF 4
END
