TITL 2_expF_0_7_expS_1_1_2_a.res in Pn
REM Old TITL 1 in P2/n
REM SHELXT solution in Pn: R1 0.246, Rweak 0.187, Alpha 0.114
REM <I/s>   1.130 for  100 systematic absences,  Orientation as input
REM Formula found by SHELXT:  C11 N3 O6

CELL  0.71073   7.0400   9.2900  11.5500   90.000   97.870   90.000
ZERR   16.000   0.0014   0.0019   0.0023    0.000    0.030    0.000
LATT -1
SYMM 1/2+X, -Y, 1/2+Z
SFAC C N O
UNIT 16 16 16
L.S. 10
BOND
LIST 6
FMAP 2
PLAN 20
O001  3  0.81843  0.75949  0.30709 11.00000  0.00010  11.91
O002  3  0.18157  0.98277  0.38902 11.00000  0.00196  10.32
O003  3  0.30444  1.17257  0.27487 11.00000  0.00331   8.32
N004  2  0.37032  0.89165  0.55819 11.00000  0.02225   8.06
O005  3  0.52872  0.69870  0.34388 11.00000  0.03998   7.80
O006  3  0.39423  0.50686  0.45590 11.00000  0.03416   7.67
N007  2  0.60757  0.41474  0.63095 11.00000  0.02172   7.44
N008  2  0.56435  0.85107  0.17892 11.00000  0.01725   6.81
C009  1  0.49515  1.08513  0.44440 11.00000  0.00987   6.21
C00A  1  0.63891  0.77193  0.28284 11.00000  0.00608   6.16
C00B  1  0.42482  0.80228  0.66147 11.00000  0.00342   6.14
C00C  1  0.28693  0.74276  0.72149 11.00000  0.01188   6.05
C00D  1  0.70898  0.61251  0.50633 11.00000  0.01064   5.68
C00E  1  0.19041  0.89488  0.48097 11.00000  0.01123   5.63
O00F  3  0.37265  0.64782  0.82108 11.00000  0.02838   5.44
C00G  1  0.42130  0.42849  0.55787 11.00000  0.03076   5.28
C00H  1  0.52032  0.97813  0.53833 11.00000  0.01965   4.97
C00I  1  0.54391  0.60769  0.43437 11.00000  0.01994   4.91
C00J  1  0.33595  1.07747  0.37108 11.00000  0.00835   4.71
C00K  1  0.63287  0.32266  0.71212 11.00000  0.04877   4.41
HKLF 4
END
