TITL 2_expF_0_7_expS_0_7_2_a.res in Pn
REM Old TITL 1 in P2/n
REM SHELXT solution in Pn: R1 0.237, Rweak 0.185, Alpha 0.094
REM <I/s>   0.949 for  100 systematic absences,  Orientation as input
REM Formula found by SHELXT:  C13 N4 O5

CELL  0.71073   7.0400   9.2900  11.5500   90.000   97.870   90.000
ZERR   16.000   0.0014   0.0019   0.0023    0.000    0.030    0.000
LATT -1
SYMM 1/2+X, -Y, 1/2+Z
SFAC C N O
UNIT 16 16 16
L.S. 10
BOND
LIST 6
FMAP 2
PLAN 20
O001  3  0.14771  0.75982  0.68149 11.00000  0.00679  10.55
O002  3  0.76935  0.98411  0.59690 11.00000  0.01234  10.14
O003  3  0.67179  1.17527  0.71365 11.00000  0.02551   9.23
N004  2  0.58160  0.88785  0.43320 11.00000  0.00208   8.76
O005  3  0.53607  0.79396  0.32995 11.00000  0.01428   8.76
C006  1  0.31511  0.76918  0.70881 11.00000  0.00767   8.75
O007  3  0.58850  0.65098  0.17104 11.00000  0.00666   8.74
N008  2  0.24830  0.61040  0.47354 11.00000  0.01937   7.45
N009  2  0.54552  0.51430  0.53000 11.00000  0.02258   7.12
C00A  1  0.62062  1.07841  0.62794 11.00000  0.01945   6.68
N00B  2  0.35643  0.41688  0.36802 11.00000  0.01451   6.55
C00C  1  0.53444  0.41465  0.44240 11.00000  0.02174   6.20
C00D  1  0.45153  1.07321  0.54914 11.00000  0.01425   6.15
C00E  1  0.42849  0.68908  0.65037 11.00000  0.01383   5.56
C00F  1  0.76612  0.89764  0.50274 11.00000  0.01927   5.31
C00G  1  0.42294  0.99035  0.44381 11.00000  0.01803   5.03
C00H  1  0.67200  0.74241  0.26518 11.00000  0.02069   4.72
C00I  1  0.40023  0.59424  0.56615 11.00000  0.04214   4.03
C00J  1  0.34181  0.32422  0.26823 11.00000  0.01431   3.76
C00K  1  0.85229  0.75200  0.30078 11.00000  0.02665   3.75
C00L  1  0.41655  0.85000  0.82896 11.00000  0.05828   3.32
C00M  1  0.19998  0.51197  0.36294 11.00000  0.03719   3.09
HKLF 4
END
