TITL 2_expF_0_8_expS_1_4_2_b.res in Pn
REM Old TITL 1 in P2/n
REM SHELXT solution in Pn: R1 0.247, Rweak 0.132, Alpha 0.079
REM <I/s>   1.291 for  100 systematic absences,  Orientation as input
REM Formula found by SHELXT:  C14 N3 O3

CELL  0.71073   7.0400   9.2900  11.5500   90.000   97.870   90.000
ZERR   16.000   0.0014   0.0019   0.0023    0.000    0.030    0.000
LATT -1
SYMM 1/2+X, -Y, 1/2+Z
SFAC C N O
UNIT 16 16 16
L.S. 10
BOND
LIST 6
FMAP 2
PLAN 20
C001  1  0.32470  0.26073  0.77356 11.00000  0.00391   9.22
O002  3  0.54215  0.30227  0.38820 11.00000  0.02954   8.54
O003  3  0.59464  0.14974  0.22644 11.00000  0.01079   7.98
N004  2  0.53552 -0.08122  0.50011 11.00000  0.02416   7.01
N005  2  0.64040  0.57203  0.67921 11.00000  0.02081   6.85
N006  2  0.56857  0.01845  0.59594 11.00000  0.02701   6.71
C007  1  0.78629  0.48822  0.65442 11.00000  0.02380   6.40
C008  1  0.33849 -0.17161  0.32693 11.00000  0.00960   6.34
O009  3  0.15093  0.26247  0.74348 11.00000  0.02206   6.31
C00A  1  0.25035  0.10643  0.53172 11.00000  0.03224   6.03
C00B  1  0.41698  0.09784  0.61285 11.00000  0.03008   6.02
C00C  1  0.58955  0.38927  0.48490 11.00000  0.01941   5.63
C00D  1  0.76850  0.39133  0.56356 11.00000  0.00870   5.52
C00E  1  0.84907  0.24979  0.36072 11.00000  0.01356   5.48
C00F  1  0.22430  0.01418  0.43813 11.00000  0.01243   5.32
C00G  1  0.67587  0.67489  0.77131 11.00000  0.02261   4.99
C00H  1  0.38146 -0.09040  0.42172 11.00000  0.01978   4.28
C00I  1  0.43094  0.19925  0.70915 11.00000  0.01668   3.72
C00J  1  0.44642  0.49335  0.51296 11.00000  0.01795   3.63
C00K  1  0.45480  0.57446  0.60952 11.00000  0.02415   3.59
HKLF 4
END
