TITL 2_expF_0_8_expS_1_3_2_b.res in Pn
REM Old TITL 1 in P2/n
REM SHELXT solution in Pn: R1 0.247, Rweak 0.131, Alpha 0.077
REM <I/s>   1.236 for  100 systematic absences,  Orientation as input
REM Formula found by SHELXT:  C9 N5 O7

CELL  0.71073   7.0400   9.2900  11.5500   90.000   97.870   90.000
ZERR   16.000   0.0014   0.0019   0.0023    0.000    0.030    0.000
LATT -1
SYMM 1/2+X, -Y, 1/2+Z
SFAC C N O
UNIT 16 16 16
L.S. 10
BOND
LIST 6
FMAP 2
PLAN 20
C001  1  0.67616  0.23663  0.28879 11.00000  0.00010  10.74
O002  3  0.65889  0.68230  0.72266 11.00000  0.01791   9.39
O003  3  0.54751  0.30189  0.34554 11.00000  0.01898   8.83
N004  2  0.41176  0.10647  0.56747 11.00000  0.02532   8.74
O005  3  0.75810  0.39939  0.52806 11.00000  0.01724   8.40
O006  3  0.39203  0.34672  0.82512 11.00000  0.02268   8.18
N007  2  0.62670  0.58620  0.63331 11.00000  0.01474   8.12
O008  3  0.14690  0.26691  0.69708 11.00000  0.01968   7.98
O009  3  0.44743  0.48805  0.46686 11.00000  0.04159   7.70
N00A  2  0.21726  0.02332  0.39733 11.00000  0.02918   6.98
N00B  2  0.53574 -0.07497  0.44595 11.00000  0.01665   6.85
N00C  2  0.77993  0.49186  0.61635 11.00000  0.01583   6.67
O00D  3  0.85310  0.25603  0.31619 11.00000  0.02560   6.18
C00E  1  0.44317  0.19936  0.66515 11.00000  0.03100   5.67
C00F  1  0.58690  0.39271  0.44073 11.00000  0.02314   5.62
C00G  1  0.46170  0.58362  0.55753 11.00000  0.02933   5.40
C00H  1  0.36427 -0.07153  0.37547 11.00000  0.02346   5.37
C00I  1  0.32599 -0.16420  0.27956 11.00000  0.01317   5.18
C00J  1  0.23763  0.11200  0.50420 11.00000  0.01854   5.09
C00K  1  0.56406  0.01194  0.54729 11.00000  0.01239   4.51
C00L  1  0.56673  0.14267  0.17488 11.00000  0.02101   4.30
HKLF 4
END
