TITL 12_a.res in P1
REM Old TITL 12 in P-1
REM SHELXT solution in P1: R1 0.436, Rweak 0.003, Alpha 0.000
REM <I/s>   0.000 for    0 systematic absences,  Orientation as input
REM Flack x = -1.376 ( 1.315 ) from   159 Parsons' quotients
REM Formula found by SHELXT:  C30 N14 O40 Cl13

CELL  0.71073   8.8800  14.5734  16.4000   90.000   90.000   75.585
ZERR   27.000   0.0018   0.0029   0.0033    0.030    0.030    0.030
LATT -1
SFAC C N O CL
UNIT 27 27 27 27
L.S. 10
BOND
LIST 6
FMAP 2
PLAN 20
CL01  4 -0.13641  0.14811  0.64658 11.00000  0.31656  15.54
C002  1 -0.12753  0.18867  0.53722 11.00000  0.08382  14.75
CL03  4  0.12233  0.86064  0.54298 11.00000  0.23766  14.07
CL04  4 -0.25053  0.49020  1.03023 11.00000  0.24623  13.97
CL05  4  0.46502  0.71882  0.30630 11.00000  0.23495  13.88
O006  3 -0.32502 -0.12609  0.75795 11.00000  0.14649  13.42
CL07  4  1.00877  1.23149  0.23104 11.00000  0.22961  13.26
CL08  4 -0.36756  0.36414  1.04185 11.00000  0.21982  13.14
CL09  4  0.00967  0.73966  0.07784 11.00000  0.24700  13.13
O00A  3  0.35621  0.65151  0.15131 11.00000  0.13614  12.92
CL0B  4  0.93486  0.95864  0.09903 11.00000  0.23432  12.84
CL0C  4  0.56444  0.83254  0.30187 11.00000  0.28285  12.83
CL0D  4 -0.49271 -0.26804  0.73074 11.00000  0.26807  12.80
CL0E  4 -0.55094  0.25174  0.84357 11.00000  0.29621  12.72
O00F  3  0.02333  0.37271  0.54245 11.00000  0.17711  12.46
O00G  3  0.22023  0.98330  0.51421 11.00000  0.13378  12.39
O00H  3 -0.57219  0.46892  0.59540 11.00000  0.12491  11.87
O00I  3 -0.13362 -0.31507  0.56731 11.00000  0.12859  11.82
O00J  3  0.40823  0.70514  0.01318 11.00000  0.12284  11.75
O00K  3 -0.09769 -0.32396  0.64295 11.00000  0.16491  11.54
O00L  3  1.11915  1.23464  0.11697 11.00000  0.18225  11.29
O00M  3 -0.04186  0.76194 -0.01447 11.00000  0.15612  11.11
N00N  2 -0.54822  0.08954  0.88338 11.00000  0.10007  10.98
O00O  3  1.38490  1.17932  0.06957 11.00000  0.08961  10.93
O00P  3  0.95828  1.19927  0.12106 11.00000  0.18975  10.93
O00Q  3 -0.55524 -0.00672  0.83122 11.00000  0.12272  10.90
O00R  3  0.06787  0.33417  0.80809 11.00000  0.12169  10.60
O00S  3 -0.52409 -0.29758  0.61368 11.00000  0.27217  10.55
O00T  3 -0.02365  0.22171  0.80305 11.00000  0.13463  10.52
O00U  3 -0.35014 -0.27993  0.61388 11.00000  0.16171  10.25
O00V  3 -0.46178  0.29554  0.92165 11.00000  0.16805  10.22
O00W  3 -0.01859  0.26471  0.61086 11.00000  0.18496  10.06
CL0X  4  0.05109  0.84213 -0.04185 11.00000  0.23088  10.04
O00Y  3 -0.07227  0.69767  0.21049 11.00000  0.14048   9.99
O00Z  3 -0.62823  0.07557  0.87406 11.00000  0.14565   9.85
N010  2 -0.51135  0.24417  0.76483 11.00000  0.10072   9.71
CL11  4  0.17607  0.37011  0.27473 11.00000  0.26122   9.68
O012  3  1.41170  1.16874  0.15743 11.00000  0.18051   9.58
O013  3 -0.03498  0.73134  0.34902 11.00000  0.18304   9.55
O014  3 -0.56609  0.19165  0.71758 11.00000  0.17004   9.48
O015  3 -0.48723  0.33586  0.45860 11.00000  0.13761   9.31
O016  3 -0.23933 -0.02084  0.68231 11.00000  0.23888   9.29
O017  3  0.04169  0.80867  0.41933 11.00000  0.16631   9.25
N018  2  0.39999  0.58638  0.29420 11.00000  0.17334   9.23
N019  2 -0.21362 -0.30513  0.62524 11.00000  0.17623   9.08
N01A  2  0.38828  0.68947  0.06548 11.00000  0.17718   8.70
O01B  3  0.47320  0.76715  0.13921 11.00000  0.14935   8.70
C01C  1 -0.12878  0.45754  0.95382 11.00000  0.11074   8.41
O01D  3 -0.08737  0.08058  0.78107 11.00000  0.16852   8.32
N01E  2 -0.53210  0.19460  0.80842 11.00000  0.14136   8.31
O01F  3 -0.35298  0.22266  0.58762 11.00000  0.29229   8.22
O01G  3  0.51271  0.85575  0.05193 11.00000  0.14257   8.14
N01H  2 -0.38423 -0.14183  0.78198 11.00000  0.18599   7.99
O01I  3 -0.15022  0.55361  0.36421 11.00000  0.18459   7.84
O01J  3 -0.05172  0.59000  0.38982 11.00000  0.12984   7.73
O01K  3 -0.12841  0.60746  1.01545 11.00000  0.19590   7.70
O01L  3 -0.51620  0.24026  0.56486 11.00000  0.10953   7.62
C01M  1 -0.15701  0.05177  0.72764 11.00000  0.13800   7.61
O01N  3  0.16795  0.71498  0.06339 11.00000  0.16047   7.52
N01O  2 -0.03061  0.36600  0.59325 11.00000  0.17059   7.40
O01P  3  1.27242  1.19181  0.14348 11.00000  0.12844   7.37
O01Q  3 -0.06686  0.21605  0.50938 11.00000  0.18086   7.25
O01R  3  0.25380  0.49126  0.20056 11.00000  0.22453   7.20
N01S  2  0.94518  0.99066  0.17992 11.00000  0.13150   7.14
N01T  2  0.41963  0.97466  0.46710 11.00000  0.15673   7.08
N01U  2 -0.54231  0.26128  0.48775 11.00000  0.16269   7.08
O01V  3  0.01064  0.75491  0.28858 11.00000  0.17136   6.89
N01W  2  0.08781  0.32783  0.90996 11.00000  0.10969   6.64
C01X  1  0.36939  0.55749  0.24789 11.00000  0.13755   6.56
C01Y  1 -0.06689  0.76168  0.06514 11.00000  0.12396   6.49
C01Z  1 -0.06004  0.49744  0.98194 11.00000  0.13840   6.48
N020  2  1.65617  1.32396  0.22697 11.00000  0.31141   6.36
C021  1  0.58813  0.92243  0.15106 11.00000  0.19216   6.26
C022  1 -0.09292  0.46876  0.89095 11.00000  0.13983   6.24
C023  1  0.16872  0.93727  0.45476 11.00000  0.15063   6.22
C024  1 -0.04866  0.70788  0.28452 11.00000  0.14362   6.19
C025  1 -0.04112  0.50817  0.32021 11.00000  0.15187   5.97
C026  1 -0.17139  0.57280  0.21363 11.00000  0.11371   5.81
N027  2 -0.56885  0.47860  0.66402 11.00000  0.11715   5.69
C028  1 -0.23060  0.05968  0.53983 11.00000  0.12007   5.59
C029  1 -0.35292  0.21238  0.56430 11.00000  0.16494   5.59
C02A  1  0.58837  0.81876  0.41747 11.00000  0.13847   5.21
C02B  1 -0.40295  0.34259  0.44685 11.00000  0.08336   5.15
C02C  1  0.11210  0.50091  0.49541 11.00000  0.22209   5.13
C02D  1 -0.35030  0.43229  0.95001 11.00000  0.09347   5.03
C02E  1 -0.03459  0.27314  0.66681 11.00000  0.13003   5.01
C02F  1  0.12809  0.42038  1.02662 11.00000  0.23619   4.88
C02G  1  0.28965  0.56330  0.05270 11.00000  0.11391   4.87
C02H  1  1.45731  1.23915  0.28965 11.00000  0.20182   4.84
C02I  1  1.27984  1.20306  0.07291 11.00000  0.10669   4.74
C02J  1  0.69685  1.01387  0.24235 11.00000  0.11862   4.70
C02K  1  0.39746  0.55664  0.36314 11.00000  0.14457   4.54
C02L  1 -0.45608  0.38672  0.78544 11.00000  0.13556   4.49
C02M  1 -0.64964 -0.22254  0.83197 11.00000  0.10623   4.26
C02N  1 -0.65617  0.06306  0.70937 11.00000  0.16507   3.67
C02O  1  0.38485  0.98213  0.38996 11.00000  0.27100   3.60
C02P  1  0.81818  1.08863  0.16042 11.00000  0.08553   3.56
HKLF 4
END
