TITL 13_a.res in P1
REM Old TITL 13 in P-1
REM SHELXT solution in P1: R1 0.422, Rweak 0.001, Alpha 0.000
REM <I/s>   0.000 for    0 systematic absences,  Orientation as input
REM Flack x = -0.814 ( 1.002 ) from    79 Parsons' quotients
REM Formula found by SHELXT:  C40 N16 O24 Cl19

CELL  0.71073   9.0200  14.8668  16.4500   90.000   90.000   78.727
ZERR   29.000   0.0018   0.0030   0.0033    0.030    0.030    0.030
LATT -1
SFAC C N O CL
UNIT 29 29 29 29
L.S. 10
BOND
LIST 6
FMAP 2
PLAN 20
CL01  4  0.41508  0.04639  0.08348 11.00000  0.10879  17.20
O002  3  0.97849  0.48897  0.87372 11.00000  0.00716  16.25
CL03  4  0.48315  0.58630  0.51659 11.00000  0.09607  16.22
CL04  4  0.78819  0.30862  0.28392 11.00000  0.12957  15.96
CL05  4  0.43728  0.91357  0.72165 11.00000  0.13129  15.78
CL06  4  0.57839  0.56432  0.65248 11.00000  0.15680  14.94
CL07  4  0.59405  0.16130 -0.18877 11.00000  0.10119  14.93
CL08  4 -0.17651  0.85610  0.74112 11.00000  0.15701  14.84
CL09  4  0.57872  0.65940  0.33874 11.00000  0.24579  14.79
CL0A  4  0.83694  0.56194  0.60302 11.00000  0.11590  14.75
CL0B  4  1.16375  0.38126  0.18851 11.00000  0.12903  14.67
CL0C  4  0.26579 -0.03674  0.40579 11.00000  0.22509  14.39
O00D  3  0.44078 -0.00029  0.37778 11.00000  0.04512  14.21
CL0E  4 -0.28227  0.75177  0.99837 11.00000  0.15077  13.72
CL0F  4  0.10824  0.06797  0.16081 11.00000  0.12014  13.42
CL0G  4  0.26207  0.46458  0.84396 11.00000  0.17308  13.23
CL0H  4  0.22421  0.86838  0.81329 11.00000  0.15010  13.02
CL0I  4  0.48212  0.51086  0.31850 11.00000  0.14113  12.76
O00J  3  0.69562  0.24306  0.52687 11.00000  0.02149  12.32
O00K  3  0.62002  0.44457  0.33987 11.00000  0.01823  12.22
N00L  2  0.60767  0.62344  0.55102 11.00000  0.03266  12.19
O00M  3  1.08767  0.27266  0.51910 11.00000  0.04311  12.02
CL0N  4  0.30092  0.76311  1.03545 11.00000  0.18978  11.97
O00O  3  0.91547  0.23611  0.54935 11.00000  0.06216  11.74
O00P  3  0.10870  0.96788  0.82873 11.00000  0.02727  11.70
CL0Q  4 -0.29347  0.87233  0.67960 11.00000  0.12895  11.53
C00R  1  0.35103  0.00669  0.24175 11.00000  0.00010  11.04
O00S  3  0.60852  0.06918  0.49541 11.00000  0.04175  10.90
N00T  2  0.13783  0.09822  0.05063 11.00000  0.02957  10.84
O00U  3  0.46978  0.03975  0.22601 11.00000  0.01831  10.74
O00V  3  0.02846  0.81609  0.79833 11.00000  0.12465  10.69
O00W  3  1.32506  0.28841  0.52076 11.00000  0.02711  10.66
O00X  3  0.16426  0.04840 -0.02312 11.00000  0.06192  10.29
O00Y  3  0.39274  0.53214  0.64300 11.00000  0.07997  10.22
O00Z  3  1.23464  0.37193  0.25689 11.00000  0.02252  10.09
C010  1  0.88406  0.45568  0.89639 11.00000  0.00010  10.08
CL11  4  0.45929  0.07767 -0.00173 11.00000  0.30136  10.02
O012  3  0.10165  0.58944  0.99977 11.00000  0.06155   9.75
C013  1  0.58450  0.12186  0.53761 11.00000  0.01664   9.73
O014  3  0.30917  0.00259  0.09259 11.00000  0.09065   9.58
O015  3  1.08981  0.67550  0.31490 11.00000  0.03542   9.57
C016  1  1.02518  0.54707  0.71738 11.00000  0.02508   9.50
N017  2  0.81607  0.49931  0.61316 11.00000  0.04255   9.32
O018  3  0.25829  0.44742  0.91706 11.00000  0.03040   9.26
O019  3 -0.33546  0.71069  1.18877 11.00000  0.05977   9.22
N01A  2  0.89377  0.44749  0.22594 11.00000  0.00010   8.59
O01B  3  0.59097  0.63112  0.51259 11.00000  0.16569   8.50
N01C  2  0.82395  0.35724  0.27972 11.00000  0.04661   8.40
O01D  3  1.00867  0.29726  0.30565 11.00000  0.05330   8.14
O01E  3  1.09721  0.17588  0.83843 11.00000  0.08404   8.11
O01F  3  1.06627  0.45395  0.70268 11.00000  0.20373   7.89
N01G  2  0.11674  0.76485  1.00977 11.00000  0.05762   7.80
N01H  2 -0.02595  1.00874  0.80127 11.00000  0.02676   7.71
N01I  2  1.13517  0.36610  0.23278 11.00000  0.01904   7.48
O01J  3  0.54136  0.50871  0.95149 11.00000  0.12438   7.42
N01K  2  1.02051  0.50939  0.55910 11.00000  0.03086   7.19
N01L  2  0.40192  0.84760  0.94441 11.00000  0.10129   7.04
N01M  2 -0.02374  0.66084  1.06131 11.00000  0.03350   6.85
N01N  2  0.44784  0.63055  0.70876 11.00000  0.05709   6.82
N01O  2  0.14241  0.89322  0.63366 11.00000  0.00178   6.70
N01P  2  0.84550  0.53015  0.74796 11.00000  0.01979   6.66
C01Q  1  1.33546  0.31835  0.63532 11.00000  0.07187   6.35
C01R  1  0.24281  0.09308  0.12481 11.00000  0.09197   6.23
C01S  1  1.29237  0.32349  0.14633 11.00000  0.09119   6.19
C01T  1  0.69562  0.57564  0.55471 11.00000  0.03703   6.03
C01U  1  0.25777  0.52267  0.98988 11.00000  0.03131   5.89
C01V  1  0.89571  0.38725  0.21979 11.00000  0.00947   5.78
C01W  1  0.36286  0.78462  0.77543 11.00000  0.00010   5.68
C01X  1 -0.01402  0.10725  0.02827 11.00000  0.01304   5.54
C01Y  1  0.66751  0.22339  0.63760 11.00000  0.08320   5.52
C01Z  1  0.92013  0.35509  0.43159 11.00000  0.02716   5.46
C020  1 -0.10889  0.79282  1.14366 11.00000  0.08949   5.46
C021  1  0.49706  0.10258 -0.08688 11.00000  0.04334   5.37
C022  1 -0.30477  0.82754  0.70998 11.00000  0.00010   5.34
C023  1  0.11074  0.86987  0.79247 11.00000  0.10543   5.14
C024  1  1.18283  0.28055  0.50111 11.00000  0.03428   5.08
C025  1  0.75417  0.27901  0.49722 11.00000  0.02743   5.06
N026  2  0.39497  0.13094  0.44034 11.00000  0.02637   5.02
C027  1  0.79723  0.01984  0.52548 11.00000  0.03182   4.57
C028  1 -0.29211  0.19819 -0.06260 11.00000  0.01934   4.52
C029  1  0.87489  0.67172  0.32487 11.00000  0.11222   4.21
C02A  1  0.68484  0.46606  0.89132 11.00000  0.19926   4.08
C02B  1 -0.20614  0.81015  0.87397 11.00000  0.03883   4.07
C02C  1  0.76503  0.23040  0.24264 11.00000  0.06712   3.92
C02D  1  1.19893  0.60948  0.28462 11.00000  0.06510   3.86
C02E  1 -0.10353  1.06078  0.84232 11.00000  0.05067   3.75
C02F  1  0.76174 -0.02402  0.33157 11.00000  0.03160   3.74
C02G  1  0.73763  0.37182  0.63660 11.00000  0.01355   3.66
C02H  1  1.21563  0.17529  0.85976 11.00000  0.09886   3.63
C02I  1  0.82556 -0.06078  0.35998 11.00000  0.04305   3.61
C02J  1  0.45304  0.72238  0.71310 11.00000  0.00539   3.60
C02K  1  0.01662  0.03535  0.43450 11.00000  0.12484   3.59
C02L  1 -0.05410  0.76379  0.96664 11.00000  0.00152   3.55
C02M  1  0.79301 -0.04300  0.41701 11.00000  0.02790   3.40
C02N  1  0.64769  0.31747  0.24752 11.00000  0.05902   3.34
C02O  1  0.71053  0.38393  0.12261 11.00000  0.02916   3.24
C02P  1 -0.19073  0.19283  0.05386 11.00000  0.04659   3.21
C02Q  1 -0.07887  0.74526  1.01229 11.00000  0.00010   3.10
N02R  2  1.16360  0.22486  0.69765 11.00000  0.03877   3.07
HKLF 4
END
