TITL 15_a.res in P1
REM Old TITL 15 in P-1
REM SHELXT solution in P1: R1 0.550, Rweak 0.001, Alpha 0.000
REM <I/s>   0.000 for    0 systematic absences,  Orientation as input
REM Flack x = -1.063 ( 2.173 ) from    28 Parsons' quotients
REM Formula found by SHELXT:  C41 N19 O36 Cl29

CELL  0.71073   8.9300  14.5611  16.4300   90.000   90.000   76.771
ZERR   28.000   0.0018   0.0029   0.0033    0.030    0.030    0.030
LATT -1
SFAC C N O CL
UNIT 28 28 28 28
L.S. 10
BOND
LIST 6
FMAP 2
PLAN 20
CL01  4  0.55220  0.29977  0.77065 11.00000  0.16286  19.23
CL02  4  0.26173  0.51915  0.99600 11.00000  0.17203  18.71
CL03  4  1.04617  0.80288  0.27520 11.00000  0.19561  16.51
CL04  4  1.03845  0.33770  0.53561 11.00000  0.16652  15.92
CL05  4  0.91447  0.76545  0.26491 11.00000  0.44876  15.57
CL06  4  0.11899  1.06582  0.11209 11.00000  0.15805  15.43
CL07  4 -0.10007  0.22570  0.78228 11.00000  0.19194  15.35
CL08  4 -0.02058  0.27330  0.86442 11.00000  0.19321  14.98
CL09  4  0.93383  0.77465  0.16485 11.00000  0.18759  14.62
CL0A  4  1.12704  0.40938  0.39936 11.00000  0.17289  14.56
CL0B  4  0.44907  0.65499  0.61213 11.00000  0.33585  14.32
CL0C  4  0.59425  0.56623  0.61035 11.00000  0.16389  14.31
CL0D  4 -0.15902  0.12022  0.80772 11.00000  0.22001  14.17
CL0E  4  1.21374  0.44735  0.22969 11.00000  0.19604  14.16
CL0F  4  0.09239 -0.14495  0.68570 11.00000  0.21073  14.12
CL0G  4  0.31030  0.50987  1.05515 11.00000  0.27108  14.01
CL0H  4  0.99492  0.80317  0.10992 11.00000  0.16920  13.96
CL0I  4  0.58099  0.37268  1.17960 11.00000  0.17207  13.90
CL0J  4 -0.24662  0.01918  0.50704 11.00000  0.17439  13.80
CL0K  4  0.44939  0.71836  0.28595 11.00000  0.25559  13.72
CL0L  4  0.63008  0.43477  0.86473 11.00000  0.17146  13.63
CL0M  4 -0.23197  0.04734  0.63147 11.00000  0.21623  13.52
CL0N  4  0.17376 -0.12363  0.63706 11.00000  0.21141  13.27
CL0O  4  0.55871  0.82933  0.02990 11.00000  0.17039  13.20
CL0P  4  0.48656  0.77732  0.36454 11.00000  0.18519  12.51
O00Q  3  0.26337  0.56315  1.13082 11.00000  0.14497  12.46
O00R  3  0.73257  0.49919  0.94210 11.00000  0.16690  12.27
O00S  3  0.73560  0.56491  0.81027 11.00000  0.12840  12.17
O00T  3  0.21488 -0.04686  0.70796 11.00000  0.10563  11.93
O00U  3 -0.40742 -0.08143  0.38282 11.00000  0.14996  11.20
N00V  2  0.37042  1.08919  0.32725 11.00000  0.09727  11.17
O00W  3  0.88345  0.64367  0.29084 11.00000  0.12453  11.05
N00X  2  0.12063  0.48174  1.02552 11.00000  0.22380  11.02
O00Y  3  0.68943  0.54734  0.61441 11.00000  0.12482  10.94
C00Z  1  0.70464  1.10543  0.15277 11.00000  0.09573  10.87
CL10  4  0.34399  0.62233  0.30361 11.00000  0.21517  10.79
O011  3  0.36401  0.17266  0.79797 11.00000  0.14016  10.58
CL12  4 -0.37671 -0.09016  0.89674 11.00000  0.17518  10.56
CL13  4 -0.06793  0.18226  0.96669 11.00000  0.25073  10.53
O014  3  0.62592  0.38047  1.12133 11.00000  0.08959  10.45
C015  1  0.49364  0.30147  0.61026 11.00000  0.06941  10.40
N016  2  0.81168  0.52582  0.87455 11.00000  0.09598  10.37
N017  2  0.20045  1.01075  0.44729 11.00000  0.12533  10.28
O018  3  0.37422  1.20991  0.50207 11.00000  0.08376  10.15
O019  3  0.28371  0.01674  0.59735 11.00000  0.21871  10.07
C01A  1  0.29498  0.96029  0.08964 11.00000  0.11499  10.06
O01B  3  0.40562  0.27914  0.64613 11.00000  0.10744  10.05
O01C  3  0.05561  0.96154  0.38333 11.00000  0.14143  10.00
O01D  3  0.72573  0.44467  1.21347 11.00000  0.11462   9.94
O01E  3 -0.09714  0.01643  0.52699 11.00000  0.13745   9.79
CL1F  4  0.46041  0.67232  0.46800 11.00000  0.19773   9.74
N01G  2  0.90204  0.70746  0.02297 11.00000  0.10635   9.68
N01H  2  0.28846  1.02591  0.42973 11.00000  0.16484   9.58
N01I  2  1.03703  0.33329  0.49327 11.00000  0.14216   9.57
N01J  2  0.38253  0.53144  1.00830 11.00000  0.09865   9.52
O01K  3  0.33408  0.11987  0.66773 11.00000  0.11246   9.28
O01L  3 -0.31269 -0.05645  0.72615 11.00000  0.10335   9.27
O01M  3  1.13649  0.91127 -0.13962 11.00000  0.13394   9.25
C01N  1 -0.20391 -0.05288  0.74320 11.00000  0.10575   9.24
C01O  1  0.66243  0.43811  0.78525 11.00000  0.04404   9.21
C01P  1  0.60924  0.64607  0.23591 11.00000  0.10571   9.16
O01Q  3  0.76249  1.15448  0.12113 11.00000  0.17637   9.16
O01R  3  0.81438  0.47201  0.59171 11.00000  0.10929   8.80
O01S  3  0.22684  1.07168  0.31002 11.00000  0.13069   8.68
N01T  2  0.30367  1.04635  0.36930 11.00000  0.08246   8.68
O01U  3  0.54079  1.14420  0.11358 11.00000  0.12821   8.66
O01V  3  0.21084  0.62378  0.64093 11.00000  0.12452   8.62
O01W  3  0.70888  0.74745  0.34993 11.00000  0.12858   8.35
O01X  3  0.49768  0.80198  0.46593 11.00000  0.12056   8.22
N01Y  2  0.97920  0.73855  0.06806 11.00000  0.19875   8.09
O01Z  3  0.13506  0.15455  0.72519 11.00000  0.15051   8.04
N020  2  0.06199  0.62379  0.74083 11.00000  0.18866   8.02
O021  3  1.04690  0.81362  0.00885 11.00000  0.22602   7.93
O022  3  0.82489  0.62587  0.18059 11.00000  0.12552   7.86
O023  3  0.02568  0.30245  0.96849 11.00000  0.11199   7.58
O024  3 -0.20123 -0.05214  0.84436 11.00000  0.15705   7.57
C025  1  0.15311  0.45781  0.94867 11.00000  0.12412   7.39
C026  1  0.64068  0.21505  0.88053 11.00000  0.06206   7.27
O027  3  1.40742  0.59264 -0.20559 11.00000  0.12138   7.20
N028  2  0.06676  0.44608  0.89331 11.00000  0.20185   6.81
N029  2  0.81102  0.80935  0.16591 11.00000  0.06442   6.80
N02A  2  1.14591  0.71910  0.37223 11.00000  0.11406   6.65
N02B  2  0.85381  0.70818 -0.01058 11.00000  0.10132   6.64
O02C  3  0.62635  0.69010  0.19857 11.00000  0.19235   6.60
N02D  2  0.00100 -0.08846  0.68424 11.00000  0.16721   6.54
C02E  1  0.93005  0.62539  0.15004 11.00000  0.11023   6.53
C02F  1  0.04876  0.65458  0.61959 11.00000  0.09823   6.43
O02G  3  0.35690  0.99862  0.07657 11.00000  0.09202   6.34
C02H  1  1.24203  0.42370  0.35111 11.00000  0.10487   6.19
C02I  1  0.97403  0.72389  0.40281 11.00000  0.13620   6.18
C02J  1  0.53628  0.47578  0.98876 11.00000  0.13333   6.05
N02K  2  0.43711  0.84909  0.02650 11.00000  0.15444   5.90
C02L  1  0.68825  1.13564  0.17208 11.00000  0.13698   5.86
O02M  3  0.48829  0.21970  0.90511 11.00000  0.17063   5.70
C02N  1  0.04167  0.33416  0.68605 11.00000  0.13092   5.69
C02O  1  0.00613  0.59593  0.74508 11.00000  0.10585   5.66
C02P  1  0.66495  0.45311  0.71833 11.00000  0.09887   5.54
C02Q  1  1.28872  0.70665 -0.13907 11.00000  0.13469   5.52
C02R  1  0.47698  1.00865  0.26201 11.00000  0.06808   5.51
C02S  1  0.70703  0.87590  0.16659 11.00000  0.08243   5.50
C02T  1  0.16491  0.23451  0.85881 11.00000  0.11324   5.45
C02U  1  0.87925  0.40391  0.54278 11.00000  0.08485   5.44
C02V  1  0.72417  0.30452  0.42011 11.00000  0.19500   5.41
C02W  1 -0.01807  0.51484  0.76914 11.00000  0.04412   5.30
C02X  1  0.15913 -0.16583  0.56916 11.00000  0.17609   5.23
C02Y  1  0.51052  1.10940  0.23652 11.00000  0.08182   5.06
C02Z  1  0.79667  0.36403  0.55005 11.00000  0.13683   5.05
C030  1 -0.25237  0.01083  0.36493 11.00000  0.08631   5.04
C031  1  0.70634  0.23810  0.35859 11.00000  0.09828   4.98
C032  1  0.21039  0.27530  0.86000 11.00000  0.06301   4.83
N033  2 -0.38361 -0.20991  0.65579 11.00000  0.09124   4.71
C034  1  0.49584  0.53883  0.55123 11.00000  0.12674   4.59
C035  1  0.33978  1.15594  0.44629 11.00000  0.10350   4.53
C036  1  0.14882  0.92855  0.36916 11.00000  0.07201   4.46
C037  1  0.40421  0.39888  0.81631 11.00000  0.17412   4.41
C038  1  0.48651  0.41891  0.55133 11.00000  0.15750   4.23
N039  2  1.11562  0.28555  0.16657 11.00000  0.12575   4.14
O03A  3  0.08286  0.39387  0.73108 11.00000  0.11653   4.08
C03B  1  0.31577  0.85900  0.04543 11.00000  0.10817   3.84
C03C  1  0.02752  0.39932  0.80763 11.00000  0.09077   3.45
C03D  1  0.81013  0.87117  0.03464 11.00000  0.08912   3.45
O03E  3  1.22380  0.77727 -0.10704 11.00000  0.13728   3.45
C03F  1  0.89461  0.57959  0.52806 11.00000  0.11259   3.34
C03G  1  1.33601  0.67218 -0.21347 11.00000  0.12360   3.16
C03H  1  0.12691  0.98378  0.23255 11.00000  0.11095   3.07
HKLF 4
END
