TITL 17_a.res in P1
REM Old TITL 17 in P-1
REM SHELXT solution in P1: R1 0.568, Rweak 0.029, Alpha 0.000
REM <I/s>   0.000 for    0 systematic absences,  Orientation as input
REM Flack x = -1.079 ( 2.134 ) from    35 Parsons' quotients
REM Formula found by SHELXT:  C56 N12 O24 Cl3

CELL  0.71073   8.9100  14.5470  16.4000   90.000   90.000   76.695
ZERR   27.000   0.0018   0.0029   0.0033    0.030    0.030    0.030
LATT -1
SFAC C N O CL
UNIT 27 27 27 27
L.S. 10
BOND
LIST 6
FMAP 2
PLAN 20
CL01  4 -0.00279  0.54307  0.34845 11.00000  0.23847  14.17
CL02  4  0.08000  0.53912  0.31502 11.00000  0.23016  13.77
CL03  4  1.46613  0.05462  0.84604 11.00000  0.25583  13.10
C004  1  1.57703  0.05317  0.82250 11.00000  0.11189  10.90
C005  1 -0.10048  0.96305  0.07407 11.00000  0.11529  10.36
N006  2 -0.18702  0.89606  0.11826 11.00000  0.19281  10.07
O007  3  0.66552  0.76693  0.66513 11.00000  0.14109  10.03
O008  3  0.37557  0.58817  0.17189 11.00000  0.18122   9.66
O009  3  1.74608 -0.07753  0.65730 11.00000  0.18246   9.65
O00A  3  1.73485  0.01991  0.72047 11.00000  0.15653   9.46
O00B  3  0.08512  0.80659  0.43452 11.00000  0.18879   9.20
O00C  3 -0.41363  0.23169  0.24149 11.00000  0.14041   9.19
O00D  3 -0.08478  0.98654  0.02433 11.00000  0.13170   9.18
N00E  2 -0.11450  0.61673  0.34715 11.00000  0.25414   8.94
C00F  1  0.24634  0.43647  0.16124 11.00000  0.16322   8.28
O00G  3  1.58860  0.30972  0.93681 11.00000  0.15540   8.27
O00H  3 -0.31227  0.29108  0.11999 11.00000  0.11592   8.21
O00I  3  0.34111  0.38533  0.62427 11.00000  0.23191   8.15
O00J  3  0.79350  0.39525  0.85420 11.00000  0.24041   8.02
O00K  3  1.42614 -0.04707  0.98387 11.00000  0.26709   8.01
O00L  3  0.17424  1.26301  0.15765 11.00000  0.13577   7.95
N00M  2  0.00725  0.72489  0.44911 11.00000  0.13893   7.94
O00N  3  0.19042  0.61223  0.87624 11.00000  0.13731   7.94
O00O  3  0.05410  0.68856  0.37003 11.00000  0.12509   7.82
O00P  3  0.56733  0.69920  0.77599 11.00000  0.18935   7.76
C00Q  1  0.16299  1.00337  0.42406 11.00000  0.12497   7.75
O00R  3  0.45907  0.58676  0.82095 11.00000  0.14851   7.64
O00S  3  0.62928  0.50980  0.92183 11.00000  0.16562   7.55
N00T  2  1.79708  0.02071  0.65997 11.00000  0.20244   7.53
O00U  3  1.86603  0.09525  0.67123 11.00000  0.18573   7.52
N00V  2  0.32476  0.43668  0.47734 11.00000  0.18831   7.37
N00W  2 -0.18608  0.41881  0.34441 11.00000  0.14275   6.95
N00X  2  1.07476 -0.26301  0.74053 11.00000  0.14217   6.84
N00Y  2  0.31315  0.89192  0.36058 11.00000  0.15237   6.80
C00Z  1  0.53648  0.69493  0.73129 11.00000  0.16057   6.79
N010  2 -0.04252  0.51208  0.29007 11.00000  0.23686   6.76
C011  1 -0.46460  1.13225  0.46349 11.00000  0.17348   6.74
C012  1  0.36763  0.49239  0.53281 11.00000  0.10391   6.51
C013  1  1.43058  0.22606  0.97189 11.00000  0.08400   6.49
C014  1  0.36029  0.48025  0.66473 11.00000  0.22182   6.41
C015  1  0.46878  0.46254  0.53786 11.00000  0.11596   6.38
C016  1  1.38478  0.21667  1.03345 11.00000  0.18789   6.35
C017  1  1.31456 -0.09604  0.84313 11.00000  0.13675   6.30
C018  1  1.56771  0.17415  0.86732 11.00000  0.08646   6.22
C019  1  0.68193  0.44748  0.93865 11.00000  0.15055   6.09
C01A  1 -0.60922  0.66231  1.00881 11.00000  0.17116   5.98
O01B  3  1.12885  0.31477  0.89969 11.00000  0.15596   5.94
C01C  1 -0.05812  0.47054  0.48630 11.00000  0.16280   5.93
C01D  1  1.49246  0.24179  0.91718 11.00000  0.12196   5.88
C01E  1 -0.34997  0.24454  0.15659 11.00000  0.14866   5.82
C01F  1  0.05516  1.19458  0.26208 11.00000  0.11729   5.80
C01G  1  0.04563  0.62294  0.98788 11.00000  0.14633   5.76
O01H  3  0.30501  0.38715  0.11188 11.00000  0.23960   5.68
C01I  1 -0.30857  0.84171  0.38648 11.00000  0.21325   5.66
C01J  1  0.22957  0.51745  0.21162 11.00000  0.10002   5.66
C01K  1  0.44065  0.53552  0.65960 11.00000  0.12246   5.63
N01L  2  1.23491 -0.15636  0.76250 11.00000  0.14298   5.62
O01M  3  1.60649  0.01083  0.81048 11.00000  0.18640   5.60
C01N  1 -0.27188  0.33929  0.25251 11.00000  0.10379   5.58
C01O  1 -0.06389  1.04792  0.15774 11.00000  0.20160   5.54
C01P  1  1.46628 -0.00378  0.78764 11.00000  0.19575   5.46
C01Q  1 -0.04015  0.77517  0.45125 11.00000  0.19414   5.39
O01R  3 -0.31130  1.11525  0.36681 11.00000  0.18860   5.30
C01S  1 -0.04719  1.10231  0.33360 11.00000  0.10639   5.23
C01T  1  1.73209  0.13078  0.77338 11.00000  0.09863   5.05
C01U  1 -0.86603  1.18402  0.43954 11.00000  0.16192   4.89
C01V  1 -0.52335  1.16255  0.36316 11.00000  0.12643   4.85
C01W  1  0.60182  0.33434  0.44642 11.00000  0.10431   4.83
C01X  1 -0.29789  0.84760  0.45634 11.00000  0.11285   4.80
C01Y  1 -0.38514  0.80605  0.40666 11.00000  0.10438   4.74
C01Z  1 -0.12630  0.99914  0.15901 11.00000  0.18161   4.71
C020  1 -0.77303  1.11082  0.55640 11.00000  0.14243   4.69
O021  3  0.19883  0.93982  0.43903 11.00000  0.21908   4.68
C022  1  0.04001  1.10926  0.06942 11.00000  0.15189   4.64
C023  1  1.02493  0.37000  0.76928 11.00000  0.17143   4.60
C024  1  1.50698  0.24966  0.96385 11.00000  0.07896   4.58
C025  1  1.18539 -0.21376  0.62217 11.00000  0.09102   4.44
N026  2  0.09311  0.83039 -0.04861 11.00000  0.16000   4.41
C027  1  0.90802  0.38356  0.90591 11.00000  0.29272   4.34
C028  1 -0.03453  1.18707  0.13947 11.00000  0.22802   4.33
C029  1  1.84905  0.16720  0.51759 11.00000  0.17801   4.16
C02A  1 -0.17163  0.71645  0.51537 11.00000  0.15950   4.15
C02B  1 -0.72312  1.16904  0.51105 11.00000  0.16848   3.95
C02C  1 -0.07933  0.48302  0.62569 11.00000  0.20844   3.89
C02D  1  1.21167  0.33942  0.94384 11.00000  0.11335   3.86
C02E  1 -0.33348  0.67967  0.93672 11.00000  0.16119   3.81
C02F  1 -0.10534  0.58668  1.04861 11.00000  0.21538   3.61
C02G  1  0.23542  0.64758  0.26856 11.00000  0.15463   3.59
C02H  1  0.54399  0.54492  0.80428 11.00000  0.10686   3.59
C02I  1 -0.26761  0.61214  1.04727 11.00000  0.12686   3.56
C02J  1 -0.19194  0.66523  1.02223 11.00000  0.16129   3.55
N02K  2  0.01435  1.04683  0.30823 11.00000  0.16261   3.38
C02L  1  0.34184  0.53674  0.37123 11.00000  0.29333   3.22
C02M  1 -0.20729  0.91724 -0.02964 11.00000  0.14261   3.09
C02N  1 -0.36130  0.72830  1.00188 11.00000  0.21995   3.03
HKLF 4
END
