TITL 18_a.res in P1
REM Old TITL 18 in P-1
REM SHELXT solution in P1: R1 0.540, Rweak 0.027, Alpha 0.000
REM <I/s>   0.000 for    0 systematic absences,  Orientation as input
REM Flack x = -3.690 ( 1.477 ) from    37 Parsons' quotients
REM Formula found by SHELXT:  C33 N17 O34 Cl24

CELL  0.71073   8.9300  14.5540  16.4500   90.000   90.000   76.535
ZERR   28.000   0.0018   0.0029   0.0033    0.030    0.030    0.030
LATT -1
SFAC C N O CL
UNIT 28 28 28 28
L.S. 10
BOND
LIST 6
FMAP 2
PLAN 20
CL01  4  0.36011  1.10854  0.84700 11.00000  0.19411  17.64
CL02  4  0.22478  0.43251  0.55880 11.00000  0.20817  17.26
CL03  4  0.85788  0.60919  0.33979 11.00000  0.19353  16.90
CL04  4  0.31542  1.02465  0.82470 11.00000  0.22193  16.70
CL05  4 -0.27556  0.92632  1.05350 11.00000  0.22887  16.57
CL06  4  0.80562  0.53715  0.32343 11.00000  0.20219  16.48
CL07  4  0.51623  1.08778  0.73381 11.00000  0.25814  15.73
CL08  4  1.07802  0.29575  0.06907 11.00000  0.23960  14.93
CL09  4  0.32891  0.52771  0.52794 11.00000  0.27026  14.57
CL0A  4  1.03283  0.71130  0.78701 11.00000  0.25517  14.09
CL0B  4  0.92853  0.16337  0.06816 11.00000  0.19334  13.96
CL0C  4 -0.16383  1.01522  1.03990 11.00000  0.28973  13.95
CL0D  4  0.72380  0.15381  0.46174 11.00000  0.25154  13.94
CL0E  4  0.73760  0.39771  0.29137 11.00000  0.22143  13.83
CL0F  4  0.51865  0.22010  0.28461 11.00000  0.23990  13.77
CL0G  4  0.91835  0.65848  0.85400 11.00000  0.21260  13.66
CL0H  4  0.42727  0.66791  0.56989 11.00000  0.20847  13.27
CL0I  4  0.16657  0.37000  0.45466 11.00000  0.27101  13.20
CL0J  4  1.22167  0.65659  0.95726 11.00000  0.20555  12.96
CL0K  4  0.06259  0.78227  0.57985 11.00000  0.25320  12.76
N00L  2  0.40003  1.11486  0.80847 11.00000  0.15955  12.29
CL0M  4  0.23514  0.90622  0.79493 11.00000  0.19741  12.17
N00N  2  0.31210  0.38750  0.53053 11.00000  0.16508  12.17
N00O  2  0.12940  0.40405  0.53484 11.00000  0.18645  12.06
O00P  3  1.01626  0.58209  0.23933 11.00000  0.14275  11.96
O00Q  3  0.26813  0.41767  0.66222 11.00000  0.12554  11.84
CL0R  4  1.19870 -0.15097  0.39317 11.00000  0.28573  11.80
O00S  3 -0.30513  0.85616  0.97075 11.00000  0.15754  11.75
O00T  3  0.30944  0.95400  1.08181 11.00000  0.13670  11.60
O00U  3 -0.37504  0.64659  1.02008 11.00000  0.13263  11.59
CL0V  4  1.18508  0.45773  0.06209 11.00000  0.24359  11.27
O00W  3  0.58852  0.80431  0.57582 11.00000  0.15975  10.65
O00X  3  0.41185  0.14696  0.33719 11.00000  0.12561   9.98
CL0Y  4  0.80605  0.53620  0.86399 11.00000  0.24035   9.95
O00Z  3  1.03392  0.22755  0.20381 11.00000  0.09958   9.91
O010  3  0.69563  0.96307  0.56256 11.00000  0.12471   9.86
O011  3  0.52002  0.20358  0.44499 11.00000  0.16395   9.46
O012  3 -0.02677  1.01025  0.95566 11.00000  0.13303   9.46
O013  3  1.03225  0.71082  0.93473 11.00000  0.17483   9.40
O014  3 -0.22208  0.96807  0.89946 11.00000  0.12685   9.39
O015  3  0.21609  0.97492  0.67347 11.00000  0.12510   9.29
C016  1  0.95877  0.09319  0.34421 11.00000  0.07144   9.28
O017  3  0.69955  0.35106 -0.10027 11.00000  0.14725   9.22
C018  1  0.53944  0.78003  0.58183 11.00000  0.09065   9.20
O019  3  1.40641  0.74023  0.26181 11.00000  0.18613   9.10
O01A  3  0.11644  0.13506  0.52468 11.00000  0.13396   9.03
O01B  3  0.31182  0.03403  0.36759 11.00000  0.12294   8.92
N01C  2  0.63148  0.16503  0.30230 11.00000  0.12636   8.91
O01D  3  0.72593  0.47453  0.16500 11.00000  0.18607   8.65
O01E  3  0.52097  0.27441  0.07011 11.00000  0.13802   8.55
O01F  3  0.50409  0.50584  0.46491 11.00000  0.17644   8.42
N01G  2  0.19075  0.93507  1.17626 11.00000  0.18837   8.23
C01H  1  0.42641  0.15150  0.38401 11.00000  0.10510   8.20
O01I  3  0.58029  0.28255  0.32846 11.00000  0.30884   8.10
O01J  3  0.53191  0.72641  0.71074 11.00000  0.12151   7.99
O01K  3  0.28743  0.95321  1.01179 11.00000  0.15205   7.97
O01L  3  1.02481  0.23851  0.12633 11.00000  0.18354   7.92
O01M  3  0.89569  0.24182  0.76059 11.00000  0.18394   7.86
C01N  1  0.78888  1.03493  0.66401 11.00000  0.17558   7.83
O01O  3  0.60699  0.28761  0.09850 11.00000  0.16237   7.79
O01P  3  0.87252  0.14587  0.44284 11.00000  0.18422   7.53
O01Q  3  0.74026  0.63998  0.41856 11.00000  0.15224   7.50
O01R  3 -0.44501  0.61821  1.08087 11.00000  0.36150   7.39
N01S  2 -0.22318  1.04898  1.12276 11.00000  0.30696   7.33
N01T  2  0.35975  0.96050  0.93760 11.00000  0.22929   7.21
N01U  2 -0.22087  0.92481  1.16259 11.00000  0.13195   7.12
N01V  2  0.57049  1.04981  1.20809 11.00000  0.15803   7.08
N01W  2  0.14082  1.04036  0.98567 11.00000  0.11047   6.96
N01X  2  1.24988  0.56468  0.13585 11.00000  0.20436   6.94
N01Y  2  0.73485  0.45311  0.53436 11.00000  0.08261   6.89
C01Z  1  0.42633  0.27864  0.46373 11.00000  0.13369   6.86
N020  2  0.38623  0.88907  0.62334 11.00000  0.20463   6.80
N021  2 -0.37187  0.78650  1.07370 11.00000  0.15908   6.71
N022  2  0.29578  0.22537  0.53954 11.00000  0.17544   6.68
N023  2  1.44501  0.59867  0.83216 11.00000  0.12583   6.60
C024  1  1.38247  0.65569  0.94048 11.00000  0.11647   6.44
N025  2  0.91585 -0.08460  0.32036 11.00000  0.15753   6.33
C026  1  0.28586  0.46685  0.39829 11.00000  0.09066   6.01
O027  3  0.95075  0.08530  0.30585 11.00000  0.24940   5.90
C028  1  0.73788  0.22834  0.19515 11.00000  0.15936   5.88
C029  1  0.26583  0.71453  0.69679 11.00000  0.18500   5.68
C02A  1  0.11364  0.28590  0.57686 11.00000  0.07931   5.50
C02B  1  0.24249  1.15097  0.91409 11.00000  0.13371   5.48
C02C  1  0.57169  0.37337 -0.01818 11.00000  0.13161   5.44
C02D  1  1.19780  0.53716  0.20024 11.00000  0.11580   5.40
C02E  1  0.40059  0.40308 -0.17376 11.00000  0.13375   5.37
O02F  3  0.80528  1.09774  0.62330 11.00000  0.25187   5.27
C02G  1  0.73176  0.44998  0.45525 11.00000  0.12416   5.10
C02H  1  0.44268  1.01984  0.75894 11.00000  0.15894   5.05
C02I  1  0.58919  1.15054  0.62408 11.00000  0.19134   4.81
C02J  1  0.58612  0.34509 -0.09813 11.00000  0.12990   4.79
O02K  3  0.97749  0.44578  0.71382 11.00000  0.24877   4.45
C02L  1 -0.21408  0.72022  1.04151 11.00000  0.13411   4.45
C02M  1  0.92423  0.32891  0.13793 11.00000  0.11956   4.42
C02N  1  0.80189  0.78872  0.69971 11.00000  0.23554   4.34
C02O  1  0.68641  0.39681  0.70473 11.00000  0.10352   4.24
C02P  1  0.87049  1.05121  0.76430 11.00000  0.11513   4.23
C02Q  1  1.02619  0.54179  0.67495 11.00000  0.15608   4.22
C02R  1  0.59565  0.54654  0.50062 11.00000  0.16711   4.21
C02S  1  0.56880  0.23779 -0.20809 11.00000  0.18924   4.10
C02T  1  0.59267  0.35380  0.18341 11.00000  0.16078   3.88
C02U  1  0.86177  0.41077  0.12860 11.00000  0.08759   3.79
O02V  3  1.37102  0.56080  0.27936 11.00000  0.22396   3.77
C02W  1  1.40876  0.55846  0.23627 11.00000  0.22842   3.37
C02X  1  0.67787  0.72141  0.59816 11.00000  0.27834   3.37
C02Y  1  0.83919  0.40670  0.62899 11.00000  0.09375   3.24
C02Z  1  0.44422  0.94816  1.19909 11.00000  0.12578   3.16
C030  1  1.03659  0.55755  0.72340 11.00000  0.18646   3.09
HKLF 4
END
