TITL 19_a.res in P1
REM Old TITL 19 in P-1
REM SHELXT solution in P1: R1 0.462, Rweak 0.111, Alpha 0.000
REM <I/s>   0.000 for    0 systematic absences,  Orientation as input
REM Flack x = -2.827 ( 9.990 ) from    70 Parsons' quotients
REM Formula found by SHELXT:  C59 N13 O12

CELL  0.71073   8.8200  14.8001  16.4500   90.000   90.000   81.286
ZERR   28.000   0.0018   0.0030   0.0033    0.030    0.030    0.030
LATT -1
SFAC C N O CL
UNIT 28 28 28 28
L.S. 10
BOND
LIST 6
FMAP 2
PLAN 20
C001  1 -0.19246  0.32546  0.39156 11.00000  0.20215  10.72
C002  1  1.31717  0.83273  0.89853 11.00000  0.15961   9.12
O003  3  0.31813  0.26791  0.37998 11.00000  0.18954   8.08
O004  3  1.30150  0.74211  0.89487 11.00000  0.21754   7.87
N005  2  0.51641  0.38601  0.75706 11.00000  0.13682   7.85
C006  1  0.21943  0.11942  0.35608 11.00000  0.18783   7.12
C007  1  0.77374  0.62289  0.90701 11.00000  0.12989   7.11
N008  2 -0.17205  0.20941  0.26148 11.00000  0.18929   7.02
C009  1  0.80448  0.70470  0.86492 11.00000  0.11554   6.95
N00A  2  0.77221  0.48724  0.63593 11.00000  0.13285   6.89
N00B  2 -0.06232  0.31786 -0.01009 11.00000  0.20100   6.86
O00C  3  1.37700  0.83107  0.95793 11.00000  0.22711   6.84
O00D  3  0.81954  0.78041  0.89005 11.00000  0.15517   6.62
C00E  1  0.54984  0.43741  0.69102 11.00000  0.12144   6.61
N00F  2 -0.25657  0.26430  0.34027 11.00000  0.22828   6.57
N00G  2  1.42871  0.83318  0.50134 11.00000  0.24558   6.56
N00H  2  0.28170  0.21129  0.48157 11.00000  0.21114   6.55
C00I  1 -0.20432  0.09181  0.15109 11.00000  0.20455   6.39
C00J  1 -0.26796  0.13783  0.28394 11.00000  0.16442   6.38
C00K  1  0.29259  0.10899  0.44798 11.00000  0.19528   6.37
C00L  1  0.79620  0.70454  0.94597 11.00000  0.09099   6.36
C00M  1  0.02780 -0.11294  0.27047 11.00000  0.07150   6.35
C00N  1  0.21853  0.10151  0.22660 11.00000  0.13110   6.29
C00O  1  0.30340  0.19224  0.38834 11.00000  0.21669   6.21
C00P  1  0.29487 -0.04082  0.13099 11.00000  0.14175   6.20
C00Q  1 -0.19696  0.23461  0.40102 11.00000  0.17986   6.13
C00R  1  0.33701  0.66898  0.16550 11.00000  0.14486   6.09
C00S  1  0.77987  0.60889  0.66771 11.00000  0.16644   5.94
O00T  3 -0.11816 -0.20805  0.15693 11.00000  0.22638   5.93
C00U  1  0.73745  0.74579  1.02342 11.00000  0.16937   5.92
O00V  3  1.29194  0.58517  0.65792 11.00000  0.27253   5.87
N00W  2 -0.14701  0.33443  0.44666 11.00000  0.18118   5.84
C00X  1  1.32954  0.71382  0.74747 11.00000  0.15493   5.83
C00Y  1  1.26099  0.63406  0.78625 11.00000  0.18145   5.75
N00Z  2  0.70660  0.60201  0.72999 11.00000  0.22322   5.69
C010  1  0.27961  0.21522  0.54904 11.00000  0.16393   5.64
C011  1  0.33739  0.37187  0.37025 11.00000  0.21954   5.61
O012  3  0.45274  0.44232  0.80899 11.00000  0.24906   5.50
N013  2  0.19814  0.09940  0.29680 11.00000  0.22708   5.50
N014  2  0.92227  0.79401  0.52725 11.00000  0.24236   5.48
C015  1  0.88598  1.21059  0.77519 11.00000  0.18450   5.48
C016  1  0.73760  0.65242  0.98483 11.00000  0.13352   5.42
C017  1 -0.23110  0.13454  0.37231 11.00000  0.15392   5.38
C018  1 -0.02047 -0.08624  0.19306 11.00000  0.28638   5.29
C019  1  0.45550  0.29057  0.72880 11.00000  0.09585   5.13
C01A  1  0.86254  1.16241  0.66540 11.00000  0.14942   5.05
C01B  1 -0.03272 -0.21059  0.22368 11.00000  0.11302   5.04
C01C  1  0.70829  0.60403  0.82512 11.00000  0.12873   4.96
C01D  1  0.32976  0.72779  0.28973 11.00000  0.16074   4.95
C01E  1  1.23661  0.76854  0.81293 11.00000  0.24965   4.86
C01F  1  0.40843  0.29562  0.65512 11.00000  0.13206   4.68
C01G  1 -0.08430  0.37976  0.03184 11.00000  0.16911   4.63
C01H  1  1.58741  0.94194  0.47554 11.00000  0.22967   4.52
C01I  1  0.64495  0.52895  0.78085 11.00000  0.13874   4.49
C01J  1 -0.58741  0.29674  0.02227 11.00000  0.14480   4.49
C01K  1  0.13423  0.02253  0.26684 11.00000  0.16126   4.46
C01L  1  1.15719  0.57171  0.77805 11.00000  0.19013   4.39
C01M  1 -0.11314  0.30859  0.15654 11.00000  0.10482   4.36
C01N  1  0.06350  0.46341 -0.02342 11.00000  0.17180   4.26
C01O  1  1.38431  0.81387  0.65389 11.00000  0.13417   4.13
C01P  1 -0.33023  0.08241  0.28448 11.00000  0.12203   4.13
O01Q  3  1.50016  0.95774  0.57446 11.00000  0.20368   4.05
C01R  1  0.70486  1.10050  0.84528 11.00000  0.31539   4.02
C01S  1  0.76451  1.19268  0.75005 11.00000  0.23708   3.98
C01T  1  1.28424  0.71587  0.54947 11.00000  0.22223   3.93
O01U  3  0.19947  0.60096  0.29811 11.00000  0.32278   3.88
C01V  1  1.02956  0.89095  0.73327 11.00000  0.17349   3.76
C01W  1  0.01065  0.45013  0.07199 11.00000  0.13605   3.65
O01X  3  0.25432  0.35226  0.68229 11.00000  0.62384   3.63
N01Y  2  0.27880  0.11990  0.16604 11.00000  0.21827   3.55
C01Z  1  0.03028  0.36010  0.02484 11.00000  0.19700   3.50
C020  1  1.50006  0.85332  0.53485 11.00000  0.15094   3.40
C021  1 -0.23293  0.22914  0.04974 11.00000  0.17277   3.35
C022  1  0.28706  0.01164  0.16061 11.00000  0.14529   3.34
C023  1  0.70848  1.09220  0.77329 11.00000  0.25628   3.33
N024  2  0.84300  0.85928  0.86867 11.00000  0.26648   3.29
O025  3 -0.07348 -0.06053  0.30698 11.00000  0.21236   3.29
C026  1  0.50091  0.39799  0.22965 11.00000  0.17833   3.28
O027  3  1.25074  0.62672  0.87386 11.00000  0.21482   3.27
C028  1  0.81714  1.05846  0.72943 11.00000  0.33251   3.16
C029  1  0.82203  0.95469  0.66553 11.00000  0.20564   3.15
C02A  1  0.29615  0.46273  0.16348 11.00000  0.16522   3.06
C02B  1  0.31874  0.63369  0.25340 11.00000  0.28461   3.04
C02C  1  0.07261 -0.05158  0.19050 11.00000  0.24212   3.03
HKLF 4
END
