TITL 1_a.res in P-1
REM Old TITL 1 in P1
REM SHELXT solution in P-1: R1 0.076, Rweak 0.003, Alpha 0.014
REM <I/s>   0.000 for    0 systematic absences,  Orientation as input
REM Formula found by SHELXT:  C28 N8 Cl8 I

CELL  0.71073   7.2819   9.0100   9.0812   60.259   83.343   76.485
ZERR    6.000   0.0015   0.0018   0.0018    0.030    0.030    0.030
LATT  1
SFAC C N O CL I
UNIT 6 6 6 6 0
L.S. 10
BOND
LIST 6
FMAP 2
PLAN 20
I001  5  1.00000  0.50000  1.00000 10.50000  0.10378  73.73
CL02  4  0.02829  0.37557  0.25811 11.00000  0.09435  20.46
CL03  4 -0.10203  0.30395  0.24845 11.00000  0.03518  19.08
CL04  4 -0.21044  0.37548  0.19957 11.00000  0.04473  17.91
CL05  4  0.10670  0.08528  0.91474 11.00000  0.05483  17.06
C006  1 -0.17554  0.20383  0.44130 11.00000  0.03565  10.49
N007  2 -0.00328 -0.00931  0.90184 11.00000  0.00010   9.15
C008  1 -0.08674  0.09442  0.74552 11.00000  0.01438   5.68
C009  1  0.28280  0.24391  0.83963 11.00000  0.04513   5.58
C00A  1  0.82259  0.48953  0.89936 11.00000  0.00830   5.27
N00B  2  0.40014  0.24885  0.90387 11.00000  0.00667   5.24
C00C  1 -0.00592  0.25750  0.49923 11.00000  0.11776   5.20
C00D  1  0.28097  0.30369  0.54699 11.00000  0.00010   5.19
C00E  1 -0.15229  0.14702  0.57362 11.00000  0.03536   5.11
N00F  2  0.55947  0.39588  0.83117 11.00000  0.02597   5.08
N00G  2 -0.18630  0.09604  0.68164 11.00000  0.00010   5.04
C00H  1  0.24579  0.07777  0.99183 11.00000  0.00145   5.03
C00I  1 -0.33020  0.00087  0.64279 11.00000  0.04332   4.99
C00J  1  0.10690  0.20231  0.70919 11.00000  0.08854   4.98
C00K  1  0.63090  0.36027  0.92888 11.00000  0.03778   4.95
C00L  1  0.77267  0.51097  0.77661 11.00000  0.00827   4.78
C00M  1  0.41306  0.17223  1.05278 11.00000  0.00010   4.75
C00N  1  0.78940  0.35355  1.01314 11.00000  0.02169   4.49
HKLF 4
END
