TITL 21_a.res in P1
REM Old TITL 21 in P-1
REM SHELXT solution in P1: R1 0.585, Rweak 0.004, Alpha 0.000
REM <I/s>   0.000 for    0 systematic absences,  Orientation as input
REM Flack x = -3.498 ( 2.407 ) from    12 Parsons' quotients
REM Formula found by SHELXT:  C60 N37 O43 Cl10

CELL  0.71073   8.8800  14.6551  16.4500   90.000   90.000   77.679
ZERR   28.000   0.0018   0.0029   0.0033    0.030    0.030    0.030
LATT -1
SFAC C N O CL
UNIT 28 28 28 28
L.S. 10
BOND
LIST 6
FMAP 2
PLAN 20
CL01  4  0.63313  0.20262  0.39066 11.00000  0.21872  16.33
CL02  4  0.45684  0.31279  0.79655 11.00000  0.17390  14.89
CL03  4  1.14225  0.04898  0.17245 11.00000  0.15389  14.37
CL04  4  0.62672  0.42712  0.25603 11.00000  0.21106  13.76
O005  3  1.07700  0.52021  0.74473 11.00000  0.12963  13.33
CL06  4  0.31218  1.15652  0.78274 11.00000  0.20551  13.27
CL07  4  0.80732  0.65847  0.28129 11.00000  0.16608  13.05
CL08  4  0.13137  0.70261  0.89767 11.00000  0.19175  13.05
CL09  4  0.65264  0.53365  0.66164 11.00000  0.17267  13.01
CL0A  4  0.11110  0.67628  0.99150 11.00000  0.16674  12.84
CL0B  4  0.14582  0.92763  0.75751 11.00000  0.21818  12.72
O00C  3  0.95233 -0.17859  0.29032 11.00000  0.09008  12.35
O00D  3  0.13709  0.56116  0.40555 11.00000  0.06258  11.96
O00E  3  1.57888  0.01071  0.25107 11.00000  0.11642  11.90
N00F  2  0.82123  0.65300  0.22633 11.00000  0.05816  11.75
O00G  3  1.08648 -0.09217  0.16026 11.00000  0.09019  11.72
O00H  3  0.51500  0.19790  0.49580 11.00000  0.11018  11.70
O00I  3 -0.33585  1.05708  0.89857 11.00000  0.05478  11.48
O00J  3  0.23346  0.47972  0.21371 11.00000  0.13186  11.45
O00K  3  1.15505 -0.01756  0.03948 11.00000  0.08132  11.31
O00L  3  0.04905  0.39575  0.57986 11.00000  0.13779  11.26
N00M  2 -0.37175  1.00478  0.74883 11.00000  0.08277  11.22
C00N  1  1.54486 -0.06916  0.23655 11.00000  0.10085  11.18
N00O  2  0.70082  0.56670  0.66011 11.00000  0.11445  10.89
O00P  3  0.39819  0.79963  0.68233 11.00000  0.09708  10.84
O00Q  3 -0.26467  0.97994  0.71567 11.00000  0.16315  10.73
N00R  2  1.17101  0.00323  0.11787 11.00000  0.02762  10.43
C00S  1  1.06224  0.44128  0.74523 11.00000  0.04302  10.42
N00T  2  0.64486  0.48139  0.53995 11.00000  0.05524  10.39
N00U  2  0.14212  0.49918  0.26289 11.00000  0.12212  10.31
O00V  3 -0.22039  1.11225  0.82555 11.00000  0.11286  10.27
N00W  2  0.72909  0.52547  0.62924 11.00000  0.06984  10.20
N00X  2  0.63317  0.06299  0.42099 11.00000  0.05316   9.98
N00Y  2  0.67064  0.09504  0.37521 11.00000  0.11499   9.97
N00Z  2  0.64235  0.17113  0.48778 11.00000  0.06817   9.87
N010  2  0.57666  0.21548  0.45890 11.00000  0.12218   9.86
N011  2  0.16686  1.18736  0.73715 11.00000  0.08089   9.77
N012  2  0.81612  0.17386  0.06335 11.00000  0.05887   9.74
O013  3  0.68838  0.02991  0.06763 11.00000  0.09937   9.59
O014  3  0.55368  0.40901  0.65733 11.00000  0.12884   9.52
N015  2  0.28950  0.72476  0.53580 11.00000  0.10698   9.52
O016  3  0.29620  0.62151  0.32179 11.00000  0.09227   9.50
O017  3  0.13536  0.55625  0.91323 11.00000  0.08689   9.34
N018  2  1.30926  0.02205  0.14763 11.00000  0.13266   9.27
O019  3 -0.29536  1.04183  0.72224 11.00000  0.12234   9.26
O01A  3 -0.39871  0.86125  1.07227 11.00000  0.08583   9.20
N01B  2  1.29309  0.11814  0.06984 11.00000  0.10011   9.15
O01C  3  0.88127  0.30684  0.18516 11.00000  0.14133   9.11
O01D  3  1.00498  0.13680  0.14554 11.00000  0.14912   8.98
O01E  3  1.02884 -0.02567  0.29498 11.00000  0.06992   8.88
N01F  2  0.13445  0.50591  0.35198 11.00000  0.17617   8.87
O01G  3  0.68879  0.54543  0.25526 11.00000  0.12165   8.83
N01H  2  0.16271  0.87318  0.71222 11.00000  0.13336   8.81
O01I  3 -0.35915  0.93684  0.97622 11.00000  0.15539   8.75
O01J  3  0.20298  0.51341  0.58178 11.00000  0.06812   8.62
O01K  3  0.79701  0.59796  0.57588 11.00000  0.14296   8.60
N01L  2  0.19339  0.59885  0.87915 11.00000  0.10174   8.49
O01M  3  1.32665 -0.03391  0.17236 11.00000  0.07452   8.30
N01N  2  0.31991  1.13799  0.72906 11.00000  0.08033   8.27
N01O  2  0.17686  0.99383  0.60691 11.00000  0.07504   8.23
O01P  3  0.12221  0.05608  0.43642 11.00000  0.09813   8.20
O01Q  3 -0.36803  0.55553  0.94010 11.00000  0.12302   8.12
N01R  2  0.14095  0.43912  0.47627 11.00000  0.06862   8.03
N01S  2  0.88310  0.48952  0.67351 11.00000  0.04601   7.99
N01T  2  0.16220  1.02902  0.75696 11.00000  0.08441   7.98
N01U  2  0.13824  0.33968  0.57549 11.00000  0.08679   7.89
O01V  3 -0.34905  0.98592  0.84413 11.00000  0.09243   7.89
O01W  3 -0.15741  1.14676  0.83380 11.00000  0.15024   7.86
N01X  2  0.23891  0.63381  1.02490 11.00000  0.14402   7.81
O01Y  3  0.41758  0.53884  0.53497 11.00000  0.06454   7.80
O01Z  3  0.91193  0.88064  0.45274 11.00000  0.12400   7.77
N020  2  0.72969  0.59686  0.25855 11.00000  0.15732   7.77
O021  3  0.20576  0.55300  0.23226 11.00000  0.17463   7.73
O022  3  0.53788  0.62032  0.65236 11.00000  0.10691   7.73
O023  3  1.37262  0.20753  0.17979 11.00000  0.09906   7.70
C024  1 -0.46714  0.79505  0.94030 11.00000  0.09137   7.69
O025  3  0.40948  0.67836  0.33805 11.00000  0.13800   7.65
O026  3  0.65754  0.48218  0.12782 11.00000  0.12885   7.60
O027  3  0.55839  0.46343  0.79247 11.00000  0.07946   7.54
O028  3  0.95442 -0.21944  0.17408 11.00000  0.21233   7.51
N029  2  1.41510  0.40498 -0.03233 11.00000  0.06361   7.31
O02A  3  0.61951  0.91808  0.59968 11.00000  0.11100   7.26
N02B  2  0.15271  1.00792  0.64558 11.00000  0.08808   7.18
C02C  1  0.63363  0.46854  0.60361 11.00000  0.08207   7.15
N02D  2  0.31352  0.65366  0.56046 11.00000  0.06340   7.00
N02E  2  0.69281  0.15288  0.54900 11.00000  0.09732   6.84
N02F  2  0.63927  0.68775  0.23344 11.00000  0.09585   6.80
N02G  2 -0.00779  0.75082  0.97713 11.00000  0.22706   6.74
N02H  2  0.81384  0.21542  0.12811 11.00000  0.06888   6.64
N02I  2  0.44792  0.72565  0.22263 11.00000  0.07640   6.55
C02J  1  0.31678  0.89825  0.75360 11.00000  0.15784   6.51
C02K  1  1.14885  0.18190  0.11975 11.00000  0.09737   6.34
C02L  1  0.76854  0.14378 -0.02190 11.00000  0.11130   6.33
C02M  1 -0.40318  0.87637  0.99823 11.00000  0.10934   6.28
C02N  1  1.05322 -0.04464  0.23087 11.00000  0.05579   6.27
C02O  1  0.88021  0.81018  0.64142 11.00000  0.07137   6.21
C02P  1  0.87471  0.69299  0.68681 11.00000  0.05786   6.13
C02Q  1  0.61869  0.37978  0.09982 11.00000  0.06075   6.11
C02R  1  0.67859  0.35977  0.19760 11.00000  0.03994   6.08
C02S  1  0.81253  0.93259  0.53558 11.00000  0.08039   6.00
C02T  1  1.11293  0.41049  0.09673 11.00000  0.12028   5.95
O02U  3  0.65088  0.69897  0.59397 11.00000  0.07949   5.92
C02V  1  1.17109  0.06312  0.14278 11.00000  0.02868   5.91
C02W  1  1.05991  0.46478  0.06077 11.00000  0.07692   5.89
C02X  1  1.29538  0.45550  0.02869 11.00000  0.14074   5.86
C02Y  1  0.39872  0.70493  0.64635 11.00000  0.09838   5.80
C02Z  1  0.57697  0.98852  0.56757 11.00000  0.07736   5.77
C030  1  0.03798  0.90377  0.73898 11.00000  0.12334   5.76
C031  1 -0.35180  0.70178  0.88334 11.00000  0.11449   5.65
C032  1  0.03594  0.27753  0.46838 11.00000  0.09633   5.65
C033  1  0.09291  0.37139  0.50982 11.00000  0.07741   5.46
C034  1  0.16031  0.19086  0.37861 11.00000  0.08953   5.40
C035  1  1.41227  0.29241  0.14451 11.00000  0.04570   5.33
C036  1  0.92916  0.02376  0.02916 11.00000  0.03941   5.31
C037  1  0.14909  0.84039  0.62245 11.00000  0.11094   5.29
C038  1  0.95427  0.31461  0.04789 11.00000  0.16707   5.28
C039  1  0.81993  0.45425  0.67150 11.00000  0.04780   5.25
O03A  3 -0.57888  0.80675  0.97045 11.00000  0.19912   5.21
C03B  1  0.30996  0.70716  0.46896 11.00000  0.14371   4.86
C03C  1  0.08688  0.93217  0.60123 11.00000  0.07283   4.85
C03D  1  0.82453  0.21372  0.01990 11.00000  0.08819   4.82
C03E  1 -0.39370  1.05059  0.92640 11.00000  0.09714   4.81
C03F  1 -0.09311  0.31416  0.45651 11.00000  0.10427   4.78
C03G  1  0.55291  0.67384  0.12212 11.00000  0.08525   4.78
C03H  1  0.25564  1.08806  0.76185 11.00000  0.09798   4.71
C03I  1  0.91060  0.54836  0.60159 11.00000  0.11595   4.63
C03J  1  1.40169  0.05504  0.10500 11.00000  0.07777   4.58
C03K  1  0.67000  0.55240  0.14082 11.00000  0.10609   4.58
C03L  1  0.42530  0.28750  0.66510 11.00000  0.12311   4.53
C03M  1  0.41768  0.27330  0.36216 11.00000  0.21648   4.43
C03N  1  0.26740  0.71541  0.60403 11.00000  0.14171   4.41
C03O  1  0.07964  0.80354  0.79667 11.00000  0.09717   4.40
C03P  1  0.90426  0.07355  0.04070 11.00000  0.03033   4.39
C03Q  1  1.08811  0.29977  0.00701 11.00000  0.12969   4.31
C03R  1  1.44257  0.34998 -0.06392 11.00000  0.03384   4.29
C03S  1 -0.01670  1.21944  0.72507 11.00000  0.05363   4.28
C03T  1  0.87634  0.38641  0.25140 11.00000  0.09812   4.23
C03U  1  0.57042  0.48933  0.71320 11.00000  0.13359   4.17
C03V  1 -0.08567  1.20341  0.83834 11.00000  0.11042   4.01
N03W  2  0.08872  0.86549  0.87539 11.00000  0.20593   3.75
N03X  2  1.15268  0.20800  0.08534 11.00000  0.08414   3.70
C03Y  1  0.74848  0.39808  0.26685 11.00000  0.21377   3.67
C03Z  1 -0.13551  0.92676  0.93222 11.00000  0.09282   3.60
C040  1  0.43901  0.36843  0.41717 11.00000  0.22029   3.48
C041  1  0.05330  0.87393  0.96296 11.00000  0.11690   3.38
C042  1 -0.00487  0.82031  0.88998 11.00000  0.14551   3.23
C043  1  0.53501  0.80926  0.52830 11.00000  0.12811   3.23
C044  1  1.23195  0.36447 -0.07227 11.00000  0.09289   3.22
C045  1  0.85398 -0.03742  0.10926 11.00000  0.10342   3.11
C046  1  0.35000  0.49451  0.42635 11.00000  0.11881   3.08
HKLF 4
END
