TITL 23_a.res in P1
REM Old TITL 23 in P-1
REM SHELXT solution in P1: R1 0.574, Rweak 0.125, Alpha 0.000
REM <I/s>   0.000 for    0 systematic absences,  Orientation as input
REM Flack x =  0.099 ( 1.289 ) from     9 Parsons' quotients
REM Formula found by SHELXT:  C91 N39 O27 Cl19

CELL  0.71073   8.9400  14.6390  16.3700   90.000   90.000   77.270
ZERR   28.000   0.0018   0.0029   0.0033    0.030    0.030    0.030
LATT -1
SFAC C N O CL
UNIT 28 28 28 28
L.S. 10
BOND
LIST 6
FMAP 2
PLAN 20
CL01  4 -0.19464  0.67685  0.48034 11.00000  0.12722  14.64
CL02  4  1.31093  0.17282  0.98302 11.00000  0.12399  14.46
CL03  4  0.77495  0.60514  0.85042 11.00000  0.15178  14.36
CL04  4  0.31425  0.69637  0.48133 11.00000  0.12228  14.34
CL05  4  0.37876  0.06703  0.32705 11.00000  0.12720  14.25
CL06  4  0.28553  0.10623  0.35678 11.00000  0.15438  14.06
CL07  4  0.87902  0.56851  0.82802 11.00000  0.13726  13.66
CL08  4  0.37010  0.17891  0.48401 11.00000  0.16778  13.36
CL09  4  0.80631  0.20440 -0.02367 11.00000  0.14898  13.14
CL0A  4 -0.25495  0.62741  0.49219 11.00000  0.13559  13.02
CL0B  4 -0.30591  0.47794  0.41472 11.00000  0.14227  12.96
CL0C  4  0.36365  0.69503  0.61268 11.00000  0.30232  12.96
CL0D  4  0.89336  0.18133  0.11909 11.00000  0.21096  12.71
CL0E  4  0.20512  0.97511  0.91314 11.00000  0.17253  12.64
CL0F  4  1.24870  0.12674  0.97972 11.00000  0.21316  12.59
CL0G  4  0.50980  0.44255  0.76354 11.00000  0.14970  12.58
CL0H  4 -0.05850  0.83369  0.69510 11.00000  0.19169  12.55
CL0I  4  0.87843  0.67775  0.98240 11.00000  0.17395  12.55
O00J  3  0.40608  0.28061  0.10196 11.00000  0.06811  12.45
C00K  1  1.07732  0.34499  0.76226 11.00000  0.04063  12.43
N00L  2  0.33250  0.66976  0.53443 11.00000  0.06804  11.57
N00M  2  0.35294  0.34993  0.17337 11.00000  0.07112  11.37
N00N  2 -0.01987  0.30651  0.43171 11.00000  0.04683  11.34
N00O  2 -0.08078  0.79299  0.61235 11.00000  0.09500  11.22
N00P  2  1.04572 -0.07158  0.26940 11.00000  0.13147  11.05
C00Q  1  0.46901  0.82087  0.93793 11.00000  0.06025  10.87
N00R  2  0.84502  0.17148  0.03144 11.00000  0.07108  10.87
N00S  2  0.57149  0.91420  0.96580 11.00000  0.05255  10.80
O00T  3 -0.19451  0.87033  0.67335 11.00000  0.12962  10.73
O00U  3 -0.02103  0.27851 -0.11603 11.00000  0.08529  10.56
O00V  3  0.48612  0.77539  0.37249 11.00000  0.06979  10.30
C00W  1 -0.14695  0.75045  0.47069 11.00000  0.08643  10.24
O00X  3 -0.11791  0.73285  0.60010 11.00000  0.04605  10.18
O00Y  3 -0.19349  0.60456  0.43542 11.00000  0.09596  10.17
N00Z  2  0.59901  0.81698  0.27262 11.00000  0.10670  10.10
CL10  4  0.56055  0.93583  0.36908 11.00000  0.21021  10.09
O011  3  0.35510  0.39903  0.85215 11.00000  0.13554  10.08
O012  3  1.05145  0.45010  0.84954 11.00000  0.09677  10.08
C013  1 -0.31181  0.48254  0.50398 11.00000  0.07313  10.00
N014  2  0.45662  0.35755  0.18552 11.00000  0.17174   9.87
O015  3  0.43771  0.45778  0.82066 11.00000  0.15459   9.49
O016  3  0.31672  0.71449  0.95275 11.00000  0.12581   9.47
N017  2  0.86633  0.13060  0.12103 11.00000  0.08841   9.43
O018  3 -0.17966  0.20327  0.45237 11.00000  0.10694   9.38
O019  3  0.82917  0.69076  0.74971 11.00000  0.08433   9.23
N01A  2  0.06011  0.38475  0.50334 11.00000  0.04968   9.16
O01B  3  0.04018  0.45114  0.03765 11.00000  0.16303   9.08
C01C  1  0.55991  0.90219  0.55593 11.00000  0.07060   8.84
O01D  3  0.41312  0.49416  0.78862 11.00000  0.07824   8.77
N01E  2  0.40512  0.97300  0.94318 11.00000  0.08912   8.76
N01F  2  0.41051  0.93219  0.88394 11.00000  0.07129   8.67
O01G  3  0.99717 -0.03441  0.28633 11.00000  0.13048   8.55
O01H  3  0.41479  0.65133  0.63321 11.00000  0.09164   8.55
O01I  3  0.12131  0.91928  1.01737 11.00000  0.18006   8.46
C01J  1  0.45556  0.25591  0.33386 11.00000  0.18082   8.45
O01K  3  0.78661  1.08355  0.59536 11.00000  0.09099   8.37
N01L  2  0.47054  0.11688  0.31971 11.00000  0.11829   8.30
N01M  2 -0.13903  0.43316  0.46298 11.00000  0.03506   8.24
O01N  3  0.31939  0.18679  0.25947 11.00000  0.05798   8.13
N01O  2 -0.43082  0.29172  0.53485 11.00000  0.09029   8.06
O01P  3  0.22342  0.31196  0.58546 11.00000  0.14842   8.04
O01Q  3  0.21050  0.54406  0.47216 11.00000  0.14904   7.94
C01R  1  0.65237  0.76211  0.25683 11.00000  0.06665   7.88
N01S  2  0.29970  0.73471  0.66549 11.00000  0.14276   7.86
O01T  3  0.01159  0.81524  1.05644 11.00000  0.13616   7.78
N01U  2  0.48978  0.88604  0.26063 11.00000  0.11349   7.72
N01V  2  0.02119  0.61080  0.13195 11.00000  0.04611   7.71
O01W  3  0.94538  0.74667  0.85192 11.00000  0.09005   7.63
N01X  2  0.31177  0.59945  0.07856 11.00000  0.07547   7.63
N01Y  2 -0.10400  0.41000  0.40805 11.00000  0.01707   7.60
N01Z  2  0.09997  0.41570  0.43404 11.00000  0.09992   7.50
N020  2  0.44509  0.29412 -0.02420 11.00000  0.08602   7.49
N021  2 -0.14671  0.36380  0.09690 11.00000  0.09869   7.48
N022  2  0.87359  0.00010  0.30486 11.00000  0.08719   7.46
C023  1 -0.11200  0.47512  0.43914 11.00000  0.01357   7.39
O024  3 -0.04813  0.79457  0.47551 11.00000  0.10906   7.29
N025  2  0.68505  0.98645  0.65335 11.00000  0.04301   7.18
O026  3  1.15348  0.27563  0.76945 11.00000  0.07676   7.16
C027  1  1.05451  0.42500  0.88633 11.00000  0.05908   7.13
N028  2 -0.07941  0.33797 -0.02290 11.00000  0.14375   7.09
N029  2  0.40445  0.64224  0.25240 11.00000  0.16522   7.08
N02A  2  0.72494  1.08387  0.91676 11.00000  0.12282   6.98
N02B  2  0.47599  0.35665  0.83362 11.00000  0.12954   6.98
N02C  2 -0.11252  0.46085  0.36793 11.00000  0.05198   6.97
N02D  2  0.84856 -0.08001  0.34671 11.00000  0.13465   6.84
N02E  2  0.65733  0.27565  0.20369 11.00000  0.09555   6.79
N02F  2  0.95807  1.09557  0.57797 11.00000  0.14048   6.72
C02G  1  0.09269  0.78500  1.02060 11.00000  0.04510   6.70
N02H  2  0.27834  0.41070  0.16798 11.00000  0.15757   6.68
N02I  2  0.45910  0.94001  0.66096 11.00000  0.16214   6.55
C02J  1  0.34130  0.77502  1.10848 11.00000  0.09084   6.47
C02K  1  0.31467  0.59802  0.76464 11.00000  0.10630   6.37
C02L  1  0.49487  0.58250  0.06591 11.00000  0.11001   6.33
C02M  1  0.68478  0.81260  1.07546 11.00000  0.02919   6.32
C02N  1  0.93031 -0.02892  0.23623 11.00000  0.10813   6.30
C02O  1  0.17365  0.49463  0.15727 11.00000  0.09772   6.28
C02P  1  0.80152  1.07424  0.76507 11.00000  0.07080   6.28
C02Q  1 -0.15533  0.27994  0.42290 11.00000  0.02679   6.28
C02R  1 -0.39833  0.40976  0.53691 11.00000  0.08898   6.20
C02S  1  1.02653  0.09462  0.18769 11.00000  0.09630   6.10
C02T  1  0.53615  0.54109  0.80350 11.00000  0.08607   6.06
C02U  1  0.31770  0.56179  0.22821 11.00000  0.09757   5.94
C02V  1  0.35276  0.93923  0.96702 11.00000  0.09404   5.94
C02W  1  0.38094  0.22718  0.10335 11.00000  0.04744   5.92
C02X  1  0.95169 -0.07907  0.30041 11.00000  0.15153   5.92
C02Y  1  0.30645  0.56030  0.28707 11.00000  0.03392   5.90
C02Z  1  0.33454  0.62196  0.61748 11.00000  0.14662   5.90
C030  1  0.85561  0.78436  0.87805 11.00000  0.05248   5.89
O031  3  0.36085  0.71493  0.77321 11.00000  0.14255   5.88
C032  1  0.11050  0.48537  0.54918 11.00000  0.13281   5.87
O033  3  0.52714  0.99018  0.52008 11.00000  0.21363   5.84
C034  1  1.30209  0.23691  0.84579 11.00000  0.16622   5.84
C035  1  0.62366  0.69670  0.89110 11.00000  0.12088   5.84
C036  1 -0.52889  0.30403  0.56488 11.00000  0.11308   5.77
N037  2  0.37206  0.27348  0.37079 11.00000  0.09695   5.73
C038  1  0.96255  0.07444  0.26866 11.00000  0.06439   5.69
C039  1  0.09959  0.23046  0.42658 11.00000  0.11003   5.66
C03A  1  0.52644  1.08363  0.62493 11.00000  0.06564   5.62
C03B  1  0.28262  0.59414  0.12524 11.00000  0.06242   5.61
C03C  1  0.06369  0.20550  0.54084 11.00000  0.06496   5.58
C03D  1  0.04700  0.42768  0.48536 11.00000  0.06938   5.38
N03E  2  0.08289  0.95383  0.88957 11.00000  0.08835   5.37
C03F  1  0.80034  0.24124  0.15263 11.00000  0.11061   5.34
N03G  2  0.57372  0.76155  0.92942 11.00000  0.05442   5.32
C03H  1  0.49246  0.94565  1.02018 11.00000  0.05238   5.20
C03I  1  0.39903  0.89545  0.93062 11.00000  0.06007   5.13
C03J  1  0.64310  0.98838  1.04512 11.00000  0.07480   5.12
C03K  1 -0.15379  0.34796  0.43770 11.00000  0.02619   5.08
C03L  1  0.04714  0.55204  0.11701 11.00000  0.09878   5.05
C03M  1  0.89256  0.22935  0.27789 11.00000  0.04653   5.04
C03N  1  0.33379  0.22276  0.65137 11.00000  0.08809   5.04
C03O  1  0.12529  0.78543  0.67093 11.00000  0.06591   5.02
C03P  1 -0.12536  0.26469  0.61789 11.00000  0.14050   4.96
C03Q  1 -0.06591  0.45254  0.15650 11.00000  0.12713   4.95
C03R  1 -0.18645  0.68444  0.39337 11.00000  0.08004   4.88
C03S  1  0.32059  0.82103  0.92653 11.00000  0.06890   4.86
C03T  1  1.37087  0.07895  0.79840 11.00000  0.09370   4.77
C03U  1 -0.39326  0.35372  0.55533 11.00000  0.09043   4.77
C03V  1  0.75205  1.13266  0.65084 11.00000  0.16148   4.75
C03W  1  0.13301  0.85015  1.05898 11.00000  0.05551   4.59
C03X  1  0.44893  0.80087  0.43029 11.00000  0.10225   4.58
C03Y  1  0.10580  0.66393  0.13090 11.00000  0.06831   4.57
C03Z  1  0.34882  0.84161  0.49595 11.00000  0.17549   4.50
C040  1  0.94659 -0.14779  0.34997 11.00000  0.08318   4.50
C041  1  0.82944  0.75218  1.11603 11.00000  0.11782   4.49
C042  1  0.17956  0.44181  0.06225 11.00000  0.13665   4.49
C043  1  0.15422  0.77313  0.72938 11.00000  0.09709   4.46
C044  1  0.02389  0.70227  0.29069 11.00000  0.17020   4.43
C045  1  0.35699  0.87313  0.61472 11.00000  0.07111   4.40
C046  1  0.20938  0.51908  0.78065 11.00000  0.12491   4.34
C047  1  0.64967  1.03532  0.95933 11.00000  0.17790   4.29
C048  1  0.70377  0.91141  0.57830 11.00000  0.15998   4.28
C049  1  0.57969  1.14779  0.62230 11.00000  0.03772   4.26
C04A  1  0.92072  0.35527  0.74623 11.00000  0.07104   4.21
C04B  1  1.52889  0.21052  0.79449 11.00000  0.10150   4.07
C04C  1  0.51747  0.69299  0.27980 11.00000  0.18703   3.95
C04D  1  0.57974  0.59653  0.92176 11.00000  0.05377   3.92
C04E  1  0.38880  0.84176  0.22903 11.00000  0.07213   3.89
C04F  1  0.71623  0.10172  0.22365 11.00000  0.19296   3.83
C04G  1 -0.17375  0.71296  0.33148 11.00000  0.13819   3.81
C04H  1  0.35111  0.76977  0.80767 11.00000  0.10309   3.75
C04I  1  1.25956  0.18501  0.88800 11.00000  0.11244   3.75
C04J  1  1.46745  0.15818  0.89251 11.00000  0.08322   3.62
C04K  1  0.41892  0.80460  0.58854 11.00000  0.13654   3.61
C04L  1  0.51981  0.22588  0.33726 11.00000  0.10632   3.59
C04M  1  0.44794  0.84275  0.49629 11.00000  0.07288   3.50
C04N  1  0.49799  0.29272  0.18752 11.00000  0.09738   3.47
C04O  1  0.29538  0.62837  0.28979 11.00000  0.11509   3.46
C04P  1  0.21153  0.59941  0.38548 11.00000  0.11303   3.26
C04Q  1 -0.42687  0.43601  0.38606 11.00000  0.09823   3.25
C04R  1  0.06682  0.31189  0.57164 11.00000  0.20193   3.22
C04S  1  0.25261  0.07131  0.31442 11.00000  0.20218   3.21
C04T  1  0.54390  0.86354  0.99758 11.00000  0.07872   3.21
C04U  1  0.09425  0.10610  0.42353 11.00000  0.06438   3.20
C04V  1 -0.03529  0.65504  0.38317 11.00000  0.06363   3.15
C04W  1 -0.08909  0.34053  0.02594 11.00000  0.13889   3.02
HKLF 4
END
