TITL 24_a.res in P1
REM Old TITL 24 in P-1
REM SHELXT solution in P1: R1 0.581, Rweak 0.120, Alpha 0.000
REM <I/s>   0.000 for    0 systematic absences,  Orientation as input
REM Flack x = -2.366 ( 1.692 ) from    21 Parsons' quotients
REM Formula found by SHELXT:  C68 N37 O23 Cl2

CELL  0.71073   8.9300  14.6300  16.2400   90.000   90.000   77.277
ZERR   27.000   0.0018   0.0029   0.0032    0.030    0.030    0.030
LATT -1
SFAC C N O CL
UNIT 27 27 27 27
L.S. 10
BOND
LIST 6
FMAP 2
PLAN 20
CL01  4  1.06360  0.30561  0.23027 11.00000  0.20816  12.62
O002  3 -0.01588  0.68380  0.83846 11.00000  0.15697  11.98
O003  3  0.97164  0.15059  0.24167 11.00000  0.15548  11.67
O004  3  0.95058  0.03612  0.33422 11.00000  0.15901  11.35
N005  2  0.86489 -0.02821  0.32468 11.00000  0.20284  11.00
C006  1  0.49074  0.01622  0.08684 11.00000  0.07206  10.97
N007  2  1.31094  0.57595  0.17591 11.00000  0.14049  10.93
CL08  4 -0.42846  0.80045  0.72916 11.00000  0.20516  10.86
O009  3  0.49394  0.17868  0.33825 11.00000  0.17707  10.84
O00A  3  1.00411  0.53025  0.58847 11.00000  0.08374  10.44
O00B  3  0.33744  0.56488  0.81628 11.00000  0.14329  10.02
O00C  3  0.46255  0.64705  0.73310 11.00000  0.13358   9.98
N00D  2  0.32409  0.49504  0.81762 11.00000  0.13293   9.88
O00E  3  0.56572  0.27704 -0.00882 11.00000  0.09563   9.86
N00F  2  0.81282  0.03975  0.30944 11.00000  0.10638   9.38
O00G  3 -0.10967  0.54596  0.76313 11.00000  0.16343   9.37
C00H  1  0.39748  0.03917  0.25168 11.00000  0.09093   9.07
O00I  3 -0.02824  0.21926  0.73668 11.00000  0.17343   8.95
O00J  3  0.35894  0.05067  0.09965 11.00000  0.20936   8.94
C00K  1  0.38179  0.07365  0.61974 11.00000  0.16988   8.80
N00L  2  0.42315  0.68512  0.38773 11.00000  0.08342   8.54
O00M  3  0.46703  0.71474  0.85048 11.00000  0.15449   8.38
C00N  1  0.93822  0.21143  0.34810 11.00000  0.08944   8.32
O00O  3  0.83265  0.07574  0.71784 11.00000  0.09894   8.29
N00P  2  0.47696  0.50803  0.83869 11.00000  0.15907   8.26
N00Q  2  0.49744  0.31586  0.04318 11.00000  0.12312   8.24
N00R  2 -0.04714  0.16459  0.95987 11.00000  0.11755   8.20
N00S  2  0.91195 -0.03843  0.25868 11.00000  0.14902   8.11
N00T  2  0.68222  0.54104  0.45243 11.00000  0.17801   8.01
N00U  2  1.33982  0.57235  0.22386 11.00000  0.13851   8.00
O00V  3  1.06857  0.77277  0.49409 11.00000  0.14079   8.00
N00W  2  0.78601  0.49660  0.43313 11.00000  0.07446   7.96
O00X  3  0.42692  0.68205  0.31889 11.00000  0.15243   7.95
N00Y  2  1.23153  0.52397  0.20517 11.00000  0.09409   7.90
O00Z  3  0.77147  0.05317  0.65209 11.00000  0.20231   7.80
N010  2  0.64051  0.52803  0.40760 11.00000  0.15030   7.79
N011  2 -0.04311  0.17052  0.90871 11.00000  0.10574   7.71
O012  3  0.73787  0.28020  0.31367 11.00000  0.17247   7.68
N013  2  0.38441  0.20308  0.63817 11.00000  0.15269   7.55
O014  3  1.16436  0.33390  0.12425 11.00000  0.25537   7.46
N015  2  0.50070  0.02538  0.59630 11.00000  0.12498   7.26
N016  2  0.97458  0.52634  0.10036 11.00000  0.07659   7.26
C017  1  0.40365  0.47254  0.75616 11.00000  0.12870   7.21
C018  1  0.28439  0.97351  0.93276 11.00000  0.11384   7.17
N019  2  0.45694  0.73497  0.22740 11.00000  0.17353   7.14
N01A  2  1.42846  0.50899  0.12407 11.00000  0.11403   7.10
C01B  1 -0.14220  0.19946  0.87803 11.00000  0.12489   6.99
N01C  2  0.85263  0.54892  0.59674 11.00000  0.10530   6.86
N01D  2  0.82024  0.70100  0.14969 11.00000  0.06641   6.77
N01E  2 -0.05121  0.60855  0.73211 11.00000  0.06932   6.76
N01F  2  0.94114  0.02526  0.60765 11.00000  0.10025   6.75
N01G  2  0.26896  0.18842  0.65858 11.00000  0.10430   6.72
N01H  2  0.42710  0.36835  0.60265 11.00000  0.10310   6.64
N01I  2  0.25507  0.78312  0.80527 11.00000  0.14657   6.60
N01J  2  0.66190  0.14694  0.29849 11.00000  0.25928   6.55
C01K  1  0.84803  0.68071  0.09199 11.00000  0.10758   6.54
N01L  2  0.42057  0.13923 -0.01216 11.00000  0.11280   6.54
N01M  2  0.56029  0.25040  0.46689 11.00000  0.23011   6.51
C01N  1  0.21939  1.01013  0.73593 11.00000  0.12604   6.49
C01O  1  0.96080  0.79071  0.48074 11.00000  0.12603   6.46
N01P  2  0.44916  0.09788  0.23314 11.00000  0.08083   6.45
C01Q  1  1.42784  0.55317  0.08974 11.00000  0.10982   6.45
O01R  3  0.99779  0.25424  0.36469 11.00000  0.23847   6.42
N01S  2  0.62192  0.87866  0.85159 11.00000  0.20188   6.39
C01T  1  0.72712  0.45140  0.40461 11.00000  0.17992   6.37
O01U  3  0.96798  0.62809  0.46394 11.00000  0.14197   6.35
C01V  1  0.55553  0.35939  0.27893 11.00000  0.17841   6.32
C01W  1  0.23019  0.20760  0.58090 11.00000  0.22183   6.29
C01X  1  0.13200  0.80376  0.84146 11.00000  0.11495   6.20
C01Y  1  0.50188  0.78974  0.86991 11.00000  0.17770   6.15
C01Z  1 -0.06318  0.17723  0.81954 11.00000  0.06951   6.03
C020  1  1.13895  0.38746  0.34273 11.00000  0.10918   5.98
C021  1  1.18126  0.58766  0.26446 11.00000  0.21711   5.97
C022  1  0.56704  0.94855  0.88756 11.00000  0.11384   5.93
C023  1  1.10640  0.60365  0.21941 11.00000  0.12486   5.92
C024  1  0.17929  0.97549  0.81195 11.00000  0.12382   5.91
O025  3  0.52650  0.61316  0.59301 11.00000  0.12531   5.78
C026  1 -0.31466  0.84035  0.63099 11.00000  0.12321   5.72
N027  2  0.32602  0.15210  0.61875 11.00000  0.13113   5.66
C028  1  0.43717  0.32273 -0.02552 11.00000  0.15894   5.61
C029  1  0.46186  0.15290  0.68546 11.00000  0.13261   5.56
C02A  1 -0.22850  0.74618  0.82414 11.00000  0.07130   5.54
N02B  2  0.02501  0.73801  0.98254 11.00000  0.21323   5.54
C02C  1  0.08149  0.77411  0.91385 11.00000  0.14969   5.52
C02D  1  0.70830  0.45549  0.31137 11.00000  0.10461   5.49
O02E  3  0.20642  1.03843  0.93480 11.00000  0.13220   5.46
C02F  1  0.51515  0.10749 -0.03016 11.00000  0.15259   5.45
C02G  1  0.81445  0.64231  0.13988 11.00000  0.08019   5.39
C02H  1  0.73491 -0.00103  0.21852 11.00000  0.16031   5.34
N02I  2  1.06713  0.43524  0.39405 11.00000  0.12354   5.28
N02J  2  0.02755  0.09552  1.08522 11.00000  0.09663   5.24
C02K  1  1.24359  0.54420  0.14930 11.00000  0.21577   5.18
C02L  1  0.95258  0.71164  0.37255 11.00000  0.17337   5.17
C02M  1  0.26497 -0.01279  0.26197 11.00000  0.15783   5.05
C02N  1  0.15207  0.64360  0.78347 11.00000  0.14530   5.00
C02O  1  0.40943  0.66955  0.45536 11.00000  0.08219   4.92
C02P  1 -0.05628  0.36290  0.80797 11.00000  0.30976   4.91
C02Q  1  0.24884  0.49649  0.71818 11.00000  0.15001   4.85
C02R  1  0.57646  0.34987  0.61438 11.00000  0.08003   4.85
C02S  1 -0.08162  0.86444  1.09253 11.00000  0.13176   4.82
C02T  1  0.08474  0.30130  0.73834 11.00000  0.27389   4.82
C02U  1  0.98420  0.82337  0.54746 11.00000  0.09322   4.81
N02V  2  0.17844  0.99225  0.91075 11.00000  0.14890   4.75
C02W  1  0.74401  0.65014  0.41155 11.00000  0.28038   4.70
C02X  1  0.51408  0.61917  0.42866 11.00000  0.17459   4.55
C02Y  1 -0.23755  0.49012  0.76576 11.00000  0.07722   4.52
C02Z  1  0.93424  0.62907  0.51761 11.00000  0.20655   4.42
C030  1  0.97258  0.67471  0.17497 11.00000  0.11850   4.41
C031  1  0.21725  0.68881  0.62963 11.00000  0.14569   4.36
C032  1  1.21750  0.26391  0.31744 11.00000  0.15348   4.30
C033  1 -0.06153  0.85048  1.12410 11.00000  0.20054   4.30
C034  1  0.62347  0.08166  0.73153 11.00000  0.08189   4.28
C035  1  0.71035  0.48920  0.23198 11.00000  0.15176   4.26
C036  1  0.61853  0.30783  0.36892 11.00000  0.18216   4.22
C037  1  0.50991  0.67508  0.45672 11.00000  0.11858   4.20
C038  1  0.71974  0.01915  0.70548 11.00000  0.12036   4.20
O039  3 -0.01258  0.83531  0.74414 11.00000  0.23115   3.95
C03A  1  0.29253  0.70009  0.38737 11.00000  0.04107   3.91
C03B  1 -0.21624  0.19129  0.89721 11.00000  0.14802   3.90
C03C  1  1.19245  0.47129  0.08473 11.00000  0.23037   3.87
C03D  1  0.12845  0.21854  0.63996 11.00000  0.16199   3.72
C03E  1  0.44887  0.19149 -0.12410 11.00000  0.11875   3.67
C03F  1  0.50142  0.56189  0.55981 11.00000  0.17238   3.66
C03G  1  0.07045  0.89145  0.71534 11.00000  0.20334   3.66
C03H  1  0.09465  0.83476  1.10507 11.00000  0.10454   3.60
C03I  1  0.51096  0.38739  0.21513 11.00000  0.14786   3.38
C03J  1  0.41786  0.32212  0.11493 11.00000  0.22466   3.37
C03K  1 -0.07473  0.66459  0.88488 11.00000  0.13558   3.19
C03L  1  0.43269  0.15996  0.39462 11.00000  0.13788   3.18
C03M  1  0.65639  0.71169  0.12837 11.00000  0.16396   3.11
HKLF 4
END
