TITL 25_a.res in P1
REM Old TITL 25 in P-1
REM SHELXT solution in P1: R1 0.667, Rweak 0.000, Alpha 0.000
REM <I/s>   0.000 for    0 systematic absences,  Orientation as input
REM Flack x = -9.990 ( 9.990 ) from    69 Parsons' quotients
REM Formula found by SHELXT:  C105 N66 O16

CELL  0.71073   8.5600  14.9548  15.4900   90.000   90.000   81.457
ZERR   26.000   0.0017   0.0030   0.0031    0.030    0.030    0.030
LATT -1
SFAC C N O CL
UNIT 26 26 26 26
L.S. 10
BOND
LIST 6
FMAP 2
PLAN 20
O001  3  0.78765  0.11693  0.41847 11.00000  0.09443  12.79
N002  2  0.24202  0.10285  0.34512 11.00000  0.07306  11.89
N003  2  0.70088  0.84786  0.81096 11.00000  0.04241  11.10
N004  2  0.26721  0.61351 -0.08390 11.00000  0.04006  10.97
N005  2  0.89646  0.11046  0.56221 11.00000  0.07970  10.95
O006  3  0.21315  0.64321 -0.18827 11.00000  0.04593  10.68
N007  2  0.19103  0.35199  0.29792 11.00000  0.06120  10.47
N008  2  0.73678  0.60266  0.79682 11.00000  0.03028  10.23
N009  2  0.43715  0.20116  0.66090 11.00000  0.01449  10.08
N00A  2  0.32045  0.22818  0.69560 11.00000  0.07445  10.02
O00B  3  0.39996  0.57277  0.06019 11.00000  0.07422  10.01
C00C  1  0.60337  0.12059 -0.01139 11.00000  0.03347  10.01
O00D  3  0.29190  0.70362 -0.06975 11.00000  0.07249   9.99
C00E  1  0.86796  0.58204  1.03355 11.00000  0.04379   9.98
N00F  2  0.00680  0.01397  0.03376 11.00000  0.05710   9.89
N00G  2  0.75763  0.58037  0.87326 11.00000  0.04741   9.72
N00H  2  0.30178  0.09600  0.45224 11.00000  0.03229   9.61
N00I  2  0.16475  0.06863 -0.00623 11.00000  0.08403   9.56
N00J  2  0.25810 -0.14695  0.16239 11.00000  0.09542   9.42
N00K  2  0.74365  0.49022  0.54718 11.00000  0.18871   9.36
O00L  3  0.94078  0.70486  1.16086 11.00000  0.13476   9.34
N00M  2  0.73594  0.12442  0.30487 11.00000  0.04728   9.33
N00N  2  0.66771  0.59965  0.70954 11.00000  0.01065   9.25
N00O  2  0.52448  0.48847  0.53396 11.00000  0.07252   9.23
N00P  2  0.20233  0.00189 -0.00292 11.00000  0.11549   9.22
O00Q  3  0.39027  0.41569  0.27006 11.00000  0.10345   8.98
N00R  2  0.12651  0.61798  0.51930 11.00000  0.08724   8.89
C00S  1  0.23342  0.47000  0.57223 11.00000  0.04033   8.88
N00T  2  0.46744  0.27628  0.66731 11.00000  0.08723   8.79
O00U  3 -0.12624  0.46444  0.20780 11.00000  0.08668   8.63
O00V  3  0.36390  0.09181  0.54716 11.00000  0.09618   8.63
O00W  3  0.79642  0.20252  0.42649 11.00000  0.06220   8.59
C00X  1  0.06852 -0.07866  0.17111 11.00000  0.05574   8.56
N00Y  2  0.34822  0.35788  0.28549 11.00000  0.11917   8.55
N00Z  2  0.47723 -0.01239 -0.14096 11.00000  0.14646   8.49
N010  2  0.67257 -0.04931  0.01042 11.00000  0.11513   8.48
N011  2  0.03776  0.37198  0.12803 11.00000  0.04775   8.27
C012  1  0.60173  0.04369 -0.00420 11.00000  0.11509   8.25
N013  2  0.88038  0.90102  0.77169 11.00000  0.06831   8.12
N014  2  0.35456 -0.05350  0.39120 11.00000  0.13287   8.11
O015  3  0.53121  0.14903 -0.12987 11.00000  0.09327   8.11
N016  2  0.82278  0.39381  0.70465 11.00000  0.10417   8.07
C017  1 -0.04660  0.47801  0.30131 11.00000  0.06711   7.99
C018  1  0.81056  0.59894  0.94983 11.00000  0.01915   7.83
N019  2  1.03033  1.18132  0.74511 11.00000  0.06600   7.77
N01A  2  0.25377  0.16171  0.34719 11.00000  0.10648   7.58
N01B  2  0.14843  0.11897  0.13926 11.00000  0.08646   7.56
N01C  2  0.20580  0.54826 -0.06240 11.00000  0.08805   7.50
N01D  2  0.65972  0.58847  0.53821 11.00000  0.04774   7.45
C01E  1  1.04219  0.80800  1.23421 11.00000  0.08082   7.43
N01F  2  0.53868  0.48815  0.60590 11.00000  0.02612   7.40
N01G  2  0.85172  0.77464  1.18372 11.00000  0.06882   7.38
N01H  2  1.00329  1.11052  0.73066 11.00000  0.16786   7.37
N01I  2  0.07615  0.36370  0.20977 11.00000  0.09051   7.23
O01J  3  0.87394  0.65919  1.04090 11.00000  0.14995   7.21
O01K  3  0.15444  0.47628  0.49233 11.00000  0.10814   7.19
C01L  1  0.02447 -0.00702  0.09962 11.00000  0.00248   7.14
N01M  2  0.55540  0.31304  0.72012 11.00000  0.15773   7.14
N01N  2  0.60485  0.63710  0.22140 11.00000  0.08854   7.10
N01O  2  0.29764  0.11303 -0.07344 11.00000  0.10500   7.06
N01P  2  0.21195  0.59649 -0.16114 11.00000  0.10946   7.04
N01Q  2  0.33882 -0.02300 -0.30799 11.00000  0.11901   7.04
N01R  2  0.54285  0.86389  0.62641 11.00000  0.10706   7.04
N01S  2  0.26860  0.47970  0.64777 11.00000  0.10327   7.02
N01T  2  0.39691  0.00821  0.32450 11.00000  0.17283   7.01
N01U  2  0.54512  0.46829  0.67051 11.00000  0.08768   6.98
N01V  2  0.75794  0.62291  0.30515 11.00000  0.07328   6.96
N01W  2  0.39399  0.18551  0.56005 11.00000  0.06880   6.96
N01X  2  0.65607  0.11369  0.32492 11.00000  0.07110   6.93
N01Y  2 -0.23113 -0.01921  0.16311 11.00000  0.09746   6.92
N01Z  2  0.32473  0.39190  0.17225 11.00000  0.05034   6.92
N020  2  0.44795  0.33960  0.57133 11.00000  0.06828   6.91
N021  2  0.40615  0.11135  0.01730 11.00000  0.13625   6.86
N022  2  0.43995  0.65454  0.07801 11.00000  0.07746   6.84
N023  2  0.76860  0.03373  0.44141 11.00000  0.08165   6.82
N024  2  0.32470 -0.06971  0.19015 11.00000  0.03119   6.82
N025  2  0.19309  0.04480 -0.08374 11.00000  0.16494   6.80
C026  1  0.91174  0.05108  0.57862 11.00000  0.08203   6.73
N027  2  0.14739  0.98223  0.48486 11.00000  0.08771   6.65
N028  2  0.62219  0.85378  0.72113 11.00000  0.07003   6.57
C029  1  0.81227  0.89990  0.68802 11.00000  0.04824   6.50
C02A  1  0.46420 -0.11580  0.40172 11.00000  0.06489   6.46
C02B  1  0.51423  0.03827 -0.12358 11.00000  0.22438   6.41
C02C  1  0.71892  0.70340  0.77523 11.00000  0.01912   6.39
C02D  1  0.69262  0.48300  0.74611 11.00000  0.09221   6.38
C02E  1  0.47723  0.54035  0.15845 11.00000  0.05716   6.38
C02F  1  1.00354  1.07380  0.69300 11.00000  0.15515   6.37
C02G  1  0.07727 -0.06929 -0.02313 11.00000  0.10257   6.37
C02H  1  0.19613  0.01085  0.10618 11.00000  0.24909   6.27
C02I  1  0.85412  0.47172  0.88053 11.00000  0.04861   6.21
C02J  1  0.97470  0.15896  0.59159 11.00000  0.12122   6.20
N02K  2  0.71067  0.82472  0.89162 11.00000  0.06315   6.17
C02L  1  0.60421 -0.02795 -0.26284 11.00000  0.07451   6.04
C02M  1  0.03245  0.66523  0.37101 11.00000  0.01710   6.03
C02N  1  1.23113  1.12497  0.79536 11.00000  0.05397   6.02
C02O  1  0.20572  0.33302  0.37404 11.00000  0.04619   6.00
C02P  1  0.75560  0.48519  0.70773 11.00000  0.09067   5.99
C02Q  1  0.84385  0.83161  0.78761 11.00000  0.04566   5.92
C02R  1  0.19220  0.77039  0.51995 11.00000  0.08105   5.89
C02S  1  0.85334  0.43607  0.70853 11.00000  0.04937   5.87
C02T  1  0.82150  0.59707  0.43573 11.00000  0.04850   5.74
C02U  1  0.15720  0.12714  0.21061 11.00000  0.03361   5.73
C02V  1  0.04768  0.60154 -0.07775 11.00000  0.17257   5.61
C02W  1  0.92643  0.61389  0.51046 11.00000  0.06798   5.54
C02X  1  0.16481 -0.21659  0.09958 11.00000  0.06406   5.49
C02Y  1  0.35418  0.26452  0.67388 11.00000  0.01872   5.39
C02Z  1  0.33830  0.26225  0.26603 11.00000  0.14690   5.32
C030  1  0.12363  0.24501 -0.04804 11.00000  0.13610   5.28
C031  1  0.77317  0.12928  0.36945 11.00000  0.15095   5.28
C032  1  0.59925 -0.25544  0.43970 11.00000  0.08756   5.23
C033  1  0.53984  0.50779  0.28595 11.00000  0.04120   5.16
C034  1  0.75074  0.33335  0.70128 11.00000  0.15012   5.15
C035  1  0.13839  0.10233  0.05165 11.00000  0.09285   5.12
C036  1  0.29608  0.56610 -0.00139 11.00000  0.12512   5.10
C037  1  0.91990  0.60917  1.14126 11.00000  0.14004   5.07
C038  1  0.49393  0.40854  0.42106 11.00000  0.06210   5.01
C039  1  0.16381  0.67909  0.48812 11.00000  0.17177   4.99
C03A  1  0.43970  0.11439  0.35287 11.00000  0.09184   4.99
C03B  1  0.29415  0.42894  0.67098 11.00000  0.16792   4.98
C03C  1  0.12246  0.74704  0.71240 11.00000  0.06518   4.96
C03D  1  0.75602  0.65366  0.86073 11.00000  0.02740   4.91
C03E  1  0.53922  0.22285 -0.04913 11.00000  0.12637   4.88
C03F  1  0.34240  0.59045  0.53130 11.00000  0.09536   4.81
C03G  1  0.35077  0.00948  0.06903 11.00000  0.13573   4.75
C03H  1  0.23945  0.81900  0.57825 11.00000  0.23586   4.71
C03I  1  0.37073 -0.09011  0.27732 11.00000  0.04259   4.70
O03J  3  0.65744  0.47790  0.98851 11.00000  0.13759   4.69
C03K  1  0.46433  0.34861  0.13199 11.00000  0.10242   4.64
C03L  1  0.65883  0.55381  0.44252 11.00000  0.08429   4.64
C03M  1  0.63599  0.28720  0.58107 11.00000  0.11277   4.62
C03N  1  0.34982  0.44719  0.14308 11.00000  0.08506   4.53
C03O  1 -0.10276  0.81371  0.48544 11.00000  0.19214   4.52
N03P  2  0.92024 -0.00866  0.38197 11.00000  0.18545   4.49
C03Q  1  0.29012 -0.07270  0.11342 11.00000  0.04776   4.43
C03R  1  0.46395  0.49009 -0.12199 11.00000  0.07180   4.40
C03S  1  0.12675  0.03832  0.16377 11.00000  0.20629   4.37
C03T  1  1.00030  0.97837  0.76154 11.00000  0.18653   4.34
C03U  1  0.33576  0.59877  0.63265 11.00000  0.11757   4.33
C03V  1  1.03353  1.25544  0.70070 11.00000  0.15746   4.31
N03W  2  0.78204  0.05910  0.49320 11.00000  0.12770   4.28
N03X  2  0.53605  0.15660  0.02822 11.00000  0.12649   4.26
N03Y  2  0.03234 -0.01356  0.17067 11.00000  0.06563   4.24
C03Z  1  0.67736  0.60008  0.63686 11.00000  0.00505   4.22
C040  1 -0.14127  0.10026  0.04924 11.00000  0.10553   4.20
C041  1  0.52178  0.57483  0.21262 11.00000  0.13012   4.19
C042  1  0.18453  0.59232 -0.22606 11.00000  0.07995   4.17
C043  1  0.45678 -0.01237 -0.22974 11.00000  0.14410   4.08
O044  3  1.01638  0.77890  1.18286 11.00000  0.24715   4.07
C045  1  0.48931  0.86858  0.55335 11.00000  0.12356   4.05
C046  1  0.36988 -0.06713 -0.20275 11.00000  0.09575   4.04
C047  1  0.25219  0.50024 -0.09471 11.00000  0.13441   4.03
C048  1 -0.12309  0.06683  0.17165 11.00000  0.19216   3.95
C049  1  0.77462  0.43212  0.62512 11.00000  0.05453   3.94
C04A  1  0.66313  0.27629  0.02826 11.00000  0.12173   3.85
C04B  1  0.71752  0.36248  0.84098 11.00000  0.16261   3.75
O04C  3  0.87853  0.69909  1.18993 11.00000  0.18555   3.74
C04D  1  0.54589  0.63950  0.26337 11.00000  0.06939   3.71
C04E  1  1.11049  1.13739  0.71871 11.00000  0.06591   3.68
C04F  1  0.01415  0.27220  0.13930 11.00000  0.16167   3.67
N04G  2  0.94079  0.40326  0.88932 11.00000  0.11277   3.62
C04H  1  0.11312  0.57501  0.48034 11.00000  0.14279   3.58
C04I  1  1.05890  0.89161  0.72164 11.00000  0.10790   3.51
C04J  1  0.63814  0.11400  0.24407 11.00000  0.06394   3.49
C04K  1  0.81405  0.92014  0.62730 11.00000  0.09834   3.47
O04L  3  1.05240  0.87711  1.30799 11.00000  0.41478   3.46
N04M  2 -0.11956  0.42950  0.27927 11.00000  0.14377   3.43
C04N  1  0.39397  0.28521 -0.02036 11.00000  0.18432   3.42
C04O  1  0.74451  0.72903  0.86927 11.00000  0.06783   3.37
N04P  2 -0.00209  0.48198  0.37003 11.00000  0.13287   3.37
C04Q  1  0.23341  0.33042  0.61406 11.00000  0.14968   3.32
C04R  1  0.29505  0.66059 -0.11261 11.00000  0.07858   3.31
C04S  1  0.74906  0.53920  0.51228 11.00000  0.08607   3.31
C04T  1  0.24356  0.31829  0.68950 11.00000  0.11493   3.30
C04U  1  0.35794 -0.08364 -0.28377 11.00000  0.08917   3.27
C04V  1  0.30452  0.89321  0.56659 11.00000  0.31736   3.24
C04W  1  0.25860  0.81332  0.64501 11.00000  0.18646   3.22
C04X  1  0.21582  0.24740  0.35967 11.00000  0.05852   3.19
C04Y  1  0.01008 -0.08785 -0.09282 11.00000  0.10312   3.18
C04Z  1  0.05193  0.46695  0.22674 11.00000  0.16735   3.16
C050  1 -0.10321  0.14721  0.15882 11.00000  0.26563   3.15
C051  1  0.03351  0.36563  0.05621 11.00000  0.07290   3.14
C052  1  0.05782  0.58612  0.34879 11.00000  0.05986   3.13
C053  1  0.27638  0.01979  0.37321 11.00000  0.09726   3.11
C054  1  0.07542  0.60260  0.64706 11.00000  0.16336   3.10
C055  1  0.07159  0.69110  0.53263 11.00000  0.18489   3.06
C056  1  0.57941  0.42935  0.25457 11.00000  0.04935   3.05
C057  1  0.62880  0.44646  0.46586 11.00000  0.11350   3.02
HKLF 4
END
