TITL 26_a.res in P1
REM Old TITL 26 in P-1
REM SHELXT solution in P1: R1 0.664, Rweak 0.014, Alpha 0.000
REM <I/s>   0.000 for    0 systematic absences,  Orientation as input
REM Formula found by SHELXT:  C68 N23 O12

CELL  0.71073   8.7700  14.7506  15.8600   90.000   90.000   77.687
ZERR   27.000   0.0018   0.0030   0.0032    0.030    0.030    0.030
LATT -1
SFAC C N O CL
UNIT 27 27 27 27
L.S. 10
BOND
LIST 6
FMAP 2
PLAN 20
N001  2 -0.30580  0.91722  0.28986 11.00000  0.04721  11.94
O002  3  0.18545  0.40026  0.81221 11.00000  0.08945  11.30
N003  2 -0.32711  0.87118  0.33222 11.00000  0.01913  10.44
N004  2  0.13710  1.08893  0.25042 11.00000  0.09333   9.98
N005  2  0.75379  0.50448  0.75209 11.00000  0.11830   9.59
N006  2  0.27808  1.01280  0.24479 11.00000  0.12932   9.32
O007  3  0.16876  0.43003  0.72289 11.00000  0.14576   8.71
N008  2  0.44898  0.46410  0.11663 11.00000  0.07105   8.41
O009  3  1.00755 -0.03730  0.61002 11.00000  0.19253   8.36
C00A  1 -0.26610  0.94486  0.21108 11.00000  0.09175   8.30
N00B  2  0.19537  0.31890  0.84597 11.00000  0.02276   7.92
N00C  2  0.94061 -0.08821  0.56847 11.00000  0.08958   7.80
N00D  2  0.62639  0.64845  0.74618 11.00000  0.08741   7.75
O00E  3  0.36012  0.37127  0.05824 11.00000  0.09818   7.70
N00F  2  0.14581  0.28818  0.76060 11.00000  0.08410   7.63
O00G  3  0.37747 -0.03583  0.88490 11.00000  0.29355   7.52
O00H  3  0.66768  0.45733  0.70317 11.00000  0.21887   7.51
N00I  2  0.86826 -0.14098  0.52293 11.00000  0.10773   7.43
N00J  2 -0.39814  0.91655  0.19422 11.00000  0.14340   7.31
N00K  2 -0.35230  0.77715  0.27113 11.00000  0.07372   7.26
O00L  3 -0.13184  0.45292  0.38183 11.00000  0.20254   7.21
C00M  1  0.46320  0.40516  0.05846 11.00000  0.05335   6.92
N00N  2  0.52110  0.55326  0.27254 11.00000  0.07835   6.88
C00O  1 -0.13107  0.52397  0.35892 11.00000  0.07160   6.85
N00P  2 -0.28697  0.75537  0.38519 11.00000  0.07233   6.80
N00Q  2  0.39089  0.02675  0.86134 11.00000  0.13033   6.79
N00R  2  1.03120  0.01229  0.76594 11.00000  0.11750   6.73
C00S  1  0.64764  0.57150  0.74207 11.00000  0.10911   6.70
N00T  2  0.03806  0.48890  0.36711 11.00000  0.12819   6.69
C00U  1  0.22832  0.25345  0.86388 11.00000  0.00010   6.59
C00V  1  0.15579  0.99215  0.21796 11.00000  0.11582   6.52
C00W  1 -0.28922  0.81116  0.35368 11.00000  0.00074   6.50
C00X  1  0.02275  1.11734  0.27091 11.00000  0.11032   6.34
N00Y  2  0.13044 -0.17726  0.84247 11.00000  0.14172   6.30
C00Z  1  0.55248  0.60055  0.77670 11.00000  0.09923   6.24
N010  2 -0.35819  0.49041  0.45596 11.00000  0.11699   6.22
C011  1  0.22746  0.29010  0.92725 11.00000  0.00010   6.10
C012  1  0.99589  0.09803  0.74982 11.00000  0.08845   6.08
C013  1  0.68947  0.64676  0.86219 11.00000  0.04183   6.07
C014  1  0.80490  0.14165  0.58170 11.00000  0.08330   5.90
C015  1  0.60583  0.34626  0.35081 11.00000  0.09268   5.87
C016  1  0.56631  0.43360  0.08987 11.00000  0.17708   5.87
C017  1  0.30015  0.54380  0.82846 11.00000  0.02237   5.75
C018  1  0.66779  0.52514  0.62656 11.00000  0.06875   5.74
C019  1  0.16869  0.00887  0.90794 11.00000  0.11449   5.69
C01A  1  0.82977 -0.10917  0.57310 11.00000  0.08673   5.65
C01B  1  0.29015  0.27581  0.82896 11.00000  0.01508   5.57
O01C  3 -0.18757  1.04599  0.32185 11.00000  0.14256   5.54
C01D  1  0.83122  0.61972  0.86689 11.00000  0.12419   5.52
C01E  1 -0.20966  0.76020  0.33523 11.00000  0.06446   5.46
O01F  3  0.02792  0.45994  0.52215 11.00000  0.22768   5.43
C01G  1  0.20798  0.46289  0.46980 11.00000  0.14581   5.42
O01H  3  0.16863  1.01310  0.13046 11.00000  0.20098   5.39
C01I  1  0.35542  1.07910  0.35920 11.00000  0.12856   5.39
N01J  2  0.23715  0.79699  0.22963 11.00000  0.11343   5.38
C01K  1  0.38483  0.59443  0.07783 11.00000  0.05141   5.37
C01L  1  0.12817  0.72728  0.19409 11.00000  0.12337   5.36
C01M  1  0.16883  1.13500  0.33659 11.00000  0.06271   5.31
C01N  1  0.33852  0.57592  0.76552 11.00000  0.08123   5.29
C01O  1  0.14986  1.14418  0.23439 11.00000  0.11474   5.28
C01P  1  0.21748  0.41180  0.60792 11.00000  0.18243   5.14
C01Q  1  0.51666  0.49845  0.27248 11.00000  0.03529   5.14
C01R  1  0.69135 -0.01534  0.95823 11.00000  0.10857   5.07
C01S  1  0.54051 -0.01154  1.03514 11.00000  0.18197   5.06
C01T  1  0.65766  0.11702  0.72884 11.00000  0.15112   4.98
C01U  1  0.92825  0.65165  0.73476 11.00000  0.09552   4.90
C01V  1  0.22757  0.59986  0.07662 11.00000  0.09299   4.89
C01W  1 -0.15160  1.07167  0.24710 11.00000  0.11169   4.83
C01X  1  0.42687  1.14530  0.23707 11.00000  0.08147   4.73
C01Y  1  0.10275  0.55881  0.41891 11.00000  0.14807   4.71
C01Z  1 -0.00465  0.60278  0.22939 11.00000  0.12843   4.70
O020  3  0.69048  0.08358  0.58053 11.00000  0.17873   4.68
C021  1  0.33025  0.51130  0.25034 11.00000  0.10224   4.60
C022  1  0.13605  0.64202  0.27292 11.00000  0.09661   4.50
C023  1  0.81167  0.28696  0.71078 11.00000  0.12110   4.50
C024  1  0.25881  1.17726  0.36494 11.00000  0.05406   4.44
C025  1  0.50929  0.08253  0.74103 11.00000  0.07804   4.42
C026  1 -0.29465  1.03677  0.19051 11.00000  0.05985   4.36
C027  1  0.18714  0.86761  0.22413 11.00000  0.06074   4.30
C028  1  0.91809  0.07246  0.58005 11.00000  0.07388   4.27
C029  1  0.12502  0.74559  0.11290 11.00000  0.09562   4.26
C02A  1  0.68475  0.28619  0.34659 11.00000  0.12288   4.23
C02B  1  0.39490  0.27095  0.76672 11.00000  0.12569   4.20
C02C  1  0.60802  0.49495  0.13568 11.00000  0.24290   4.19
C02D  1 -0.28629  0.78205  0.43680 11.00000  0.13764   4.16
N02E  2  0.01830  0.52029  0.24129 11.00000  0.24260   4.01
C02F  1  0.59808  0.26396  0.62239 11.00000  0.11863   4.01
C02G  1  0.33893  0.41274 -0.03514 11.00000  0.16174   4.00
C02H  1  0.23865  0.95530  0.32986 11.00000  0.18591   4.00
C02I  1  0.16378  0.23930  0.91035 11.00000  0.10221   3.92
C02J  1  0.95377  0.05029  0.78909 11.00000  0.11077   3.82
C02K  1 -0.09519  0.75201  0.29041 11.00000  0.12189   3.78
C02L  1  0.82267 -0.00345  0.74174 11.00000  0.09869   3.72
C02M  1  0.67849  0.35077  0.73362 11.00000  0.16112   3.71
C02N  1  0.87121  0.38852  0.05983 11.00000  0.13159   3.61
C02O  1  1.39814 -0.10292  0.58071 11.00000  0.13960   3.46
N02P  2  0.12387 -0.01816  0.94832 11.00000  0.13029   3.45
C02Q  1  0.75665  0.43687  0.83357 11.00000  0.14566   3.42
C02R  1  0.64850  0.15069  0.78332 11.00000  0.15539   3.29
C02S  1  0.23409  0.52692  0.70174 11.00000  0.06545   3.28
C02T  1  0.75344  0.24532  0.72039 11.00000  0.16833   3.19
C02U  1 -0.33670  0.50428  0.40436 11.00000  0.14347   3.16
O02V  3  0.57917  0.07019  0.90426 11.00000  0.27865   3.03
HKLF 4
END
