TITL 29_a.res in P1
REM Old TITL 29 in P-1
REM SHELXT solution in P1: R1 0.647, Rweak 0.054, Alpha 0.000
REM <I/s>   0.000 for    0 systematic absences,  Orientation as input
REM Flack x = -9.990 ( 9.990 ) from     2 Parsons' quotients
REM Formula found by SHELXT:  C70 N31 O20

CELL  0.71073   8.8400  14.6617  15.9800   90.000   90.000   77.048
ZERR   27.000   0.0018   0.0029   0.0032    0.030    0.030    0.030
LATT -1
SFAC C N O CL
UNIT 27 27 27 27
L.S. 10
BOND
LIST 6
FMAP 2
PLAN 20
C001  1  0.37610  0.56979  0.67843 11.00000  0.13404  12.39
O002  3  1.01798  1.09860  0.17636 11.00000  0.17524  12.30
O003  3  1.01981  1.52460  0.31504 11.00000  0.20603  11.90
N004  2 -0.01427 -0.11613  0.79815 11.00000  0.12761  11.80
N005  2  0.52171  1.38190  0.29362 11.00000  0.09101  11.74
O006  3  0.51497  0.98498  0.82495 11.00000  0.16173  11.54
O007  3  0.59226  1.07172  0.82634 11.00000  0.10129  10.83
N008  2  1.09183  1.58195  0.32780 11.00000  0.09879  10.67
O009  3  0.50317  1.47080  0.33364 11.00000  0.12735  10.38
O00A  3  0.75378  1.08956  0.23260 11.00000  0.14472  10.00
N00B  2  0.00825 -0.02551  0.83868 11.00000  0.06025   9.94
O00C  3  0.84885  1.06409  0.17469 11.00000  0.15252   9.90
N00D  2  0.26342  0.60502  0.72458 11.00000  0.09853   9.44
C00E  1  0.06908  0.02182  0.80876 11.00000  0.02738   9.13
C00F  1  0.97366  1.44244  0.32023 11.00000  0.13472   8.92
C00G  1 -0.02137 -0.29856  1.00138 11.00000  0.03917   8.87
N00H  2  0.48725  1.20307  0.50588 11.00000  0.07802   8.71
N00I  2  0.00916 -0.16509  0.73630 11.00000  0.11819   8.70
O00J  3  0.56511  1.52545  0.30351 11.00000  0.09047   8.50
N00K  2 -0.29886  0.35483  0.75072 11.00000  0.04216   8.45
C00L  1 -0.00800 -0.10077  0.69632 11.00000  0.11076   8.24
O00M  3  0.22399  0.62702  0.77357 11.00000  0.21906   8.10
O00N  3  0.46111  0.87945  0.83366 11.00000  0.13671   8.02
N00O  2 -0.22970 -0.39291  0.98671 11.00000  0.22977   7.78
N00P  2  0.44361  1.34383  0.23439 11.00000  0.04225   7.74
C00Q  1  0.49747  1.18540  0.43731 11.00000  0.02317   7.63
N00R  2  0.42453  1.03919  0.45440 11.00000  0.08809   7.59
O00S  3  0.22024  0.86287  0.19967 11.00000  0.12942   7.53
N00T  2  0.22527  1.08929  0.44086 11.00000  0.08605   7.41
N00U  2  0.73203  1.12976  0.27710 11.00000  0.12173   7.41
C00V  1  0.41737  1.36978  0.29315 11.00000  0.10071   7.38
C00W  1  0.57272  0.83162  0.21953 11.00000  0.04651   7.35
N00X  2  1.02643  1.67000  0.45368 11.00000  0.10220   7.29
N00Y  2  0.23483  0.90569  0.25863 11.00000  0.10409   7.15
N00Z  2  0.47232  0.78221  0.70711 11.00000  0.13321   7.12
N010  2  0.52440  1.16698  0.95134 11.00000  0.11144   7.09
N011  2  0.00278  0.31906  0.73643 11.00000  0.10921   7.00
N012  2 -0.11694 -0.33392  0.89192 11.00000  0.18850   6.97
N013  2  0.01000 -0.28870  0.94193 11.00000  0.10089   6.87
N014  2  0.24988  1.10955  0.49257 11.00000  0.18160   6.80
N015  2  0.39897  1.19404  0.36460 11.00000  0.06482   6.79
N016  2 -0.06357  0.00112  0.68329 11.00000  0.10620   6.58
N017  2 -0.28738  0.38129  0.69499 11.00000  0.13034   6.53
N018  2 -0.27715 -0.42462  0.94474 11.00000  0.12823   6.51
C019  1 -0.09927 -0.39655  0.92299 11.00000  0.18593   6.48
C01A  1  0.93227  1.37364  0.34125 11.00000  0.15161   6.45
C01B  1  1.01936  1.62676  0.36335 11.00000  0.05496   6.33
C01C  1  0.50779  0.97622  0.93470 11.00000  0.08835   6.27
C01D  1  0.18895  0.58951  0.79589 11.00000  0.13740   6.26
C01E  1  0.49634  0.67863  0.58374 11.00000  0.12652   6.17
O01F  3 -0.19064 -0.67000  0.91720 11.00000  0.13122   6.07
O01G  3 -0.08474 -0.30434  1.06186 11.00000  0.13401   6.07
C01H  1  0.94572  1.50037  0.41517 11.00000  0.06202   5.93
O01I  3  0.89837  1.54987  0.45892 11.00000  0.15879   5.91
C01J  1  0.67394  1.08399  0.30014 11.00000  0.07229   5.90
C01K  1  0.42718  1.49586  0.17644 11.00000  0.05776   5.80
C01L  1 -0.08398 -0.31863  0.91364 11.00000  0.13715   5.76
C01M  1  0.22552  0.84748  0.27195 11.00000  0.01030   5.75
C01N  1 -0.09351 -0.45573  0.94695 11.00000  0.12030   5.73
C01O  1 -0.26804  0.41119  0.77681 11.00000  0.05982   5.58
C01P  1  1.01688  1.26241  0.20326 11.00000  0.10646   5.50
C01Q  1  0.83897  1.21458  0.33998 11.00000  0.14463   5.45
O01R  3  0.71391  0.92787  0.21058 11.00000  0.19660   5.37
C01S  1  0.34276  0.71315  0.84789 11.00000  0.11906   5.36
C01T  1  0.37908  1.04436  0.93471 11.00000  0.09629   5.35
C01U  1  0.36946  1.11832  0.40891 11.00000  0.09755   5.29
C01V  1  0.10418  0.23845  0.71888 11.00000  0.07356   5.29
C01W  1  0.33321  0.89027  0.31388 11.00000  0.20391   5.28
N01X  2  0.63050  0.73349  0.21469 11.00000  0.18419   5.27
C01Y  1 -0.12697  0.42538  0.78633 11.00000  0.10739   5.24
C01Z  1  1.27799  1.40961 -0.00494 11.00000  0.00958   5.21
C020  1  0.53462  1.46866  0.42811 11.00000  0.07923   5.19
C021  1 -0.09329  0.06891  0.56414 11.00000  0.07221   5.18
C022  1  0.74980  0.66310  0.74408 11.00000  0.08358   5.18
O023  3  0.21512  0.45480  0.70433 11.00000  0.13644   5.17
O024  3  0.52805  0.59933  0.67771 11.00000  0.22016   5.16
C025  1  0.22248  0.53955  0.66529 11.00000  0.17682   5.14
C026  1  0.55213  1.12680  0.87059 11.00000  0.09848   5.05
N027  2  0.03583  0.15137  0.75781 11.00000  0.10681   5.05
O028  3  0.51958  0.79237  0.23005 11.00000  0.26252   4.98
C029  1  0.41501  1.57671  0.07393 11.00000  0.04688   4.95
C02A  1  1.02358  1.15939  0.08435 11.00000  0.08898   4.93
C02B  1  0.69793  0.88846  0.46633 11.00000  0.08288   4.86
N02C  2  0.35686  1.19675  0.42139 11.00000  0.09617   4.81
C02D  1  0.10075  0.32905  0.71378 11.00000  0.03623   4.79
C02E  1  0.33298  0.80534  0.41130 11.00000  0.16141   4.77
C02F  1  0.27782  1.15526  0.25468 11.00000  0.12951   4.72
C02G  1  1.29886  1.35989 -0.06186 11.00000  0.11772   4.71
C02H  1  0.00146 -0.00992  0.92559 11.00000  0.17038   4.57
C02I  1  0.50153  1.07668  0.69181 11.00000  0.12121   4.51
N02J  2 -0.06372  0.04931  0.49653 11.00000  0.09640   4.49
C02K  1  0.57878  0.92280  0.62654 11.00000  0.12519   4.48
C02L  1 -0.09399 -0.13976  0.73282 11.00000  0.03582   4.48
O02M  3  0.96949  1.33722  0.21641 11.00000  0.18122   4.46
C02N  1  1.20786  1.36620 -0.01352 11.00000  0.03750   4.37
O02O  3  0.49914  1.39126  0.19160 11.00000  0.19861   4.34
C02P  1  1.00276  1.56768  0.19249 11.00000  0.15054   4.33
C02Q  1  0.79373  0.84843  0.42758 11.00000  0.13032   4.32
C02R  1 -0.14884  0.34201  0.76583 11.00000  0.12176   4.32
C02S  1  0.58141  0.69338  0.70091 11.00000  0.18359   4.13
N02T  2  0.41102  0.82708  0.26187 11.00000  0.22929   4.12
C02U  1 -0.20222 -0.57464  0.96241 11.00000  0.08277   4.09
C02V  1  0.53854  1.28662  0.35427 11.00000  0.18531   4.03
C02W  1  0.53419  0.65897  0.19929 11.00000  0.05314   4.03
N02X  2  0.42181  1.55964  0.15077 11.00000  0.12857   4.03
C02Y  1 -0.08739  0.06091  0.64151 11.00000  0.06713   4.03
C02Z  1  0.53243  0.66096  0.27088 11.00000  0.05896   4.02
C030  1  1.09338  1.42411  0.13391 11.00000  0.11036   4.00
C031  1  0.35227  0.97157  0.26380 11.00000  0.10734   3.99
C032  1  0.43536  1.55695  0.00412 11.00000  0.06014   3.98
C033  1  0.42359  1.21690  0.29415 11.00000  0.11828   3.94
C034  1  0.43195  1.20580  0.56442 11.00000  0.11044   3.93
C035  1  0.05285  0.15707  0.69241 11.00000  0.10995   3.61
C036  1  0.05744 -0.20043  0.87110 11.00000  0.22293   3.56
C037  1  0.72054  0.99818  0.16947 11.00000  0.13287   3.46
C038  1  0.72120  0.86954  0.50635 11.00000  0.11028   3.39
C039  1  0.48686  0.85168  0.72367 11.00000  0.15519   3.38
C03A  1  0.30653  0.88225  0.43246 11.00000  0.09938   3.32
C03B  1  0.70469  1.09964  0.97303 11.00000  0.10587   3.24
C03C  1  0.30336  0.95589  0.48619 11.00000  0.14736   3.13
C03D  1  0.79435  0.92101  0.49012 11.00000  0.11193   3.13
HKLF 4
END
