TITL 2_a.res in P1
REM Old TITL 2 in P-1
REM SHELXT solution in P1: R1 0.352, Rweak 0.005, Alpha 0.000
REM <I/s>   0.000 for    0 systematic absences,  Orientation as input
REM Flack x = -0.034 ( 1.480 ) from    84 Parsons' quotients
REM Formula found by SHELXT:  C24 N10 O23 Cl4

CELL  0.71073   8.9000  14.4952  16.2200   90.000   90.000   76.254
ZERR   27.000   0.0018   0.0029   0.0032    0.030    0.030    0.030
LATT -1
SFAC C N O CL
UNIT 27 27 27 27
L.S. 10
BOND
LIST 6
FMAP 2
PLAN 20
CL01  4  0.99189  0.84374  0.73883 11.00000  0.18209  16.44
CL02  4  0.13951  0.48098  0.51373 11.00000  0.25355  12.94
CL03  4  0.94882  0.77136  0.75666 11.00000  0.18568  12.88
O004  3 -0.07858  0.26534  0.47673 11.00000  0.16387  12.48
C005  1  0.51435  0.84198  1.06065 11.00000  0.09864  12.45
O006  3  0.12035 -0.08096  0.09626 11.00000  0.09507  11.80
CL07  4  0.75749  1.09079  0.96518 11.00000  0.34336  11.23
C008  1  0.97679  0.91005  0.77855 11.00000  0.05729  11.22
O009  3  0.52423  0.40899  0.26506 11.00000  0.07642  11.21
O00A  3  0.25607  0.60559  0.46634 11.00000  0.18594  11.18
O00B  3  0.42673  0.27088  0.25948 11.00000  0.09934  11.01
O00C  3 -0.01210  0.34484  0.49274 11.00000  0.09324  10.74
O00D  3  0.13342  0.38893  0.58068 11.00000  0.10191  10.57
O00E  3  0.42915  0.77976  0.97462 11.00000  0.18140  10.17
N00F  2  0.45608  0.35274  0.22515 11.00000  0.11677   9.88
O00G  3  0.32785  0.07111  0.17952 11.00000  0.18744   9.54
O00H  3  0.07366  0.40466  0.07632 11.00000  0.11219   9.21
C00I  1  0.08654 -0.09079  0.15649 11.00000  0.09253   9.21
O00J  3  0.81395  0.46114  0.75004 11.00000  0.16193   9.17
O00K  3  0.65787  0.96650  0.97515 11.00000  0.08088   9.05
O00L  3  0.50676  0.84036  0.99440 11.00000  0.08181   9.04
O00M  3  1.05405  0.86465  0.87870 11.00000  0.16590   8.82
O00N  3  0.13691  0.41246  0.14677 11.00000  0.12567   8.62
O00O  3  0.65322  0.40929  0.58985 11.00000  0.10597   8.57
O00P  3  0.87504  0.19207  0.26043 11.00000  0.10625   8.39
O00Q  3  0.05228  0.40760 -0.04203 11.00000  0.17848   8.22
O00R  3  0.56602  0.91692  0.60245 11.00000  0.14167   8.05
N00S  2  0.54105  0.35446  0.39353 11.00000  0.06903   7.99
O00T  3  1.07858  0.92573  0.75691 11.00000  0.14413   7.73
O00U  3  0.59134  0.89807  1.10195 11.00000  0.14631   7.54
N00V  2  0.37478  0.17720  0.21875 11.00000  0.13236   7.28
C00W  1  0.62787  0.89451  0.54197 11.00000  0.10176   7.14
N00X  2  0.53682  0.90528  0.49605 11.00000  0.13227   7.12
N00Y  2  0.03204  0.35069  0.56852 11.00000  0.10874   6.92
N00Z  2  0.29749 -0.03398  0.24483 11.00000  0.11130   6.53
C010  1  0.65499  0.41345  0.67051 11.00000  0.08744   6.48
O011  3  0.18314  0.03632 -0.04811 11.00000  0.13522   6.35
N012  2  0.78428  0.56833  0.64896 11.00000  0.14608   6.29
C013  1  0.29998  0.36412  0.13071 11.00000  0.10000   6.10
N014  2  0.38443  0.69371  0.75247 11.00000  0.10471   6.07
C015  1  0.61075  0.92104  0.65667 11.00000  0.06429   5.99
C016  1  0.15326  0.45910  0.44118 11.00000  0.10684   5.79
N017  2  0.41162  0.78319  0.48079 11.00000  0.12363   5.76
C018  1  0.51707  0.36171  0.54667 11.00000  0.17150   5.36
C019  1  0.05655  0.40325  0.00967 11.00000  0.10838   5.28
C01A  1  0.80613  0.96370  0.89686 11.00000  0.05438   5.25
C01B  1  0.49162  0.25162  0.85728 11.00000  0.15615   5.18
C01C  1  0.57812  0.49955  0.85537 11.00000  0.25510   5.13
C01D  1  0.77543  0.57122  0.56676 11.00000  0.16436   4.85
C01E  1  0.33876  0.13110  0.26562 11.00000  0.06964   4.56
C01F  1  0.49276  0.33728  0.25360 11.00000  0.08855   4.55
C01G  1  0.62815  0.39266  0.35339 11.00000  0.06316   4.53
C01H  1  0.31930  0.47899  0.40850 11.00000  0.10271   4.53
C01I  1  0.45938  0.33454  0.92846 11.00000  0.24277   4.43
C01J  1  0.74150  0.88443  0.65151 11.00000  0.08344   4.37
C01K  1  0.70009  0.54026  0.44822 11.00000  0.12970   4.27
C01L  1  0.82907  0.68235  0.70424 11.00000  0.16568   4.02
N01M  2 -0.06533  0.28665 -0.00975 11.00000  0.16798   3.86
O01N  3  0.83807  0.63163  0.76822 11.00000  0.14720   3.66
C01O  1  0.06687  0.47362  0.24427 11.00000  0.09803   3.45
C01P  1  0.20864  0.08526 -0.10195 11.00000  0.14732   3.44
HKLF 4
END
