TITL 30_a.res in P1
REM Old TITL 30 in P-1
REM SHELXT solution in P1: R1 0.692, Rweak 0.014, Alpha 0.000
REM <I/s>   0.000 for    0 systematic absences,  Orientation as input
REM Flack x = -9.990 ( 9.990 ) from     2 Parsons' quotients
REM Formula found by SHELXT:  C47 N26 O24 Cl

CELL  0.71073   8.8600  14.6685  15.8900   90.000   90.000   76.889
ZERR   27.000   0.0018   0.0029   0.0032    0.030    0.030    0.030
LATT -1
SFAC C N O CL
UNIT 27 27 27 27
L.S. 10
BOND
LIST 6
FMAP 2
PLAN 20
N001  2  0.57759  1.10358  0.69489 11.00000  0.04041  12.10
O002  3  0.04074  0.08620  0.83679 11.00000  0.12318  11.71
N003  2 -0.23522 -0.15079  0.28674 11.00000  0.06675  11.26
O004  3  0.12449  0.60849  0.16681 11.00000  0.11099  11.15
O005  3  0.36645  0.39081  0.78979 11.00000  0.07583  11.06
N006  2  0.51577  0.58683  0.33934 11.00000  0.09653  10.90
N007  2  0.61684  1.15173  0.71971 11.00000  0.15150  10.77
N008  2  0.84343  0.41021  0.78876 11.00000  0.03208  10.25
N009  2  0.10370  0.40780  0.42702 11.00000  0.12307  10.10
C00A  1  0.45133  0.51941  0.81564 11.00000  0.05214   9.82
O00B  3  0.66137  1.19081  0.81409 11.00000  0.10519   9.74
CL0C  4  0.08807  0.13568  0.96590 11.00000  0.25528   9.73
O00D  3  0.60820  0.90568  0.91957 11.00000  0.17938   9.60
O00E  3  0.57883  0.66294  0.47102 11.00000  0.15769   9.56
N00F  2  0.11103  0.63955  0.21958 11.00000  0.11073   9.52
O00G  3 -0.04571  0.03078  0.30882 11.00000  0.10997   9.47
N00H  2  0.31633 -0.06703  0.29361 11.00000  0.05425   9.28
O00I  3  0.32690 -0.13860  0.23896 11.00000  0.07320   8.98
O00J  3  0.83488  0.34871  0.73544 11.00000  0.05392   8.94
N00K  2 -0.20936 -0.19081  0.23441 11.00000  0.08562   8.66
O00L  3  0.14553  0.21573  0.82974 11.00000  0.16649   8.40
O00M  3  0.15922  0.69363  0.31119 11.00000  0.18469   8.34
N00N  2  0.10851  0.12702  0.80709 11.00000  0.08230   8.33
O00O  3  0.25544  0.32316  0.70506 11.00000  0.06659   8.30
O00P  3  0.56789  0.25159  0.18352 11.00000  0.16587   8.08
O00Q  3  0.61474  0.32777  0.08035 11.00000  0.12309   8.05
O00R  3 -0.13428 -0.07291  0.28689 11.00000  0.18105   7.88
O00S  3  0.88981  0.47289  0.85036 11.00000  0.10647   7.82
N00T  2  0.14525  0.44823  0.37056 11.00000  0.22600   7.78
N00U  2  0.65335  1.12707  0.66729 11.00000  0.11194   7.73
O00V  3  0.97324  0.48989  0.70052 11.00000  0.13526   7.70
O00W  3  0.46004 -0.00703  0.19813 11.00000  0.11374   7.68
O00X  3  1.11284  0.82237  0.57298 11.00000  0.12373   7.60
C00Y  1  0.59932  1.06889  0.65836 11.00000  0.07903   7.58
N00Z  2 -0.13025 -0.13431  0.27789 11.00000  0.05946   7.54
N010  2 -0.05203 -0.00375  0.43408 11.00000  0.13509   7.44
C011  1  0.04554  0.08735  0.46514 11.00000  0.19199   7.25
N012  2  0.00453  0.15491  0.50456 11.00000  0.16689   7.15
N013  2  0.42877  0.49894  0.93230 11.00000  0.13621   7.10
N014  2  0.61485  0.69765  0.29316 11.00000  0.11492   7.09
N015  2  1.07317  0.74475  0.68186 11.00000  0.15293   7.08
N016  2  0.28815  0.34428  0.77586 11.00000  0.09362   7.06
N017  2  0.61145  0.48342  0.35452 11.00000  0.15541   7.05
N018  2  0.53477  0.64625  0.99655 11.00000  0.13551   7.01
N019  2  0.59266  0.95266  0.84589 11.00000  0.06826   7.00
C01A  1  0.94110  0.58827  0.80257 11.00000  0.07154   6.98
N01B  2 -0.01514  0.51522  0.11565 11.00000  0.14449   6.94
C01C  1  0.37030 -0.10248  0.22598 11.00000  0.05568   6.88
C01D  1  0.57791  0.61164  0.45618 11.00000  0.08994   6.83
C01E  1  0.08773  0.58239  0.19939 11.00000  0.09784   6.78
N01F  2  0.88043  0.39575  0.72622 11.00000  0.07635   6.51
C01G  1  0.06668 -0.01930  0.29420 11.00000  0.09406   6.44
C01H  1  0.61491  0.71313  0.35507 11.00000  0.13953   6.36
C01I  1  0.59299  0.62541  0.31743 11.00000  0.09926   6.23
C01J  1  0.58628  1.02614  0.81727 11.00000  0.05416   6.20
C01K  1  0.49056  0.56612  0.95365 11.00000  0.22411   6.17
C01L  1 -0.25068 -0.16629  0.18143 11.00000  0.07111   6.16
C01M  1  0.11300  0.35664  0.39922 11.00000  0.17578   6.11
C01N  1  0.05458  0.03575  0.28692 11.00000  0.11719   5.96
C01O  1  0.47908  0.97152  0.69382 11.00000  0.02610   5.95
C01P  1  0.35567 -0.00136  0.35281 11.00000  0.02035   5.89
C01Q  1  1.05709  0.66933  0.70496 11.00000  0.11952   5.86
C01R  1  0.12806  0.50520  0.30817 11.00000  0.10882   5.83
C01S  1  0.46161  1.00742  0.63582 11.00000  0.02585   5.82
C01T  1  0.11917  0.38190  0.50982 11.00000  0.09473   5.75
C01U  1  0.10640 -0.03419  0.86261 11.00000  0.06496   5.70
C01V  1  0.57090  0.74783  0.96205 11.00000  0.07854   5.59
C01W  1  0.53769  0.16905  0.20464 11.00000  0.14529   5.54
C01X  1  0.09800  0.24040  0.50448 11.00000  0.03099   5.52
C01Y  1  0.13689  0.18402  0.68853 11.00000  0.03642   5.44
C01Z  1  0.41609  0.09346  0.27270 11.00000  0.08404   5.42
C020  1 -0.00962  0.47982  0.17884 11.00000  0.06973   5.20
O021  3  0.55390  0.49561  0.79276 11.00000  0.15909   5.12
C022  1  0.08033  0.45082  0.33852 11.00000  0.12495   5.02
N023  2  0.44150  0.15377  0.35735 11.00000  0.11264   4.99
C024  1  0.07012  0.25935  0.42455 11.00000  0.13190   4.97
C025  1  0.64577  0.68727  0.19731 11.00000  0.06171   4.96
C026  1  0.72009  0.30202  0.19707 11.00000  0.16554   4.81
C027  1  0.58678  0.14825  0.06898 11.00000  0.07480   4.74
C028  1  1.25068  0.79337  0.70946 11.00000  0.14816   4.73
C029  1  1.09098  0.64379  0.56828 11.00000  0.07492   4.53
O02A  3  0.95726  0.65278  0.85526 11.00000  0.16651   4.48
C02B  1  1.09073  0.72125  0.81895 11.00000  0.20578   4.47
C02C  1  0.38357  0.62408  0.20806 11.00000  0.06944   4.44
C02D  1  1.01934  0.63691  0.95899 11.00000  0.11172   4.40
O02E  3  0.42208  0.50451  0.19099 11.00000  0.30908   4.39
C02F  1  0.57615  0.22626  0.28933 11.00000  0.09207   4.23
C02G  1  0.51751  0.13870  0.46046 11.00000  0.13566   4.17
C02H  1  0.97529  1.01155  0.69908 11.00000  0.13629   3.69
C02I  1  0.86637  1.13120  0.70624 11.00000  0.08603   3.60
C02J  1  0.36307  0.15286  0.46767 11.00000  0.13216   3.49
N02K  2  1.04436  0.60569  0.50879 11.00000  0.07237   3.47
C02L  1  0.62292  0.45728  0.19827 11.00000  0.28862   3.47
O02M  3  0.54262  0.09949  0.00345 11.00000  0.17582   3.37
O02N  3  0.55287  0.53639  0.77459 11.00000  0.39427   3.18
C02O  1  0.66404  0.64872  0.62395 11.00000  0.28339   3.05
C02P  1  0.86450  0.64355  0.96906 11.00000  0.08367   3.05
C02Q  1  0.66342  0.59958  0.75835 11.00000  0.38513   3.02
HKLF 4
END
