TITL 31_a.res in P1
REM Old TITL 31 in P-1
REM SHELXT solution in P1: R1 0.840, Rweak 0.007, Alpha 0.000
REM <I/s>   0.000 for    0 systematic absences,  Orientation as input
REM Flack x = -9.990 ( 9.990 ) from    20 Parsons' quotients
REM Formula found by SHELXT:  C107 N47 O10

CELL  0.71073   8.9300  14.5111  16.0000   90.000   90.000   76.227
ZERR   27.000   0.0018   0.0029   0.0032    0.030    0.030    0.030
LATT -1
SFAC C N O CL
UNIT 27 27 27 27
L.S. 10
BOND
LIST 6
FMAP 2
PLAN 20
O001  3  0.42152  0.87317  0.17009 11.00000  0.04616  11.53
N002  2  0.91031  0.39534  0.66893 11.00000  0.04096  11.20
N003  2  0.97104  0.32965  0.84650 11.00000  0.12304  11.20
N004  2  0.38864  0.38110  0.48945 11.00000  0.12038  10.83
N005  2  0.82384  0.84667  0.61023 11.00000  0.05764  10.77
N006  2 -0.20140  0.78866 -0.03746 11.00000  0.04369  10.71
N007  2  0.37227  0.83833  0.02149 11.00000  0.07352  10.64
N008  2  0.33021  0.35364  1.11372 11.00000  0.03615  10.61
N009  2  0.90956  0.87173  0.53256 11.00000  0.09483  10.53
C00A  1  0.30143  0.30495  0.45403 11.00000  0.01517  10.43
N00B  2  0.44056  0.39220  1.00548 11.00000  0.07267  10.37
N00C  2 -0.09830  0.86578  0.00708 11.00000  0.04093  10.11
N00D  2  1.26507  0.71471  0.92953 11.00000  0.06563   9.91
C00E  1  0.56981  0.87151  0.27586 11.00000  0.10267   9.66
N00F  2  0.45061  0.93584  0.18562 11.00000  0.10900   9.30
N00G  2  0.47556  0.81670  0.32648 11.00000  0.05112   9.15
N00H  2 -0.02793  0.92635 -0.01135 11.00000  0.05146   9.12
C00I  1  0.76495  0.24223  0.42926 11.00000  0.04759   8.91
O00J  3  1.19313  0.63644  0.96660 11.00000  0.06383   8.89
N00K  2  1.00832  0.38766  0.76262 11.00000  0.08833   8.76
N00L  2  0.85982  0.39272  0.46883 11.00000  0.05618   8.57
N00M  2  0.35498  0.35290  1.04688 11.00000  0.07646   8.56
N00N  2  0.95709  0.88332  0.48019 11.00000  0.14082   8.49
C00O  1  0.49757  0.49489  0.99882 11.00000  0.18209   7.97
N00P  2  0.91311  0.36382  0.55214 11.00000  0.08177   7.91
C00Q  1  0.50420  0.35563  0.97197 11.00000  0.00354   7.72
N00R  2  0.21014  0.15715  0.45841 11.00000  0.04522   7.69
N00S  2  0.86053  0.33056  0.50365 11.00000  0.04101   7.62
O00T  3 -0.11230  0.87506  0.06598 11.00000  0.10216   7.56
C00U  1  0.64703  0.11789  0.47745 11.00000  0.02807   7.55
N00V  2  0.47189  0.51321  0.44883 11.00000  0.07824   7.42
N00W  2  0.76389  0.37489  0.57275 11.00000  0.04494   7.42
N00X  2  0.55765  0.45544  0.94591 11.00000  0.11848   7.31
N00Y  2  0.39174  0.37092  0.54902 11.00000  0.07904   7.21
N00Z  2  0.75706  0.23046  0.48669 11.00000  0.05974   7.07
N010  2  0.92129  0.30849  0.77985 11.00000  0.11706   7.04
N011  2  0.98498  0.88771  0.41348 11.00000  0.04791   7.04
C012  1  0.38346  0.87592 -0.03838 11.00000  0.05595   6.98
N013  2  0.39043  0.82851 -0.13333 11.00000  0.12031   6.97
N014  2 -0.30492  0.66151 -0.03271 11.00000  0.05463   6.94
N015  2  0.50333  0.38171  0.91197 11.00000  0.03737   6.94
N016  2 -0.23014  0.85162 -0.05367 11.00000  0.09740   6.83
C017  1 -0.23289  0.73313 -0.02041 11.00000  0.11795   6.75
N018  2  0.20773  0.39664  1.11676 11.00000  0.04121   6.71
C019  1  0.27097  0.24890  0.45885 11.00000  0.04613   6.69
C01A  1  0.94094  0.28726  0.82764 11.00000  0.03364   6.63
N01B  2  0.24133  0.87660  0.06807 11.00000  0.00971   6.63
N01C  2  0.98375  0.98923  0.47895 11.00000  0.07792   6.52
N01D  2  0.46530  0.21933  0.78636 11.00000  0.01535   6.51
C01E  1  0.26363  0.86842  0.00307 11.00000  0.04031   6.49
C01F  1  0.73412  0.37906  0.50322 11.00000  0.06511   6.49
C01G  1  0.23260  0.20728  0.42077 11.00000  0.03026   6.45
C01H  1  0.97040  0.47452  0.34783 11.00000  0.01448   6.40
C01I  1  0.86563  0.31260  0.36545 11.00000  0.06996   6.25
C01J  1  0.86160  0.81533  0.54803 11.00000  0.05255   6.08
C01K  1  0.45829  0.00835  0.83926 11.00000  0.03832   6.07
C01L  1  1.25095  0.70692  0.98771 11.00000  0.06172   6.06
C01M  1  0.91048  0.15697  0.83801 11.00000  0.04954   6.06
C01N  1  0.89497  0.35958  0.67980 11.00000  0.04789   5.97
C01O  1  0.45416  0.43941  0.48992 11.00000  0.04893   5.94
C01P  1  1.01035  0.48419  0.73583 11.00000  0.04793   5.92
C01Q  1  0.44241  0.07933  0.88486 11.00000  0.06651   5.91
C01R  1  0.52437  0.97272  0.19936 11.00000  0.04522   5.81
C01S  1  0.70479  0.89861  0.62544 11.00000  0.03636   5.78
N01T  2  1.05079  1.04207  0.52022 11.00000  0.06186   5.70
C01U  1  0.94655  0.55383  0.45181 11.00000  0.03833   5.61
C01V  1  1.01829  0.52258  0.31471 11.00000  0.08350   5.59
O01W  3  0.26009  0.33199  0.45930 11.00000  0.16731   5.54
O01X  3  0.99486  0.45252  0.96861 11.00000  0.08299   5.47
C01Y  1  0.70902  0.38837  0.64532 11.00000  0.02868   5.46
C01Z  1  0.90848  0.60024  0.40662 11.00000  0.08749   5.42
N020  2  0.70346  0.16879  0.44881 11.00000  0.11757   5.41
C021  1  0.40407  0.06146  0.84242 11.00000  0.10546   5.40
C022  1  0.95077  0.09888  0.82619 11.00000  0.10558   5.39
C023  1  0.43970  0.15824  0.81589 11.00000  0.08464   5.31
C024  1  1.20346  0.55219  0.87200 11.00000  0.07178   5.29
C025  1  0.48601 -0.04207  0.46111 11.00000  0.03905   5.26
O026  3  1.22974  0.68748  0.71886 11.00000  0.09188   5.26
O027  3  0.47762  0.93034  0.68035 11.00000  0.13092   5.24
C028  1  0.57887  0.50241  0.87569 11.00000  0.06582   5.21
C029  1  0.40782  0.13206  0.89980 11.00000  0.04893   5.21
C02A  1  0.90382  0.55804  0.34033 11.00000  0.00743   5.20
C02B  1  0.48631  0.34944  1.04628 11.00000  0.01553   5.20
C02C  1  0.54147  0.37363  0.83994 11.00000  0.07016   5.16
C02D  1  0.93781  0.69277  0.32059 11.00000  0.06404   5.12
C02E  1  0.43046  0.59920  0.29098 11.00000  0.07553   5.10
C02F  1  0.46099  0.92141  0.72339 11.00000  0.05552   5.09
C02G  1  0.43906  0.31234  1.01732 11.00000  0.00822   4.96
C02H  1  0.91782  0.44157  0.17417 11.00000  0.09518   4.96
C02I  1  0.95273  0.42030  0.23686 11.00000  0.09920   4.93
C02J  1  0.73836  0.22626  0.26092 11.00000  0.05562   4.92
C02K  1  0.52357  0.43291  0.89119 11.00000  0.06376   4.91
C02L  1  1.23711  0.74742  0.78507 11.00000  0.04567   4.88
C02M  1  1.00311  0.98654  0.56422 11.00000  0.08881   4.81
C02N  1  0.67255  0.57368  0.79088 11.00000  0.08978   4.79
C02O  1 -0.03906  1.02522 -0.05363 11.00000  0.01441   4.76
C02P  1  0.35156  0.80715  0.30632 11.00000  0.06135   4.75
C02Q  1  0.44794  0.38488  1.13333 11.00000  0.04510   4.72
C02R  1  1.06170  0.46522  0.80860 11.00000  0.03322   4.70
C02S  1 -0.27464  0.71773 -0.06043 11.00000  0.06839   4.66
C02T  1  0.13295  0.88558 -0.01807 11.00000  0.02244   4.65
N02U  2  0.95444  0.36809  0.35548 11.00000  0.14241   4.59
N02V  2  0.46306  0.68929  0.57217 11.00000  0.04915   4.59
C02W  1  1.08492  1.03272  0.46214 11.00000  0.05710   4.57
C02X  1  0.72129  0.20517  0.20547 11.00000  0.04109   4.55
C02Y  1  1.07861  0.98653  0.37608 11.00000  0.07162   4.50
O02Z  3  0.62701  0.60047  0.74524 11.00000  0.12764   4.46
C030  1  0.96082  0.71854  0.26984 11.00000  0.04712   4.42
C031  1  0.32961  0.21560  0.60703 11.00000  0.17634   4.38
O032  3  0.01812  1.00197  0.07005 11.00000  0.06289   4.33
C033  1  0.80721  0.28390  0.23019 11.00000  0.01679   4.33
C034  1  0.19758  0.09903  0.37751 11.00000  0.06631   4.33
C035  1  0.96297  0.56062  0.38722 11.00000  0.05401   4.33
C036  1  0.91223  0.37907  0.20329 11.00000  0.07183   4.27
N037  2  0.42238  0.62477  0.32853 11.00000  0.05224   4.25
C038  1  1.07011  0.94460  0.43901 11.00000  0.06465   4.22
C039  1  1.02477  0.87338  0.33823 11.00000  0.06031   4.16
N03A  2  0.50108  0.97211  0.25463 11.00000  0.09585   4.16
C03B  1 -0.26006  0.72771  0.08436 11.00000  0.03067   4.10
C03C  1  0.46842  0.37076  0.66785 11.00000  0.07302   4.09
C03D  1  0.50872  0.76408  0.33894 11.00000  0.04038   4.07
C03E  1  0.40961  0.67043  0.33061 11.00000  0.04024   4.06
C03F  1  0.86375  0.18994  0.80759 11.00000  0.14032   4.02
C03G  1  0.93800  0.23681  0.89050 11.00000  0.06455   4.02
C03H  1  0.93856  0.65302  0.40706 11.00000  0.05731   4.00
C03I  1  0.22609  0.21786  0.59140 11.00000  0.09800   3.97
C03J  1  0.35630  0.50429  0.48103 11.00000  0.11326   3.95
C03K  1  0.89431  0.10856  0.74006 11.00000  0.07792   3.95
C03L  1  0.91180  0.50730  0.38351 11.00000  0.08987   3.94
N03M  2  1.06158  0.56251  0.84200 11.00000  0.07437   3.94
N03N  2  1.01188  0.46162  0.69112 11.00000  0.13252   3.93
C03O  1  0.91627  0.86340  0.64816 11.00000  0.09396   3.89
C03P  1  1.05129  0.85924  0.46757 11.00000  0.03871   3.85
C03Q  1  0.11255  0.12966  0.29015 11.00000  0.08540   3.84
C03R  1  0.94299  0.18335  0.08251 11.00000  0.08610   3.84
C03S  1 -0.08503  0.93513  0.06794 11.00000  0.13339   3.77
C03T  1  0.67722  0.64691  0.80410 11.00000  0.07119   3.75
C03U  1  0.43435  0.05576  0.95293 11.00000  0.15052   3.71
C03V  1  0.49429  0.49702  0.55616 11.00000  0.07077   3.61
C03W  1  0.89042  0.77773  0.45872 11.00000  0.14871   3.59
C03X  1  0.41006  0.41742  0.58363 11.00000  0.07777   3.55
C03Y  1 -0.23278  0.65648  0.20481 11.00000  0.13515   3.55
N03Z  2  0.56655  0.63687  1.07681 11.00000  0.13609   3.54
C040  1  1.06608  0.92342  0.39601 11.00000  0.04237   3.52
C041  1  0.18337  0.18124  0.48907 11.00000  0.03250   3.47
C042  1  0.59617  0.95396  0.32392 11.00000  0.04880   3.44
C043  1  0.45351  0.58595  0.44422 11.00000  0.09580   3.40
C044  1  0.19962  0.06996  0.28361 11.00000  0.06079   3.37
C045  1  1.03348  0.84853  0.37717 11.00000  0.11816   3.35
C046  1  0.44679  0.44437  0.72673 11.00000  0.15862   3.31
N047  2  0.91167  0.10662  0.80050 11.00000  0.05562   3.31
C048  1  0.56542  0.53465  0.99566 11.00000  0.09591   3.29
C049  1  0.46582  0.48540  1.08601 11.00000  0.04860   3.22
C04A  1  0.98035  0.96530  0.63077 11.00000  0.11207   3.16
C04B  1  0.29158  0.16475  0.69838 11.00000  0.06774   3.14
C04C  1  1.01608  0.49954  1.00416 11.00000  0.06151   3.13
C04D  1  0.56367  1.02769  0.33575 11.00000  0.04236   3.11
N04E  2  0.80027  0.28680  0.14832 11.00000  0.10732   3.11
C04F  1  0.52068  0.00188  0.49615 11.00000  0.05254   3.08
C04G  1  0.21156  0.88412  0.13530 11.00000  0.03552   3.07
C04H  1  1.30492  0.79468  0.72424 11.00000  0.06434   3.06
C04I  1  0.58646  0.40952  0.48832 11.00000  0.08363   3.05
C04J  1  0.41161  0.20400  0.75819 11.00000  0.08800   3.05
O04K  3  0.91570  0.89093  0.71383 11.00000  0.08014   3.02
HKLF 4
END
