TITL 5_a.res in P1
REM Old TITL 5 in P-1
REM SHELXT solution in P1: R1 0.250, Rweak 0.038, Alpha 0.000
REM <I/s>   0.000 for    0 systematic absences,  Orientation as input
REM Flack x = -0.493 ( 0.878 ) from    47 Parsons' quotients
REM Formula found by SHELXT:  C9 N6 O8 Cl

CELL  0.71073   7.2465   9.0200   9.2360   60.771   83.070   75.694
ZERR    6.000   0.0014   0.0018   0.0018    0.030    0.030    0.030
LATT -1
SFAC C N O CL
UNIT 6 6 6 6
L.S. 10
BOND
LIST 6
FMAP 2
PLAN 20
CL01  4  0.73708  0.20136  0.82488 11.00000  0.17751  16.08
N002  2  0.69143  0.25852  0.68343 11.00000  0.13176  10.69
N003  2  0.73867  0.40710  0.41090 11.00000  0.10907  10.11
O004  3  1.02907  0.54613  0.41039 11.00000  0.15131   9.41
O005  3  0.57365  0.59734 -0.11974 11.00000  0.16936   9.14
O006  3  0.80250  0.73506 -0.13710 11.00000  0.18152   8.97
C007  1  0.72696  0.12427  0.96196 11.00000  0.10211   8.78
N008  2  0.32074  0.82478  0.18124 11.00000  0.22500   8.60
O009  3  0.25967  0.82063 -0.01992 11.00000  0.18479   8.58
O00A  3  0.33619  0.69061  0.14181 11.00000  0.20318   8.25
N00B  2  0.31867  0.93993 -0.01313 11.00000  0.16051   7.67
O00C  3  0.72021  0.04401  1.14156 11.00000  0.14289   7.37
O00D  3  0.58020  0.45625  0.16093 11.00000  0.19018   7.24
N00E  2  0.62947  0.27846  0.46180 11.00000  0.16621   6.91
N00F  2  0.16696  1.15326  0.37806 11.00000  0.12997   6.59
C00G  1  0.01331  1.18530  0.20900 11.00000  0.17947   6.17
C00H  1  0.41575  0.64692 -0.35823 11.00000  0.08855   6.00
C00I  1  0.57728 -0.18530  1.35823 11.00000  0.15927   5.89
C00J  1 -0.02907  0.99870  0.41517 11.00000  0.21988   5.39
C00K  1  0.46181  0.27856  0.41636 11.00000  0.15232   4.85
C00L  1  0.57463  0.38431  0.51272 11.00000  0.16588   4.75
C00M  1  0.74913  0.15297  0.62120 11.00000  0.09056   4.51
C00N  1  0.60355  0.53719 -0.01952 11.00000  0.13477   4.50
O00O  3  0.17430  0.92881  0.23298 11.00000  0.22378   3.57
HKLF 4
END
