TITL SP14R08_expF_0_8_expS_0_8_SP14R08_b.res in Pn
REM Old TITL SP14R08 in P2(1)/n
REM SHELXT solution in Pn: R1 0.228, Rweak 0.118, Alpha 0.068
REM <I/s>   1.169 for  101 systematic absences,  Orientation as input
REM Formula found by SHELXT:  C12 N5 O4

CELL  0.71073   7.0200   9.2700  11.5600   90.000   97.670   90.000
ZERR   16.000   0.0014   0.0019   0.0023    0.000    0.030    0.000
LATT -1
SYMM 1/2+X, -Y, 1/2+Z
SFAC C H N O
UNIT 16 16 16 16
L.S. 10
BOND
LIST 6
FMAP 2
PLAN 20
O001  4  0.54150  0.70290  0.38925 11.00000  0.02497   9.30
O002  4  0.58965  0.85023  0.22640 11.00000  0.00224   9.07
C003  1  0.31725  0.73358  0.77060 11.00000  0.01728   7.77
N004  3  0.75945  0.60684  0.56815 11.00000  0.00315   7.30
N005  3  0.54424  1.08589  0.49953 11.00000  0.02923   7.30
O006  4  0.14812  0.74103  0.74123 11.00000  0.02430   6.98
N007  3  0.63728  0.42673  0.68112 11.00000  0.01742   6.96
N008  3  0.40463  0.90403  0.60790 11.00000  0.02466   6.59
N009  3  0.65765  0.32359  0.77360 11.00000  0.01785   6.52
C00A  1  0.77834  0.51395  0.66031 11.00000  0.02831   6.33
C00B  1  0.55757  0.98924  0.59122 11.00000  0.02756   6.31
C00C  1  0.21889  0.98571  0.44127 11.00000  0.01421   5.84
C00D  1  0.32640  1.17281  0.33004 11.00000  0.01628   5.74
O00E  4  0.85188  0.75561  0.35962 11.00000  0.03180   5.63
C00F  1  0.58009  0.61476  0.48406 11.00000  0.01908   4.72
C00G  1  0.43743  0.51612  0.50978 11.00000  0.01214   4.40
C00H  1  0.67841  0.76150  0.32992 11.00000  0.01630   4.34
C00I  1  0.46465  0.42847  0.60983 11.00000  0.02285   4.15
C00J  1  0.37971  1.08912  0.42208 11.00000  0.02215   4.02
C00K  1  0.24463  0.88730  0.54136 11.00000  0.07437   4.00
C00L  1  0.43339  0.80338  0.70864 11.00000  0.01683   3.21
HKLF 4
END
