TITL SP14R08_expF_1_5_expS_0_7_SP14R08_a.res in P2(1)/n
REM Old TITL SP14R08 in P2(1)/n
REM SHELXT solution in P2(1)/n: R1 0.335, Rweak 0.018, Alpha 0.034
REM <I/s>   2.005 for  107 systematic absences,  Orientation as input
REM Formula found by SHELXT:  C9 N O

CELL  0.71073   7.0200   9.2700  11.5600   90.000   97.670   90.000
ZERR   16.000   0.0014   0.0019   0.0023    0.000    0.030    0.000
LATT  1
SYMM 1/2-X, 1/2+Y, 1/2-Z
SFAC C H N O
UNIT 16 16 16 16
L.S. 10
BOND
LIST 6
FMAP 2
PLAN 20
N001  3  0.65797  0.07661  0.72029 11.00000  0.04653   6.56
C002  1  0.55102  0.44641  0.33935 11.00000  0.04161   6.38
C003  1  0.77835  0.26434  0.60653 11.00000  0.05032   6.16
C004  1  0.58662  0.35720  0.43769 11.00000  0.04311   6.04
C005  1  0.46111  0.16940  0.55604 11.00000  0.05058   6.01
C006  1  0.67622  0.51487  0.27951 11.00000  0.05037   5.93
O007  4  0.85312  0.50401  0.30867 11.00000  0.06885   5.90
C008  1  0.63464  0.16723  0.62957 11.00000  0.04795   5.76
C009  1  0.75865  0.35860  0.51325 11.00000  0.05091   5.72
C00A  1  0.44161  0.26503  0.46096 11.00000  0.05451   5.70
C00B  1  0.59207  0.59715  0.17542 11.00000  0.05724   5.32
HKLF 4
END
