TITL SP14R08_expF_0_7_expS_1_5_SP14R08_a.res in Pn
REM Old TITL SP14R08 in P2(1)/n
REM SHELXT solution in Pn: R1 0.252, Rweak 0.196, Alpha 0.071
REM <I/s>   1.497 for   97 systematic absences,  Orientation as input
REM Formula found by SHELXT:  C12 N2 O6

CELL  0.71073   7.0200   9.2700  11.5600   90.000   97.670   90.000
ZERR   16.000   0.0014   0.0019   0.0023    0.000    0.030    0.000
LATT -1
SYMM 1/2+X, -Y, 1/2+Z
SFAC C H N O
UNIT 16 16 16 16
L.S. 10
BOND
LIST 6
FMAP 2
PLAN 20
N001  3  0.38062 -0.08236  0.37198 11.00000  0.00010  11.09
N002  3  0.59219  0.39335  0.44089 11.00000  0.00010  10.00
C003  1  0.68475  0.22718  0.28874 11.00000  0.00157   9.07
O004  4  0.41904  0.35257  0.82096 11.00000  0.01795   8.02
O005  4  0.34576 -0.17156  0.27971 11.00000  0.00914   7.69
O006  4  0.45383  0.19781  0.65223 11.00000  0.02019   7.61
O007  4  0.57650  0.01636  0.53794 11.00000  0.01119   7.31
O008  4  0.14955  0.25932  0.69287 11.00000  0.00320   6.70
C009  1  0.25648  0.11467  0.48629 11.00000  0.00538   6.28
O00A  4  0.85045  0.25212  0.31659 11.00000  0.03846   6.28
C00B  1  0.78587  0.48906  0.61736 11.00000  0.01689   5.97
C00C  1  0.22919  0.01256  0.39713 11.00000  0.00652   5.85
C00D  1  0.46410  0.57557  0.56043 11.00000  0.01147   5.62
C00E  1  0.56033  0.29834  0.33442 11.00000  0.00256   5.33
C00F  1  0.54993 -0.08953  0.45575 11.00000  0.02512   4.48
C00G  1  0.46973  0.50280  0.45597 11.00000  0.03513   4.38
C00H  1  0.77910  0.40268  0.51589 11.00000  0.02100   4.33
C00I  1  0.68245  0.67624  0.72242 11.00000  0.02637   3.92
C00J  1  0.60844  0.14989  0.17904 11.00000  0.01160   3.46
C00K  1  0.33224  0.25325  0.72577 11.00000  0.01379   3.30
HKLF 4
END
