TITL SP14R08_expF_0_7_expS_0_8_SP14R08_b.res in Pn
REM Old TITL SP14R08 in P2(1)/n
REM SHELXT solution in Pn: R1 0.258, Rweak 0.187, Alpha 0.130
REM <I/s>   1.133 for  101 systematic absences,  Orientation as input
REM Formula found by SHELXT:  C10 N O8

CELL  0.71073   7.0200   9.2700  11.5600   90.000   97.670   90.000
ZERR   16.000   0.0014   0.0019   0.0023    0.000    0.030    0.000
LATT -1
SYMM 1/2+X, -Y, 1/2+Z
SFAC C H N O
UNIT 16 16 16 16
L.S. 10
BOND
LIST 6
FMAP 2
PLAN 20
N001  3  0.08676  0.10449  0.43811 11.00000  0.00010  11.26
O002  4  0.27663  0.01571  0.60947 11.00000  0.00276  10.00
C003  1  0.87078  0.58129  0.36831 11.00000  0.00010   9.09
C004  1  0.81880  0.23785  0.71574 11.00000  0.00545   8.51
O005  4  0.17248 -0.16533  0.72720 11.00000  0.01296   7.96
O006  4  0.09193  0.34627  0.17548 11.00000  0.02681   7.92
O007  4  0.05416  0.20489  0.33964 11.00000  0.00960   7.70
O008  4  0.64381  0.24959  0.68993 11.00000  0.02743   7.49
O009  4 -0.03897 -0.07863  0.55359 11.00000  0.01411   6.83
C00A  1  0.94578  0.30873  0.66128 11.00000  0.02871   6.35
O00B  4  0.34894  0.26199  0.30852 11.00000  0.01135   6.06
C00C  1  0.25653  0.10629  0.51605 11.00000  0.01685   5.65
C00D  1 -0.06908  0.00665  0.45797 11.00000  0.00579   5.64
C00E  1  1.04631  0.47727  0.53893 11.00000  0.02561   5.62
C00F  1  0.73171  0.39394  0.48576 11.00000  0.02128   5.48
C00G  1  1.06908  0.57380  0.44334 11.00000  0.09063   4.93
C00H  1  0.91165  0.14491  0.82452 11.00000  0.01659   4.86
O00I  4  0.84810  0.69176  0.28793 11.00000  0.04047   4.32
C00J  1  0.17669  0.26658  0.27528 11.00000  0.01517   4.31
HKLF 4
END
