TITL SP14R08_expF_1_5_expS_1_0_SP14R08_b.res in Pn
REM Old TITL SP14R08 in P2(1)/n
REM SHELXT solution in Pn: R1 0.321, Rweak 0.016, Alpha 0.007
REM <I/s>   1.491 for  101 systematic absences,  Orientation as input
REM Formula found by SHELXT:  C14 N5 O3

CELL  0.71073   7.0200   9.2700  11.5600   90.000   97.670   90.000
ZERR   16.000   0.0014   0.0019   0.0023    0.000    0.030    0.000
LATT -1
SYMM 1/2+X, -Y, 1/2+Z
SFAC C H N O
UNIT 16 16 16 16
L.S. 10
BOND
LIST 6
FMAP 2
PLAN 20
O001  4  0.33506  1.17100  0.28167 11.00000  0.05053   8.28
C002  1  0.32164  0.74067  0.72105 11.00000  0.04572   7.53
N003  3  0.41582  0.89498  0.56650 11.00000  0.04685   7.45
N004  3  0.22292  0.98803  0.40071 11.00000  0.05579   7.25
N005  3  0.55149  0.70003  0.34111 11.00000  0.05074   7.24
O006  4  0.85308  0.75600  0.31324 11.00000  0.06145   6.82
N007  3  0.63091  0.41419  0.63534 11.00000  0.05548   6.69
N008  3  0.53432  1.08219  0.44871 11.00000  0.05085   6.66
C009  1  0.45785  0.42217  0.56250 11.00000  0.06359   6.40
C00A  1  0.44656  0.51967  0.46672 11.00000  0.04874   6.37
C00B  1  0.75758  0.60570  0.51741 11.00000  0.04130   6.33
C00C  1  0.58752  0.84989  0.17553 11.00000  0.05823   6.22
C00D  1  0.44833  0.80477  0.66219 11.00000  0.04154   6.02
C00E  1  0.78330  0.51773  0.61584 11.00000  0.05007   5.99
C00F  1  0.23914  0.89035  0.48955 11.00000  0.05690   5.59
C00G  1  0.56218  0.98914  0.54692 11.00000  0.05011   5.57
C00H  1  0.65628  0.32382  0.72470 11.00000  0.04245   5.47
O00I  4  0.14692  0.74515  0.69658 11.00000  0.06269   5.42
C00J  1  0.58890  0.60947  0.44208 11.00000  0.05179   5.22
C00K  1  0.36396  1.07944  0.37490 11.00000  0.05142   5.16
C00L  1  0.40429  0.65327  0.82447 11.00000  0.05296   4.86
C00M  1  0.67867  0.76776  0.28240 11.00000  0.04864   4.63
HKLF 4
END
