TITL SP14R08_expF_1_1_expS_1_0_SP14R08_a.res in P2(1)/n
REM Old TITL SP14R08 in P2(1)/n
REM SHELXT solution in P2(1)/n: R1 0.271, Rweak 0.041, Alpha 0.057
REM <I/s>   1.473 for  107 systematic absences,  Orientation as input
REM Formula found by SHELXT:  C10 O

CELL  0.71073   7.0200   9.2700  11.5600   90.000   97.670   90.000
ZERR   16.000   0.0014   0.0019   0.0023    0.000    0.030    0.000
LATT  1
SYMM 1/2-X, 1/2+Y, 1/2-Z
SFAC C H N O
UNIT 16 16 16 16
L.S. 10
BOND
LIST 6
FMAP 2
PLAN 20
C001  1  0.55020  0.55059  0.33929 11.00000  0.02688   6.41
C002  1  0.66274  0.92490  0.72159 11.00000  0.02476   6.30
C003  1  0.67874  0.48726  0.27880 11.00000  0.02910   6.19
O004  4  0.85139  0.49527  0.30851 11.00000  0.04973   6.12
C005  1  0.78220  0.73683  0.60967 11.00000  0.03158   6.09
C006  1  0.58733  0.64405  0.43827 11.00000  0.03030   5.95
C007  1  0.63310  0.82933  0.63017 11.00000  0.03169   5.91
C008  1  0.46331  0.82945  0.55557 11.00000  0.03515   5.75
C009  1  0.75845  0.64273  0.51429 11.00000  0.03113   5.70
C00A  1  0.43940  0.73611  0.45905 11.00000  0.03392   5.47
C00B  1  0.59235  0.39932  0.17649 11.00000  0.03414   5.33
HKLF 4
END
