TITL SP14R08_expF_0_8_expS_1_4_SP14R08_a.res in Pn
REM Old TITL SP14R08 in P2(1)/n
REM SHELXT solution in Pn: R1 0.243, Rweak 0.126, Alpha 0.047
REM <I/s>   1.413 for  101 systematic absences,  Orientation as input
REM Formula found by SHELXT:  C9 N3 O7

CELL  0.71073   7.0200   9.2700  11.5600   90.000   97.670   90.000
ZERR   16.000   0.0014   0.0019   0.0023    0.000    0.030    0.000
LATT -1
SYMM 1/2+X, -Y, 1/2+Z
SFAC C H N O
UNIT 16 16 16 16
L.S. 10
BOND
LIST 6
FMAP 2
PLAN 20
N001  3  0.90698  0.89432  0.56654 11.00000  0.00010  11.20
O002  4  0.12432  0.42008  0.63325 11.00000  0.00767  10.41
N003  3  0.82062  0.73568  0.72894 11.00000  0.01286   8.69
O004  4  0.71305  0.98446  0.39470 11.00000  0.00706   8.62
O005  4  0.94316  0.79484  0.66819 11.00000  0.01443   8.21
O006  4  0.81889  1.17024  0.27993 11.00000  0.01718   8.16
O007  4  0.34767  0.75680  0.30758 11.00000  0.02045   7.86
N008  3  0.07584  0.84923  0.17503 11.00000  0.01822   6.51
C009  1  1.03077  1.07750  0.44858 11.00000  0.00748   6.33
C00A  1 -0.06047  0.51925  0.46077 11.00000  0.02439   5.79
C00B  1  0.25850  0.60364  0.51664 11.00000  0.01085   5.79
O00C  4  0.64488  0.74061  0.69072 11.00000  0.01727   5.67
C00D  1  1.06047  0.99302  0.54320 11.00000  0.00605   5.60
O00E  4  0.89349  0.64833  0.82497 11.00000  0.02823   5.58
C00F  1  0.05448  0.68933  0.34930 11.00000  0.02057   5.44
C00G  1  0.73552  0.89546  0.48137 11.00000  0.02605   5.33
C00H  1 -0.05117  0.41292  0.55802 11.00000  0.03695   4.82
C00I  1  0.17477  0.76658  0.28898 11.00000  0.00962   4.60
C00J  1  0.14792  0.31873  0.72286 11.00000  0.01699   4.33
HKLF 4
END
