TITL SP14R08_expF_0_8_expS_0_5_SP14R08_b.res in Pn
REM Old TITL SP14R08 in P2(1)/n
REM SHELXT solution in Pn: R1 0.238, Rweak 0.113, Alpha 0.075
REM <I/s>   1.083 for  101 systematic absences,  Orientation as input
REM Formula found by SHELXT:  C13 N O6

CELL  0.71073   7.0200   9.2700  11.5600   90.000   97.670   90.000
ZERR   16.000   0.0014   0.0019   0.0023    0.000    0.030    0.000
LATT -1
SYMM 1/2+X, -Y, 1/2+Z
SFAC C H N O
UNIT 16 16 16 16
L.S. 10
BOND
LIST 6
FMAP 2
PLAN 20
O001  4  0.78206  0.01305  0.60945 11.00000  0.00995   9.26
O002  4  0.66324 -0.16497  0.72348 11.00000  0.01423   8.78
O003  4  0.46593 -0.08141  0.55448 11.00000  0.00826   7.79
O004  4  0.44370  0.29746  0.65797 11.00000  0.03357   7.55
O005  4  0.14889  0.24586  0.68867 11.00000  0.01847   7.40
C006  1  0.40634  0.39856  0.56149 11.00000  0.02049   6.77
N007  3  0.24458  0.39848  0.48947 11.00000  0.02888   6.65
C008  1  0.32717  0.23485  0.72160 11.00000  0.02047   6.21
C009  1  0.41314  0.14500  0.82341 11.00000  0.02130   6.19
C00A  1  0.68115  0.26154  0.28175 11.00000  0.01424   5.82
C00B  1  0.37044  0.57460  0.37009 11.00000  0.01953   5.47
C00C  1  0.43835  0.02084  0.45955 11.00000  0.01429   5.35
C00D  1  0.63753 -0.08767  0.63283 11.00000  0.01999   5.32
C00E  1  0.54577  0.19993  0.33600 11.00000  0.01262   5.12
O00F  4  0.85111  0.26098  0.30659 11.00000  0.05166   5.01
C00G  1  0.56082  0.49196  0.54259 11.00000  0.03617   4.99
C00H  1  0.76196  0.11140  0.52055 11.00000  0.02113   4.96
C00I  1  0.58313  0.11420  0.44059 11.00000  0.01125   4.53
C00J  1  0.59660  0.34573  0.17659 11.00000  0.01986   4.52
C00K  1  0.33839  0.68707  0.28032 11.00000  0.02851   3.39
HKLF 4
END
