TITL SP14R08_expF_1_5_expS_1_3_SP14R08_b.res in Pn
REM Old TITL SP14R08 in P2(1)/n
REM SHELXT solution in Pn: R1 0.327, Rweak 0.016, Alpha 0.012
REM <I/s>   1.638 for  101 systematic absences,  Orientation as input
REM Formula found by SHELXT:  C13 N6 O3

CELL  0.71073   7.0200   9.2700  11.5600   90.000   97.670   90.000
ZERR   16.000   0.0014   0.0019   0.0023    0.000    0.030    0.000
LATT -1
SYMM 1/2+X, -Y, 1/2+Z
SFAC C H N O
UNIT 16 16 16 16
L.S. 10
BOND
LIST 6
FMAP 2
PLAN 20
O001  4  0.45359  0.30507  0.66032 11.00000  0.06196   7.80
N002  3  0.24093  0.39191  0.48599 11.00000  0.04828   7.47
N003  3  0.36595  0.58425  0.36761 11.00000  0.05003   7.25
N004  3  0.58646  0.10271  0.43549 11.00000  0.04710   7.16
N005  3  0.33876  0.67371  0.27725 11.00000  0.04726   6.82
O006  4  0.85354  0.25756  0.30446 11.00000  0.05731   6.75
N007  3  0.66222 -0.17253  0.72088 11.00000  0.03998   6.71
N008  3  0.77473  0.01204  0.60307 11.00000  0.05665   6.52
C009  1  0.55303  0.48431  0.53529 11.00000  0.04588   6.40
C00A  1  0.67876  0.26355  0.28246 11.00000  0.04424   6.36
C00B  1  0.46497 -0.08222  0.55167 11.00000  0.03888   6.33
C00C  1  0.21354  0.48436  0.38757 11.00000  0.04556   6.33
C00D  1  0.54069  0.57546  0.43767 11.00000  0.05853   6.23
C00E  1  0.41427  0.14756  0.82391 11.00000  0.05974   5.76
C00F  1  0.43593  0.01384  0.45551 11.00000  0.04746   5.62
C00G  1  0.32133  0.23574  0.72029 11.00000  0.04609   5.44
O00H  4  0.14646  0.24592  0.68813 11.00000  0.05784   5.41
C00I  1  0.59429  0.34819  0.17609 11.00000  0.04693   5.25
C00J  1  0.41257  0.38797  0.56030 11.00000  0.04565   5.21
C00K  1  0.55669  0.19977  0.33974 11.00000  0.03548   5.15
C00L  1  0.63194 -0.08072  0.62788 11.00000  0.05273   4.67
C00M  1  0.75907  0.10843  0.51504 11.00000  0.05341   4.33
HKLF 4
END
