TITL SP14R08_expF_0_8_expS_0_9_SP14R08_c.res in P2(1)
REM Old TITL SP14R08 in P2(1)/n
REM SHELXT solution in P2(1): R1 0.245, Rweak 0.126, Alpha 0.136
REM <I/s>   1.601 for    6 systematic absences,  Orientation as input
REM Formula found by SHELXT:  C14 N3 O5

CELL  0.71073   7.0200   9.2700  11.5600   90.000   97.670   90.000
ZERR   16.000   0.0014   0.0019   0.0023    0.000    0.030    0.000
LATT -1
SYMM -X, 1/2+Y, -Z
SFAC C H N O
UNIT 16 16 16 16
L.S. 10
BOND
LIST 6
FMAP 2
PLAN 20
O001  4  0.19583  0.29218  0.90729 11.00000  0.02351   8.02
O002  4  0.39363  0.76275  0.43763 11.00000  0.01853   7.86
O003  4 -0.00727  0.38891  0.73810 11.00000  0.02368   7.83
N004  3  0.66679  0.61289  0.30849 11.00000  0.00323   7.82
O005  4  0.79263  0.42548  0.19498 11.00000  0.01596   7.77
N006  3 -0.03276  0.48917  0.64041 11.00000  0.01924   7.17
N007  3  0.61850  0.41856  0.12189 11.00000  0.01739   7.10
C008  1  0.07650  0.23997  0.97603 11.00000  0.02129   6.44
C009  1  0.57952  0.31879  0.02924 11.00000  0.01319   6.41
C00A  1  0.30937  0.49673  0.79444 11.00000  0.02153   6.21
C00B  1  0.08853  0.66621  0.52621 11.00000  0.00766   6.05
C00C  1  0.65980  0.85106  0.56879 11.00000  0.01804   6.02
C00D  1  0.56614  0.76344  0.46683 11.00000  0.00593   5.86
O00E  4 -0.09659  0.25253  0.94536 11.00000  0.03401   5.25
C00F  1  0.70018  0.68811  0.41467 11.00000  0.01617   5.17
C00G  1  0.47240  0.51672  0.13774 11.00000  0.02735   5.15
C00H  1  0.81165  0.52258  0.28715 11.00000  0.01373   4.96
C00I  1  0.15256  0.14894  1.07587 11.00000  0.01540   4.96
C00J  1  0.11705  0.57768  0.61744 11.00000  0.02564   4.60
C00K  1  0.14432  0.40488  0.81870 11.00000  0.04140   4.19
C00L  1  0.27679  0.59789  0.69684 11.00000  0.05755   3.75
C00M  1  0.48674  0.60278  0.23242 11.00000  0.02616   3.73
HKLF 4
END
