TITL SP14R08_expF_1_0_expS_1_0_SP14R08_c.res in P2(1)
REM Old TITL SP14R08 in P2(1)/n
REM SHELXT solution in P2(1): R1 0.244, Rweak 0.061, Alpha 0.150
REM <I/s>   2.378 for    6 systematic absences,  Orientation as input
REM Formula found by SHELXT:  C17 N O4

CELL  0.71073   7.0200   9.2700  11.5600   90.000   97.670   90.000
ZERR   16.000   0.0014   0.0019   0.0023    0.000    0.030    0.000
LATT -1
SYMM -X, 1/2+Y, -Z
SFAC C H N O
UNIT 16 16 16 16
L.S. 10
BOND
LIST 6
FMAP 2
PLAN 20
O001  4  0.69508  0.49455  0.20421 11.00000  0.04437   7.82
O002  4  0.80348  0.29754  0.09154 11.00000  0.03658   7.75
N003  3  0.72105  0.58704  0.30410 11.00000  0.02906   6.96
C004  1  0.92611  0.23320  0.03131 11.00000  0.02393   6.61
C005  1  0.83921  0.40659  0.18349 11.00000  0.03248   6.36
O006  4  0.60119  0.75366  0.55997 11.00000  0.03024   6.30
C007  1  0.52940  0.51243  0.86024 11.00000  0.02645   6.27
C008  1  0.91125  0.67873  0.47156 11.00000  0.01921   6.19
C009  1  0.38706  0.41843  0.88424 11.00000  0.03534   6.02
O00A  4  1.10386  0.24123  0.05743 11.00000  0.05754   5.99
C00B  1  0.41805  0.32999  0.97335 11.00000  0.02271   5.94
C00C  1  1.00400  0.38934  0.26243 11.00000  0.02650   5.69
C00D  1  0.33799  0.85136  0.42618 11.00000  0.03168   5.64
C00E  1  1.03730  0.48587  0.36077 11.00000  0.03061   5.51
C00F  1  0.33649  0.61680  0.69178 11.00000  0.01659   5.18
C00G  1  0.51310  0.60210  0.76687 11.00000  0.02535   5.18
C00H  1  0.88174  0.57812  0.37795 11.00000  0.02224   5.15
C00I  1  0.84830  0.14864 -0.07191 11.00000  0.02855   5.08
C00J  1  0.43013  0.75760  0.52828 11.00000  0.02722   5.07
C00K  1  0.29881  0.69571  0.58586 11.00000  0.02808   4.82
C00L  1  0.19978  0.43409  0.80802 11.00000  0.03952   4.47
C00M  1  0.18322  0.52667  0.71409 11.00000  0.03317   3.03
HKLF 4
END
