TITL SP14R08_expF_1_2_expS_1_0_SP14R08_a.res in P2(1)/n
REM Old TITL SP14R08 in P2(1)/n
REM SHELXT solution in P2(1)/n: R1 0.279, Rweak 0.030, Alpha 0.081
REM <I/s>   1.614 for  107 systematic absences,  Orientation as input
REM Formula found by SHELXT:  C10 O

CELL  0.71073   7.0200   9.2700  11.5600   90.000   97.670   90.000
ZERR   16.000   0.0014   0.0019   0.0023    0.000    0.030    0.000
LATT  1
SYMM 1/2-X, 1/2+Y, 1/2-Z
SFAC C H N O
UNIT 16 16 16 16
L.S. 10
BOND
LIST 6
FMAP 2
PLAN 20
C001  1  0.55064  0.55233  0.33990 11.00000  0.03211   6.37
C002  1  0.66175  0.92431  0.72149 11.00000  0.02920   6.34
C003  1  0.67876  0.48768  0.27899 11.00000  0.03496   6.12
O004  4  0.85089  0.49467  0.30864 11.00000  0.05870   6.09
C005  1  0.78245  0.73755  0.60967 11.00000  0.03721   6.08
C006  1  0.58714  0.64435  0.43862 11.00000  0.03482   6.03
C007  1  0.63364  0.83045  0.62972 11.00000  0.03644   5.85
C008  1  0.46268  0.82925  0.55615 11.00000  0.04073   5.82
C009  1  0.75939  0.64402  0.51417 11.00000  0.03697   5.73
C00A  1  0.44079  0.73602  0.46005 11.00000  0.03944   5.57
C00B  1  0.59259  0.40130  0.17649 11.00000  0.04060   5.35
HKLF 4
END
