TITL SP14R08_expF_1_3_expS_1_5_SP14R08_a.res in P2(1)/n
REM Old TITL SP14R08 in P2(1)/n
REM SHELXT solution in P2(1)/n: R1 0.310, Rweak 0.023, Alpha 0.050
REM <I/s>   1.801 for  107 systematic absences,  Orientation as input
REM Formula found by SHELXT:  C10 O

CELL  0.71073   7.0200   9.2700  11.5600   90.000   97.670   90.000
ZERR   16.000   0.0014   0.0019   0.0023    0.000    0.030    0.000
LATT  1
SYMM 1/2-X, 1/2+Y, 1/2-Z
SFAC C H N O
UNIT 16 16 16 16
L.S. 10
BOND
LIST 6
FMAP 2
PLAN 20
C001  1  0.66239  0.92398  0.72227 11.00000  0.02786   6.42
C002  1  0.55194  0.55112  0.34029 11.00000  0.03179   6.38
C003  1  0.78238  0.73767  0.60912 11.00000  0.03637   6.11
O004  4  0.85211  0.49417  0.30917 11.00000  0.05070   6.07
C005  1  0.67976  0.48744  0.27951 11.00000  0.03714   6.02
C006  1  0.58794  0.64445  0.43855 11.00000  0.03474   6.02
C007  1  0.46273  0.82969  0.55611 11.00000  0.03991   5.93
C008  1  0.63272  0.83027  0.63007 11.00000  0.03671   5.81
C009  1  0.76062  0.64292  0.51416 11.00000  0.03549   5.73
C00A  1  0.44204  0.73337  0.46057 11.00000  0.03972   5.69
C00B  1  0.59056  0.40013  0.17707 11.00000  0.04169   5.38
HKLF 4
END
