TITL SP14R08_expF_0_9_expS_0_7_SP14R08_a.res in Pn
REM Old TITL SP14R08 in P2(1)/n
REM SHELXT solution in Pn: R1 0.236, Rweak 0.077, Alpha 0.061
REM <I/s>   1.189 for  101 systematic absences,  Orientation as input
REM Formula found by SHELXT:  C9 N7 O4

CELL  0.71073   7.0200   9.2700  11.5600   90.000   97.670   90.000
ZERR   16.000   0.0014   0.0019   0.0023    0.000    0.030    0.000
LATT -1
SYMM 1/2+X, -Y, 1/2+Z
SFAC C H N O
UNIT 16 16 16 16
L.S. 10
BOND
LIST 6
FMAP 2
PLAN 20
O001  4  0.24429  0.10835  0.48609 11.00000  0.01091   9.97
N002  3  0.36886 -0.07810  0.37127 11.00000  0.00310   9.65
N003  3  0.68049  0.23274  0.28165 11.00000  0.02808   9.07
O004  4  0.46165  0.19832  0.66424 11.00000  0.03365   9.06
O005  4  0.66835  0.67716  0.72625 11.00000  0.04121   7.27
N006  3  0.59388  0.39978  0.43933 11.00000  0.02985   7.13
N007  3  0.85238  0.24205  0.31315 11.00000  0.02106   6.88
N008  3  0.39976  0.35289  0.82336 11.00000  0.02466   6.87
N009  3  0.55603  0.01555  0.54168 11.00000  0.01870   6.81
N00A  3  0.22195  0.01216  0.38894 11.00000  0.04032   6.79
O00B  4  0.14762  0.25431  0.69359 11.00000  0.03392   6.36
C00C  1  0.46599  0.57402  0.55774 11.00000  0.02679   6.33
C00D  1  0.78972  0.48668  0.61132 11.00000  0.02112   5.62
C00E  1  0.54704 -0.08603  0.44735 11.00000  0.03464   5.55
C00F  1  0.34335 -0.17305  0.28096 11.00000  0.01232   5.54
C00G  1  0.43628  0.48969  0.46028 11.00000  0.04305   5.25
C00H  1  0.56391  0.29763  0.34306 11.00000  0.01509   5.11
C00I  1  0.58390  0.15137  0.17664 11.00000  0.03293   4.98
C00J  1  0.41802  0.11518  0.56314 11.00000  0.02664   4.51
C00K  1  0.32032  0.25630  0.72144 11.00000  0.02191   3.41
HKLF 4
END
