TITL SP14R08_expF_1_1_expS_0_9_SP14R08_a.res in P2(1)/n
REM Old TITL SP14R08 in P2(1)/n
REM SHELXT solution in P2(1)/n: R1 0.270, Rweak 0.041, Alpha 0.077
REM <I/s>   1.471 for  107 systematic absences,  Orientation as input
REM Formula found by SHELXT:  C10 O

CELL  0.71073   7.0200   9.2700  11.5600   90.000   97.670   90.000
ZERR   16.000   0.0014   0.0019   0.0023    0.000    0.030    0.000
LATT  1
SYMM 1/2-X, 1/2+Y, 1/2-Z
SFAC C H N O
UNIT 16 16 16 16
L.S. 10
BOND
LIST 6
FMAP 2
PLAN 20
C001  1  0.44988  0.55062  0.66078 11.00000  0.02762   6.42
C002  1  0.33762  0.92487  0.27845 11.00000  0.02541   6.26
O003  4  0.14862  0.49559  0.69151 11.00000  0.05184   6.14
C004  1  0.32152  0.48720  0.72119 11.00000  0.02962   6.14
C005  1  0.41280  0.64403  0.56175 11.00000  0.03079   6.06
C006  1  0.21771  0.73712  0.39017 11.00000  0.03249   6.01
C007  1  0.36662  0.82944  0.36971 11.00000  0.03227   5.92
C008  1  0.53676  0.82957  0.44449 11.00000  0.03580   5.76
C009  1  0.24170  0.64272  0.48568 11.00000  0.03208   5.69
C00A  1  0.56047  0.73598  0.54102 11.00000  0.03467   5.52
C00B  1  0.40729  0.39945  0.82356 11.00000  0.03507   5.40
HKLF 4
END
