TITL SP14R08_expF_0_7_expS_1_1_SP14R08_a.res in Pn
REM Old TITL SP14R08 in P2(1)/n
REM SHELXT solution in Pn: R1 0.258, Rweak 0.190, Alpha 0.093
REM <I/s>   1.291 for   97 systematic absences,  Orientation as input
REM Formula found by SHELXT:  C13 N3 O3

CELL  0.71073   7.0200   9.2700  11.5600   90.000   97.670   90.000
ZERR   16.000   0.0014   0.0019   0.0023    0.000    0.030    0.000
LATT -1
SYMM 1/2+X, -Y, 1/2+Z
SFAC C H N O
UNIT 16 16 16 16
L.S. 10
BOND
LIST 6
FMAP 2
PLAN 20
C001  1  0.32866  0.23563  0.71690 11.00000  0.00010  10.89
N002  3  0.42359  0.39285  0.55708 11.00000  0.00010   9.92
N003  3  0.64209 -0.07863  0.62386 11.00000  0.00281   9.68
O004  4  0.55405  0.20300  0.33789 11.00000  0.04447   7.21
O005  4  0.22170  0.49153  0.38390 11.00000  0.01943   7.09
N006  3  0.46545  0.00904  0.45329 11.00000  0.04446   7.08
O007  4  0.15009  0.25128  0.68587 11.00000  0.02145   6.76
C008  1  0.45354  0.30187  0.66085 11.00000  0.00116   6.23
C009  1  0.46227 -0.08793  0.54255 11.00000  0.02057   6.06
C00A  1  0.84991  0.26689  0.30214 11.00000  0.00175   6.03
C00B  1  0.68163 -0.17411  0.71553 11.00000  0.00899   5.81
C00C  1  0.42823  0.15547  0.82196 11.00000  0.01767   5.80
C00D  1  0.34521  0.67591  0.27316 11.00000  0.01340   5.77
C00E  1  0.78230  0.10838  0.51380 11.00000  0.01907   5.66
C00F  1  0.60772  0.35192  0.17804 11.00000  0.01723   5.48
C00G  1  0.78058  0.01865  0.60423 11.00000  0.03374   5.26
C00H  1  0.26249  0.39304  0.48221 11.00000  0.01975   5.12
C00I  1  0.53972  0.57350  0.43539 11.00000  0.02059   4.74
C00J  1  0.57790  0.48461  0.53385 11.00000  0.00426   4.29
HKLF 4
END
