TITL SP14R08_expF_1_0_expS_1_0_SP14R08_b.res in Pn
REM Old TITL SP14R08 in P2(1)/n
REM SHELXT solution in Pn: R1 0.238, Rweak 0.059, Alpha 0.041
REM <I/s>   1.344 for  101 systematic absences,  Orientation as input
REM Formula found by SHELXT:  C9 N7 O5

CELL  0.71073   7.0200   9.2700  11.5600   90.000   97.670   90.000
ZERR   16.000   0.0014   0.0019   0.0023    0.000    0.030    0.000
LATT -1
SYMM 1/2+X, -Y, 1/2+Z
SFAC C H N O
UNIT 16 16 16 16
L.S. 10
BOND
LIST 6
FMAP 2
PLAN 20
C001  1  0.31987  0.76599  0.71775 11.00000  0.02086   9.73
N002  3  0.63046  1.07898  0.63051 11.00000  0.00304   9.09
O003  4  0.33230  0.32558  0.27878 11.00000  0.04099   9.02
N004  3  0.41011  0.60338  0.56169 11.00000  0.02227   8.90
O005  4  0.53367  0.41168  0.44905 11.00000  0.04064   7.45
O006  4  0.21505  0.50856  0.38646 11.00000  0.04092   7.28
N007  3  0.53858  0.79698  0.33681 11.00000  0.02939   7.15
O008  4  0.85174  0.73914  0.31385 11.00000  0.03778   6.92
N009  3  0.43724  0.69865  0.65743 11.00000  0.02163   6.85
N00A  3  0.59368  0.65074  0.17651 11.00000  0.03350   6.79
N00B  3  0.75487  0.88989  0.51170 11.00000  0.02103   6.71
N00C  3  0.56041  0.51653  0.54094 11.00000  0.04199   6.69
O00D  4  0.14826  0.75211  0.69406 11.00000  0.03364   6.29
C00E  1  0.78225  0.98307  0.60578 11.00000  0.02780   6.23
C00F  1  0.44328  0.98859  0.45984 11.00000  0.02176   5.45
C00G  1  0.23477  0.60271  0.47894 11.00000  0.03899   5.41
C00H  1  0.41317  0.85140  0.82349 11.00000  0.03069   5.29
C00I  1  0.45389  1.06539  0.56151 11.00000  0.03635   5.22
C00J  1  0.58404  0.89083  0.43852 11.00000  0.03388   4.12
C00K  1  0.66150  1.17223  0.72378 11.00000  0.01518   4.08
C00L  1  0.67919  0.73982  0.27892 11.00000  0.02429   3.26
HKLF 4
END
