TITL SP14R08_expF_0_9_expS_1_0_SP14R08_b.res in Pn
REM Old TITL SP14R08 in P2(1)/n
REM SHELXT solution in Pn: R1 0.234, Rweak 0.081, Alpha 0.073
REM <I/s>   1.284 for  101 systematic absences,  Orientation as input
REM Formula found by SHELXT:  C11 N4 O7

CELL  0.71073   7.0200   9.2700  11.5600   90.000   97.670   90.000
ZERR   16.000   0.0014   0.0019   0.0023    0.000    0.030    0.000
LATT -1
SYMM 1/2+X, -Y, 1/2+Z
SFAC C H N O
UNIT 16 16 16 16
L.S. 10
BOND
LIST 6
FMAP 2
PLAN 20
O001  4  0.48651  0.39370  0.23264 11.00000  0.00449   9.94
O002  4  0.70195  0.30131  0.41158 11.00000  0.02409   9.83
O003  4  0.20145  1.07858  0.80125 11.00000  0.04915   7.90
O004  4  0.60316  0.73904  0.55834 11.00000  0.01876   7.47
C005  1  0.61383  0.57831  0.11877 11.00000  0.00936   7.10
C006  1  0.56822  0.23475  0.47279 11.00000  0.01854   7.00
N007  3  0.65063  0.15196  0.57298 11.00000  0.01433   6.89
N008  3  0.59327  0.67569  0.02884 11.00000  0.01502   6.78
N009  3  0.80914  0.48824  0.28954 11.00000  0.01422   6.72
N00A  3  0.46719  0.48930  0.13422 11.00000  0.03168   6.70
O00B  4  0.39993  0.24707  0.44079 11.00000  0.04211   6.34
C00C  1  0.66310  0.38748  0.31285 11.00000  0.01468   6.31
O00D  4  0.42114  1.17268  0.97116 11.00000  0.03573   6.01
C00E  1  0.53149  0.98279  0.85478 11.00000  0.01458   5.88
C00F  1  0.42702  0.74074  0.53144 11.00000  0.01572   5.88
C00G  1  0.33898  0.90049  0.69051 11.00000  0.02331   5.34
C00H  1  0.37709  1.08262  0.88089 11.00000  0.03037   4.90
C00I  1  0.19086  0.98178  0.70996 11.00000  0.03802   4.81
C00J  1  0.32791  0.64574  0.42686 11.00000  0.03818   4.71
C00K  1  0.78285  0.57776  0.19135 11.00000  0.01970   3.46
C00L  1  0.30672  0.79953  0.59293 11.00000  0.01563   3.41
O00M  4  0.38602  0.51834  0.44226 11.00000  0.20480   3.11
HKLF 4
END
