TITL SP14R08_expF_0_5_expS_1_5_SP14R08_a.res in Pn
REM Old TITL SP14R08 in P2(1)/n
REM SHELXT solution in Pn: R1 0.292, Rweak 0.387, Alpha 0.224
REM <I/s>   1.470 for   97 systematic absences,  Orientation as input
REM Formula found by SHELXT:  C12 N4 O4

CELL  0.71073   7.0200   9.2700  11.5600   90.000   97.670   90.000
ZERR   16.000   0.0014   0.0019   0.0023    0.000    0.030    0.000
LATT -1
SYMM 1/2+X, -Y, 1/2+Z
SFAC C H N O
UNIT 16 16 16 16
L.S. 10
BOND
LIST 6
FMAP 2
PLAN 20
O001  4  0.20585  0.98297  0.34627 11.00000  0.00046  10.29
O002  4  0.39408  0.64822  0.77278 11.00000  0.00010   9.49
O003  4  0.30634  1.17506  0.22722 11.00000  0.00010   7.65
N004  3  0.42234  0.88899  0.52481 11.00000  0.04809   7.05
O005  4  0.14747  0.74331  0.64038 11.00000  0.00010   7.04
N006  3  0.35438  1.07176  0.32978 11.00000  0.01502   6.88
N007  3  0.54495  0.70252  0.28798 11.00000  0.01245   6.63
C008  1  0.31452  0.72933  0.67487 11.00000  0.01529   6.62
N009  3  0.74487  0.59567  0.46114 11.00000  0.00899   6.60
C00A  1  0.85253  0.76354  0.25742 11.00000  0.01177   6.32
C00B  1  0.55399  0.98021  0.49641 11.00000  0.02771   6.03
C00C  1  0.42899  0.50794  0.41775 11.00000  0.01041   5.90
C00D  1  0.43385  0.43664  0.52148 11.00000  0.00378   5.90
C00E  1  0.44867  0.80295  0.61471 11.00000  0.00589   5.57
C00F  1  0.67661  0.76996  0.23935 11.00000  0.00654   5.54
C00G  1  0.61382  0.42009  0.58281 11.00000  0.02246   5.12
C00H  1  0.53809  1.08674  0.41333 11.00000  0.00065   4.16
C00I  1  0.57546  0.61257  0.39140 11.00000  0.01331   3.75
C00J  1  0.64171  0.32073  0.67627 11.00000  0.02663   3.53
C00K  1  0.22372  0.88931  0.43978 11.00000  0.01040   3.39
HKLF 4
END
