TITL SP14R08_expF_1_1_expS_1_1_SP14R08_a.res in P2(1)/n
REM Old TITL SP14R08 in P2(1)/n
REM SHELXT solution in P2(1)/n: R1 0.273, Rweak 0.041, Alpha 0.093
REM <I/s>   1.480 for  107 systematic absences,  Orientation as input
REM Formula found by SHELXT:  C10 O

CELL  0.71073   7.0200   9.2700  11.5600   90.000   97.670   90.000
ZERR   16.000   0.0014   0.0019   0.0023    0.000    0.030    0.000
LATT  1
SYMM 1/2-X, 1/2+Y, 1/2-Z
SFAC C H N O
UNIT 16 16 16 16
L.S. 10
BOND
LIST 6
FMAP 2
PLAN 20
C001  1  0.44964  0.44939  0.66064 11.00000  0.02616   6.40
C002  1  0.33695  0.07509  0.27837 11.00000  0.02416   6.28
C003  1  0.32100  0.51266  0.72117 11.00000  0.02867   6.19
O004  4  0.14860  0.50505  0.69145 11.00000  0.04775   6.13
C005  1  0.21797  0.26345  0.39049 11.00000  0.03079   6.04
C006  1  0.41257  0.35591  0.56171 11.00000  0.02991   6.00
C007  1  0.36719  0.17078  0.36996 11.00000  0.03111   5.89
C008  1  0.53671  0.17068  0.44436 11.00000  0.03452   5.77
C009  1  0.24134  0.35720  0.48575 11.00000  0.03032   5.71
C00A  1  0.56070  0.26379  0.54085 11.00000  0.03326   5.54
C00B  1  0.40802  0.60084  0.82347 11.00000  0.03333   5.38
HKLF 4
END
