TITL SP14R08_expF_1_2_expS_1_4_SP14R08_c.res in P2(1)
REM Old TITL SP14R08 in P2(1)/n
REM SHELXT solution in P2(1): R1 0.263, Rweak 0.029, Alpha 0.105
REM <I/s>   1.564 for    6 systematic absences,  Orientation as input
REM Formula found by SHELXT:  C15 N4 O3

CELL  0.71073   7.0200   9.2700  11.5600   90.000   97.670   90.000
ZERR   16.000   0.0014   0.0019   0.0023    0.000    0.030    0.000
LATT -1
SYMM -X, 1/2+Y, -Z
SFAC C H N O
UNIT 16 16 16 16
L.S. 10
BOND
LIST 6
FMAP 2
PLAN 20
N001  3  0.30606  0.30380  0.58865 11.00000  0.03788   7.05
N002  3  1.03076  0.51989  0.35988 11.00000  0.05277   6.77
N003  3  0.70572  0.42596  0.30445 11.00000  0.03831   6.75
N004  3  0.83559  0.61120  0.18947 11.00000  0.03023   6.69
O005  4  0.91137  0.33176  0.47074 11.00000  0.04521   6.50
C006  1  0.87819  0.42711  0.37816 11.00000  0.03582   6.40
C007  1  0.41443  0.67829  0.97309 11.00000  0.02791   6.27
C008  1  0.51236  0.40602  0.76218 11.00000  0.03033   6.24
C009  1  0.84719  0.85015 -0.07268 11.00000  0.03617   6.22
C00A  1  0.42437  0.24292  0.52509 11.00000  0.03572   6.09
O00B  4  1.10000  0.76851  0.05860 11.00000  0.04450   6.05
O00C  4  0.60447  0.25564  0.55892 11.00000  0.04918   5.93
C00D  1  0.69011  0.53022  0.21213 11.00000  0.03762   5.81
C00E  1  0.53205  0.49195  0.86000 11.00000  0.02958   5.81
C00F  1  0.93341  0.76642  0.03494 11.00000  0.02905   5.79
C00G  1  0.19308  0.50074  0.70754 11.00000  0.03288   5.63
C00H  1  0.79847  0.70063  0.09175 11.00000  0.02650   5.50
C00I  1  0.34046  0.39945  0.68652 11.00000  0.04773   5.38
C00J  1  0.22004  0.58413  0.80773 11.00000  0.04952   5.12
C00K  1  1.00781  0.61777  0.26621 11.00000  0.03544   5.11
C00L  1  0.38656  0.58976  0.88066 11.00000  0.03292   5.08
C00M  1  0.33776  0.14985  0.42642 11.00000  0.04005   4.42
HKLF 4
END
