TITL SP14R08_expF_1_2_expS_0_7_SP14R08_a.res in P2(1)/n
REM Old TITL SP14R08 in P2(1)/n
REM SHELXT solution in P2(1)/n: R1 0.279, Rweak 0.030, Alpha 0.086
REM <I/s>   1.684 for  107 systematic absences,  Orientation as input
REM Formula found by SHELXT:  C10 O

CELL  0.71073   7.0200   9.2700  11.5600   90.000   97.670   90.000
ZERR   16.000   0.0014   0.0019   0.0023    0.000    0.030    0.000
LATT  1
SYMM 1/2-X, 1/2+Y, 1/2-Z
SFAC C H N O
UNIT 16 16 16 16
L.S. 10
BOND
LIST 6
FMAP 2
PLAN 20
C001  1  0.55049  0.44764  0.33978 11.00000  0.03409   6.42
C002  1  0.66070  0.07568  0.72127 11.00000  0.03144   6.34
O003  4  0.85100  0.50475  0.30854 11.00000  0.06573   6.20
C004  1  0.78257  0.26181  0.60997 11.00000  0.03969   6.19
C005  1  0.58655  0.35570  0.43856 11.00000  0.03603   6.02
C006  1  0.46168  0.17072  0.55590 11.00000  0.04205   6.00
C007  1  0.67804  0.51256  0.27931 11.00000  0.03638   5.93
C008  1  0.63451  0.16913  0.62968 11.00000  0.03780   5.73
C009  1  0.75931  0.35586  0.51432 11.00000  0.04033   5.70
C00A  1  0.44165  0.26424  0.46025 11.00000  0.04151   5.61
C00B  1  0.59340  0.59864  0.17623 11.00000  0.04263   5.38
HKLF 4
END
