TITL SP14R08_expF_0_9_expS_1_3_SP14R08_b.res in Pn
REM Old TITL SP14R08 in P2(1)/n
REM SHELXT solution in Pn: R1 0.237, Rweak 0.077, Alpha 0.055
REM <I/s>   1.407 for  101 systematic absences,  Orientation as input
REM Formula found by SHELXT:  C13 N3 O5

CELL  0.71073   7.0200   9.2700  11.5600   90.000   97.670   90.000
ZERR   16.000   0.0014   0.0019   0.0023    0.000    0.030    0.000
LATT -1
SYMM 1/2+X, -Y, 1/2+Z
SFAC C H N O
UNIT 16 16 16 16
L.S. 10
BOND
LIST 6
FMAP 2
PLAN 20
N001  3  0.36531 -0.08120  0.36554 11.00000  0.00318  10.27
N002  3  0.57059  0.39626  0.43055 11.00000  0.01977   9.91
C003  1  0.67125  0.23798  0.27362 11.00000  0.01665   9.50
O004  4  0.78432  0.48949  0.60411 11.00000  0.02329   8.24
O005  4  0.53994  0.29831  0.33733 11.00000  0.02885   7.94
O006  4  0.14878  0.26165  0.69091 11.00000  0.03224   7.46
O007  4  0.65956  0.67774  0.71498 11.00000  0.01457   7.32
N008  3  0.44976  0.59126  0.54773 11.00000  0.02851   6.81
C009  1  0.55343  0.02168  0.53469 11.00000  0.01540   6.25
C00A  1  0.58979  0.14146  0.17758 11.00000  0.01753   6.24
C00B  1  0.23547  0.10782  0.48476 11.00000  0.02086   6.08
O00C  4  0.85122  0.24567  0.30766 11.00000  0.02247   5.93
C00D  1  0.40483  0.34533  0.82242 11.00000  0.02150   5.87
C00E  1  0.43578  0.19766  0.65513 11.00000  0.01489   5.67
C00F  1  0.43703  0.49451  0.45395 11.00000  0.02586   5.64
C00G  1  0.75792  0.39223  0.51459 11.00000  0.02071   5.57
C00H  1  0.32931 -0.16309  0.26371 11.00000  0.03479   5.39
C00I  1  0.52976 -0.06801  0.43857 11.00000  0.02581   5.00
C00J  1  0.22546  0.01936  0.38292 11.00000  0.02882   4.78
C00K  1  0.31414  0.26443  0.71408 11.00000  0.01623   3.94
C00L  1  0.39651  0.10934  0.55621 11.00000  0.02128   3.22
HKLF 4
END
