TITL SP14R08_expF_1_2_expS_0_6_SP14R08_a.res in P2(1)/n
REM Old TITL SP14R08 in P2(1)/n
REM SHELXT solution in P2(1)/n: R1 0.281, Rweak 0.020, Alpha 0.063
REM <I/s>   1.730 for  107 systematic absences,  Orientation as input
REM Formula found by SHELXT:  C10 O

CELL  0.71073   7.0200   9.2700  11.5600   90.000   97.670   90.000
ZERR   16.000   0.0014   0.0019   0.0023    0.000    0.030    0.000
LATT  1
SYMM 1/2-X, 1/2+Y, 1/2-Z
SFAC C H N O
UNIT 16 16 16 16
L.S. 10
BOND
LIST 6
FMAP 2
PLAN 20
C001  1  0.44936  0.44766  0.66019 11.00000  0.03451   6.41
C002  1  0.33960  0.07567  0.27879 11.00000  0.03200   6.35
C003  1  0.21722  0.26159  0.38987 11.00000  0.04036   6.12
O004  4  0.14890  0.50451  0.69137 11.00000  0.06763   6.12
C005  1  0.32222  0.51262  0.72053 11.00000  0.03673   6.04
C006  1  0.41361  0.35556  0.56148 11.00000  0.03627   6.02
C007  1  0.36515  0.16900  0.37035 11.00000  0.03821   5.88
C008  1  0.53866  0.17084  0.44421 11.00000  0.04221   5.82
C009  1  0.24069  0.35588  0.48562 11.00000  0.04140   5.71
C00A  1  0.55777  0.26426  0.53955 11.00000  0.04200   5.63
C00B  1  0.40635  0.59858  0.82383 11.00000  0.04307   5.37
HKLF 4
END
