TITL SP14R08_expF_1_5_expS_1_4_SP14R08_b.res in Pn
REM Old TITL SP14R08 in P2(1)/n
REM SHELXT solution in Pn: R1 0.329, Rweak 0.016, Alpha 0.012
REM <I/s>   1.689 for  101 systematic absences,  Orientation as input
REM Formula found by SHELXT:  C13 N6 O4

CELL  0.71073   7.0200   9.2700  11.5600   90.000   97.670   90.000
ZERR   16.000   0.0014   0.0019   0.0023    0.000    0.030    0.000
LATT -1
SYMM 1/2+X, -Y, 1/2+Z
SFAC C H N O
UNIT 16 16 16 16
L.S. 10
BOND
LIST 6
FMAP 2
PLAN 20
O001  4  0.71996  0.98890  0.39795 11.00000  0.06895   8.09
N002  3  0.90974  0.89339  0.56622 11.00000  0.04535   7.77
N003  3  0.94594  0.80230  0.66381 11.00000  0.04981   7.23
N004  3  0.83171  1.16974  0.28087 11.00000  0.04004   7.09
N005  3 -0.05760  0.51979  0.46506 11.00000  0.05809   6.90
N006  3  1.02887  1.07837  0.44693 11.00000  0.04981   6.83
N007  3  0.12709  0.41229  0.63235 11.00000  0.05279   6.66
O008  4  0.34988  0.75271  0.31447 11.00000  0.05491   6.61
C009  1  0.15635  0.32471  0.72422 11.00000  0.03726   6.46
C00A  1  0.74247  0.88982  0.48712 11.00000  0.05168   6.30
C00B  1  0.89437  0.65151  0.82473 11.00000  0.04532   6.25
C00C  1  0.17113  0.76669  0.28544 11.00000  0.04627   6.19
C00D  1 -0.04532  0.41849  0.55909 11.00000  0.05554   6.04
C00E  1  0.81448  0.73633  0.72288 11.00000  0.04329   5.97
C00F  1  0.04734  0.69909  0.34275 11.00000  0.03775   5.69
O00G  4  0.64102  0.73936  0.69657 11.00000  0.05704   5.65
C00H  1  0.25766  0.60265  0.51728 11.00000  0.03975   5.38
C00I  1  0.86127  1.07789  0.37213 11.00000  0.04839   5.18
C00J  1  0.08058  0.60422  0.44171 11.00000  0.04791   4.97
C00K  1  1.05760  0.98888  0.54468 11.00000  0.04486   4.85
C00L  1  0.28241  0.51422  0.61296 11.00000  0.04227   4.83
C00M  1  0.07462  0.84949  0.17527 11.00000  0.05512   4.54
O00N  4  0.66683  0.82265  0.50690 11.00000  0.24623   3.13
HKLF 4
END
