TITL SP14R08_expF_1_5_expS_1_4_SP14R08_c.res in P2(1)
REM Old TITL SP14R08 in P2(1)/n
REM SHELXT solution in P2(1): R1 0.343, Rweak 0.016, Alpha 0.035
REM <I/s>   3.961 for    6 systematic absences,  Orientation as input
REM Formula found by SHELXT:  C16 N4 O2

CELL  0.71073   7.0200   9.2700  11.5600   90.000   97.670   90.000
ZERR   16.000   0.0014   0.0019   0.0023    0.000    0.030    0.000
LATT -1
SYMM -X, 1/2+Y, -Z
SFAC C H N O
UNIT 16 16 16 16
L.S. 10
BOND
LIST 6
FMAP 2
PLAN 20
N001  3  0.21367  0.42497  0.80674 11.00000  0.06216   7.16
N002  3  0.90987  0.67740  0.47258 11.00000  0.04272   6.65
N003  3  0.41351  0.33109  0.97138 11.00000  0.04306   6.59
N004  3  0.80327  0.30835  0.09196 11.00000  0.04589   6.59
C005  1  0.53091  0.51457  0.85888 11.00000  0.04244   6.41
C006  1  0.88364  0.57990  0.37858 11.00000  0.04430   6.41
C007  1  1.03107  0.48454  0.35685 11.00000  0.04988   6.24
O008  4  0.60145  0.76244  0.55757 11.00000  0.05326   6.22
C009  1  0.33560  0.60847  0.68660 11.00000  0.04062   6.15
C00A  1  0.83894  0.39516  0.18912 11.00000  0.04266   6.13
C00B  1  0.30145  0.70407  0.58783 11.00000  0.03931   6.12
C00C  1  0.42726  0.76186  0.53134 11.00000  0.04520   5.89
C00D  1  0.69155  0.48672  0.21231 11.00000  0.04621   5.88
C00E  1  0.93072  0.23597  0.03051 11.00000  0.04577   5.78
C00F  1  0.50976  0.60520  0.76487 11.00000  0.04238   5.77
C00G  1  1.01271  0.38921  0.26409 11.00000  0.04681   5.75
O00H  4  1.10577  0.25034  0.05964 11.00000  0.05898   5.69
C00I  1  0.19185  0.51698  0.70769 11.00000  0.04896   5.67
C00J  1  0.84484  0.15144 -0.07316 11.00000  0.05129   5.63
C00K  1  0.70952  0.58282  0.30528 11.00000  0.04555   5.22
C00L  1  0.38078  0.41406  0.88235 11.00000  0.04675   5.22
C00M  1  0.33851  0.84856  0.42472 11.00000  0.05296   4.91
HKLF 4
END
