TITL SP14R08_expF_1_4_expS_1_5_SP14R08_b.res in Pn
REM Old TITL SP14R08 in P2(1)/n
REM SHELXT solution in Pn: R1 0.305, Rweak 0.019, Alpha 0.015
REM <I/s>   1.695 for  101 systematic absences,  Orientation as input
REM Formula found by SHELXT:  C14 N5 O3

CELL  0.71073   7.0200   9.2700  11.5600   90.000   97.670   90.000
ZERR   16.000   0.0014   0.0019   0.0023    0.000    0.030    0.000
LATT -1
SYMM 1/2+X, -Y, 1/2+Z
SFAC C H N O
UNIT 16 16 16 16
L.S. 10
BOND
LIST 6
FMAP 2
PLAN 20
O001  4  0.54280  0.70240  0.33986 11.00000  0.05723   7.53
O002  4  0.14849  0.73784  0.69455 11.00000  0.05401   7.35
N003  3  0.78407  0.50811  0.61525 11.00000  0.05350   7.16
C004  1  0.31809  0.73730  0.71632 11.00000  0.03758   7.14
N005  3  0.65992  0.32455  0.72564 11.00000  0.04257   7.01
N006  3  0.75327  0.60508  0.51524 11.00000  0.03621   6.68
N007  3  0.53463  1.08034  0.44678 11.00000  0.05033   6.63
N008  3  0.40847  0.89502  0.56240 11.00000  0.04552   6.63
C009  1  0.63594  0.41618  0.63371 11.00000  0.04160   6.54
C00A  1  0.55710  0.98510  0.54307 11.00000  0.04515   6.40
C00B  1  0.33467  1.17204  0.28046 11.00000  0.03421   6.19
C00C  1  0.46129  0.42081  0.55999 11.00000  0.05240   6.00
C00D  1  0.59316  0.85074  0.17711 11.00000  0.04579   5.65
C00E  1  0.58512  0.60674  0.43869 11.00000  0.04470   5.59
C00F  1  0.21878  0.98243  0.39532 11.00000  0.04038   5.44
C00G  1  0.44082  0.51500  0.46144 11.00000  0.04643   5.24
C00H  1  0.22819  0.89151  0.48601 11.00000  0.06012   5.18
C00I  1  0.43806  0.80535  0.65973 11.00000  0.03706   5.13
C00J  1  0.41396  0.65156  0.82289 11.00000  0.05328   5.01
C00K  1  0.37213  1.07850  0.37315 11.00000  0.04638   4.94
O00L  4  0.85151  0.75316  0.31269 11.00000  0.05360   4.77
C00M  1  0.67786  0.76262  0.27745 11.00000  0.04655   4.76
HKLF 4
END
