TITL SP14R08_expF_0_8_expS_0_5_SP14R08_a.res in P2(1)/n
REM Old TITL SP14R08 in P2(1)/n
REM SHELXT solution in P2(1)/n: R1 0.292, Rweak 0.137, Alpha 0.162
REM <I/s>   1.194 for  107 systematic absences,  Orientation as input
REM Formula found by SHELXT:  C10 O

CELL  0.71073   7.0200   9.2700  11.5600   90.000   97.670   90.000
ZERR   16.000   0.0014   0.0019   0.0023    0.000    0.030    0.000
LATT  1
SYMM 1/2-X, 1/2+Y, 1/2-Z
SFAC C H N O
UNIT 16 16 16 16
L.S. 10
BOND
LIST 6
FMAP 2
PLAN 20
C001  1  0.55105  0.54981  0.33900 11.00000  0.01515   6.43
O002  4  0.85115  0.49463  0.30875 11.00000  0.03407   6.41
C003  1  0.67971  0.48708  0.27922 11.00000  0.01798   6.23
C004  1  0.66432  0.92551  0.72190 11.00000  0.01626   6.18
C005  1  0.58800  0.64272  0.43804 11.00000  0.01965   5.97
C006  1  0.78300  0.73676  0.61123 11.00000  0.02167   5.89
C007  1  0.63368  0.82917  0.62997 11.00000  0.02137   5.83
C008  1  0.75810  0.64212  0.51513 11.00000  0.02105   5.64
C009  1  0.59299  0.39953  0.17717 11.00000  0.02047   5.48
C00A  1  0.43944  0.73485  0.45926 11.00000  0.02234   5.42
C00B  1  0.45908  0.82909  0.55451 11.00000  0.02626   5.28
HKLF 4
END
