TITL SP14R08_expF_1_4_expS_0_5_SP14R08_a.res in P2(1)/n
REM Old TITL SP14R08 in P2(1)/n
REM SHELXT solution in P2(1)/n: R1 0.311, Rweak 0.021, Alpha 0.036
REM <I/s>   1.399 for  107 systematic absences,  Orientation as input
REM Formula found by SHELXT:  C10 O

CELL  0.71073   7.0200   9.2700  11.5600   90.000   97.670   90.000
ZERR   16.000   0.0014   0.0019   0.0023    0.000    0.030    0.000
LATT  1
SYMM 1/2-X, 1/2+Y, 1/2-Z
SFAC C H N O
UNIT 16 16 16 16
L.S. 10
BOND
LIST 6
FMAP 2
PLAN 20
C001  1  0.34168  0.07566  0.27820 11.00000  0.03819   6.50
C002  1  0.44700  0.44743  0.66035 11.00000  0.04430   6.34
C003  1  0.21879  0.26162  0.39060 11.00000  0.05035   6.11
C004  1  0.41180  0.35622  0.56138 11.00000  0.04589   6.05
C005  1  0.32281  0.51423  0.72147 11.00000  0.04610   6.00
C006  1  0.53652  0.16847  0.44340 11.00000  0.05204   5.97
O007  4  0.14880  0.50484  0.69072 11.00000  0.07354   5.95
C008  1  0.36603  0.16882  0.37107 11.00000  0.04666   5.80
C009  1  0.23985  0.35716  0.48611 11.00000  0.05088   5.74
C00A  1  0.55871  0.26419  0.54089 11.00000  0.05567   5.65
C00B  1  0.40697  0.59785  0.82352 11.00000  0.05481   5.34
HKLF 4
END
