TITL SP14R08_expF_0_6_expS_1_1_SP14R08_a.res in Pn
REM Old TITL SP14R08 in P2(1)/n
REM SHELXT solution in Pn: R1 0.242, Rweak 0.261, Alpha 0.205
REM <I/s>   1.266 for   97 systematic absences,  Orientation as input
REM Formula found by SHELXT:  C11 N3 O7

CELL  0.71073   7.0200   9.2700  11.5600   90.000   97.670   90.000
ZERR   16.000   0.0014   0.0019   0.0023    0.000    0.030    0.000
LATT -1
SYMM 1/2+X, -Y, 1/2+Z
SFAC C H N O
UNIT 16 16 16 16
L.S. 10
BOND
LIST 6
FMAP 2
PLAN 20
O001  4  0.78438  0.98558  0.59706 11.00000  0.00130   9.25
O002  4  0.55696  0.79901  0.32844 11.00000  0.01270   8.54
O003  4  0.38076  0.41822  0.35729 11.00000  0.01617   8.48
O004  4  0.60542  0.64634  0.17324 11.00000  0.00010   7.36
O005  4  0.14799  0.75505  0.68391 11.00000  0.01826   7.27
O006  4  0.68145  1.17748  0.71252 11.00000  0.00010   7.23
N007  3  0.58230  0.89213  0.42716 11.00000  0.01610   7.15
N008  3  0.54723  0.52121  0.52095 11.00000  0.01565   6.96
C009  1  0.67876  0.72947  0.26642 11.00000  0.00057   6.76
N00A  3  0.23173  0.60181  0.47521 11.00000  0.00220   6.60
C00B  1  0.54323  0.43035  0.42401 11.00000  0.01099   6.46
C00C  1  0.32968  0.76043  0.70785 11.00000  0.00875   6.04
O00D  4  0.85201  0.74393  0.30313 11.00000  0.00825   5.14
C00E  1  0.44683  0.69740  0.64899 11.00000  0.01458   4.42
C00F  1  0.40786  0.61309  0.55517 11.00000  0.01869   4.23
C00G  1  0.45296  1.08818  0.53185 11.00000  0.00116   3.94
C00H  1  0.73983  0.88503  0.50175 11.00000  0.03764   3.93
C00I  1  0.43698  0.99763  0.44349 11.00000  0.00179   3.81
C00J  1  0.36647  0.31626  0.25789 11.00000  0.02011   3.71
C00K  1  0.43029  0.84109  0.82676 11.00000  0.01574   3.49
C00L  1  0.63516  1.07178  0.61240 11.00000  0.01778   3.14
HKLF 4
END
