TITL SP14R08_expF_0_5_expS_0_8_SP14R08_a.res in Pn
REM Old TITL SP14R08 in P2(1)/n
REM SHELXT solution in Pn: R1 0.275, Rweak 0.383, Alpha 0.213
REM <I/s>   1.129 for   97 systematic absences,  Orientation as input
REM Formula found by SHELXT:  C7 N O9

CELL  0.71073   7.0200   9.2700  11.5600   90.000   97.670   90.000
ZERR   16.000   0.0014   0.0019   0.0023    0.000    0.030    0.000
LATT -1
SYMM 1/2+X, -Y, 1/2+Z
SFAC C H N O
UNIT 16 16 16 16
L.S. 10
BOND
LIST 6
FMAP 2
PLAN 20
O001  4  0.77961  0.48441  0.60536 11.00000  0.00010   9.86
N002  3  0.67441  0.22818  0.27556 11.00000  0.00010   9.73
O003  4  0.39139 -0.08079  0.36081 11.00000  0.00107   9.53
O004  4  0.67428  0.67805  0.71474 11.00000  0.00010   9.43
O005  4  0.55075  0.30635  0.32994 11.00000  0.01485   8.08
O006  4  0.57829  0.40559  0.42907 11.00000  0.00601   7.99
O007  4  0.15011  0.25310  0.67935 11.00000  0.01389   7.86
O008  4  0.45904  0.58545  0.54198 11.00000  0.00010   7.66
O009  4  0.23306  0.10958  0.47811 11.00000  0.00010   6.46
C00A  1  0.60811  0.14786  0.17815 11.00000  0.00010   6.38
C00B  1  0.43529  0.20689  0.64538 11.00000  0.00010   5.70
C00C  1  0.42313  0.34406  0.82185 11.00000  0.00010   5.57
C00D  1  0.54662  0.01282  0.52281 11.00000  0.00938   5.49
C00E  1  0.43429  0.49153  0.44931 11.00000  0.00013   4.89
O00F  4  0.84989  0.23849  0.30138 11.00000  0.00390   4.69
C00G  1  0.40315  0.12418  0.55885 11.00000  0.00139   4.53
C00H  1  0.32645  0.25635  0.72164 11.00000  0.00044   4.08
HKLF 4
END
