TITL SP14R08_expF_1_2_expS_1_4_SP14R08_a.res in P2(1)/n
REM Old TITL SP14R08 in P2(1)/n
REM SHELXT solution in P2(1)/n: R1 0.288, Rweak 0.030, Alpha 0.081
REM <I/s>   1.642 for  107 systematic absences,  Orientation as input
REM Formula found by SHELXT:  C10 O

CELL  0.71073   7.0200   9.2700  11.5600   90.000   97.670   90.000
ZERR   16.000   0.0014   0.0019   0.0023    0.000    0.030    0.000
LATT  1
SYMM 1/2-X, 1/2+Y, 1/2-Z
SFAC C H N O
UNIT 16 16 16 16
L.S. 10
BOND
LIST 6
FMAP 2
PLAN 20
C001  1  0.44842  0.44801  0.65981 11.00000  0.02847   6.39
C002  1  0.33705  0.07571  0.27820 11.00000  0.02547   6.35
O003  4  0.14869  0.50612  0.69088 11.00000  0.04861   6.11
C004  1  0.21763  0.26323  0.39074 11.00000  0.03336   6.08
C005  1  0.32030  0.51214  0.72077 11.00000  0.03253   6.06
C006  1  0.41187  0.35523  0.56134 11.00000  0.03216   6.04
C007  1  0.36719  0.17022  0.37037 11.00000  0.03394   5.88
C008  1  0.53702  0.17098  0.44381 11.00000  0.03728   5.81
C009  1  0.23982  0.35616  0.48596 11.00000  0.03284   5.73
C00A  1  0.55961  0.26399  0.53967 11.00000  0.03640   5.57
C00B  1  0.40883  0.59973  0.82336 11.00000  0.03712   5.37
HKLF 4
END
