TITL SP14R08_expF_1_0_expS_0_7_SP14R08_a.res in P2(1)/n
REM Old TITL SP14R08 in P2(1)/n
REM SHELXT solution in P2(1)/n: R1 0.269, Rweak 0.059, Alpha 0.106
REM <I/s>   1.409 for  107 systematic absences,  Orientation as input
REM Formula found by SHELXT:  C10 O

CELL  0.71073   7.0200   9.2700  11.5600   90.000   97.670   90.000
ZERR   16.000   0.0014   0.0019   0.0023    0.000    0.030    0.000
LATT  1
SYMM 1/2-X, 1/2+Y, 1/2-Z
SFAC C H N O
UNIT 16 16 16 16
L.S. 10
BOND
LIST 6
FMAP 2
PLAN 20
C001  1  0.44958  0.55046  0.66089 11.00000  0.02342   6.44
O002  4  0.14861  0.49497  0.69150 11.00000  0.04734   6.30
C003  1  0.33724  0.92480  0.27825 11.00000  0.02336   6.17
C004  1  0.32108  0.48740  0.72122 11.00000  0.02629   6.16
C005  1  0.21700  0.73709  0.38982 11.00000  0.03013   6.05
C006  1  0.41234  0.64340  0.56176 11.00000  0.02791   5.99
C007  1  0.36614  0.82938  0.36963 11.00000  0.02901   5.95
C008  1  0.24179  0.64300  0.48532 11.00000  0.02930   5.74
C009  1  0.53874  0.82939  0.44481 11.00000  0.03359   5.67
C00A  1  0.56048  0.73514  0.54091 11.00000  0.03172   5.58
C00B  1  0.40690  0.39956  0.82333 11.00000  0.03130   5.42
HKLF 4
END
