TITL SP14R08_expF_1_0_expS_1_5_SP14R08_c.res in P2(1)
REM Old TITL SP14R08 in P2(1)/n
REM SHELXT solution in P2(1): R1 0.244, Rweak 0.055, Alpha 0.137
REM <I/s>   1.059 for    6 systematic absences,  Orientation as input
REM Formula found by SHELXT:  C14 N5 O3

CELL  0.71073   7.0200   9.2700  11.5600   90.000   97.670   90.000
ZERR   16.000   0.0014   0.0019   0.0023    0.000    0.030    0.000
LATT -1
SYMM -X, 1/2+Y, -Z
SFAC C H N O
UNIT 16 16 16 16
L.S. 10
BOND
LIST 6
FMAP 2
PLAN 20
O001  4  0.91426  0.33700  0.47378 11.00000  0.03315   7.40
N002  3  1.03154  0.51639  0.35580 11.00000  0.03246   7.30
N003  3  0.83616  0.61673  0.18804 11.00000  0.02351   6.95
N004  3  0.51316  0.40538  0.76480 11.00000  0.02836   6.93
N005  3  0.18906  0.51011  0.70550 11.00000  0.03229   6.75
C006  1  0.87630  0.42745  0.38022 11.00000  0.02831   6.59
N007  3  0.30355  0.31600  0.58705 11.00000  0.02890   6.55
O008  4  1.09755  0.76204  0.05538 11.00000  0.03448   6.38
C009  1  0.79734  0.71168  0.09157 11.00000  0.01683   6.16
C00A  1  0.93190  0.77214  0.03514 11.00000  0.02701   6.12
C00B  1  0.84627  0.85292 -0.07672 11.00000  0.02108   6.10
C00C  1  0.70275  0.43060  0.30346 11.00000  0.01620   5.90
C00D  1  0.42586  0.24658  0.52594 11.00000  0.02271   5.89
O00E  4  0.60708  0.24711  0.56331 11.00000  0.03617   5.67
C00F  1  0.22752  0.58806  0.81005 11.00000  0.04456   5.34
C00G  1  0.53125  0.48574  0.86484 11.00000  0.02533   5.28
C00H  1  0.33896  0.14708  0.43332 11.00000  0.03375   4.67
C00I  1  0.41594  0.68575  0.96975 11.00000  0.02345   4.67
C00J  1  0.69078  0.53791  0.21235 11.00000  0.02518   4.64
C00K  1  0.34204  0.40603  0.68901 11.00000  0.04047   4.62
C00L  1  0.38867  0.58914  0.87921 11.00000  0.02322   4.62
C00M  1  1.00357  0.61763  0.26285 11.00000  0.02969   4.12
HKLF 4
END
