TITL SP14R08_expF_0_9_expS_1_0_SP14R08_c.res in P2(1)
REM Old TITL SP14R08 in P2(1)/n
REM SHELXT solution in P2(1): R1 0.241, Rweak 0.085, Alpha 0.145
REM <I/s>   1.796 for    6 systematic absences,  Orientation as input
REM Formula found by SHELXT:  C17 N O4

CELL  0.71073   7.0200   9.2700  11.5600   90.000   97.670   90.000
ZERR   16.000   0.0014   0.0019   0.0023    0.000    0.030    0.000
LATT -1
SYMM -X, 1/2+Y, -Z
SFAC C H N O
UNIT 16 16 16 16
L.S. 10
BOND
LIST 6
FMAP 2
PLAN 20
O001  4  0.70497  0.43145  0.30571 11.00000  0.02314   8.07
N002  3  0.83470  0.61899  0.18956 11.00000  0.01243   7.23
O003  4  0.41496  0.67373  0.97259 11.00000  0.02796   6.95
C004  1  0.38290  0.58362  0.87830 11.00000  0.02259   6.93
O005  4  1.10253  0.76523  0.06085 11.00000  0.02551   6.43
C006  1  0.79590  0.69677  0.08805 11.00000  0.01449   6.13
C007  1  0.30779  0.29831  0.59142 11.00000  0.01804   6.05
C008  1  0.42603  0.24671  0.52684 11.00000  0.02300   5.89
C009  1  1.00364  0.61297  0.26284 11.00000  0.01916   5.88
C00A  1  1.02952  0.51714  0.35724 11.00000  0.02827   5.78
C00B  1  0.93155  0.77190  0.03260 11.00000  0.01853   5.66
C00C  1  0.53014  0.48874  0.86252 11.00000  0.02283   5.53
C00D  1  0.84294  0.85087 -0.07158 11.00000  0.02083   5.44
O00E  4  0.60131  0.25538  0.55624 11.00000  0.04620   5.32
C00F  1  0.18789  0.50134  0.70987 11.00000  0.02774   5.31
C00G  1  0.69100  0.52860  0.20871 11.00000  0.02040   5.22
C00H  1  0.34476  0.14913  0.42501 11.00000  0.03105   5.03
C00I  1  0.51581  0.39903  0.76605 11.00000  0.02359   4.75
C00J  1  0.91281  0.32319  0.47089 11.00000  0.02771   4.39
C00K  1  0.88248  0.42385  0.38254 11.00000  0.02445   4.09
C00L  1  0.34740  0.41673  0.68508 11.00000  0.04747   3.86
C00M  1  0.22943  0.60217  0.80276 11.00000  0.06447   3.02
HKLF 4
END
