TITL SP14R08_expF_1_5_expS_1_5_SP14R08_a.res in P2(1)/n
REM Old TITL SP14R08 in P2(1)/n
REM SHELXT solution in P2(1)/n: R1 0.368, Rweak 0.016, Alpha 0.038
REM <I/s>   1.838 for  107 systematic absences,  Orientation as input
REM Formula found by SHELXT:  C10 O

CELL  0.71073   7.0200   9.2700  11.5600   90.000   97.670   90.000
ZERR   16.000   0.0014   0.0019   0.0023    0.000    0.030    0.000
LATT  1
SYMM 1/2-X, 1/2+Y, 1/2-Z
SFAC C H N O
UNIT 16 16 16 16
L.S. 10
BOND
LIST 6
FMAP 2
PLAN 20
C001  1  0.33803  0.07618  0.27810 11.00000  0.03136   6.44
C002  1  0.44858  0.44755  0.65994 11.00000  0.03641   6.27
C003  1  0.21774  0.26318  0.39187 11.00000  0.04218   6.21
C004  1  0.53776  0.17068  0.44368 11.00000  0.04628   6.16
C005  1  0.41141  0.35630  0.56182 11.00000  0.03897   6.10
O006  4  0.14588  0.50613  0.69086 11.00000  0.05607   5.91
C007  1  0.55952  0.26564  0.53915 11.00000  0.04556   5.78
C008  1  0.32118  0.51464  0.72020 11.00000  0.04222   5.75
C009  1  0.23964  0.35875  0.48586 11.00000  0.04156   5.73
C00A  1  0.36712  0.16830  0.37029 11.00000  0.04395   5.67
C00B  1  0.41035  0.59914  0.82317 11.00000  0.04971   5.33
HKLF 4
END
