TITL SP14R08_expF_1_1_expS_1_4_SP14R08_a.res in P2(1)/n
REM Old TITL SP14R08 in P2(1)/n
REM SHELXT solution in P2(1)/n: R1 0.277, Rweak 0.040, Alpha 0.108
REM <I/s>   1.544 for  107 systematic absences,  Orientation as input
REM Formula found by SHELXT:  C10 O

CELL  0.71073   7.0200   9.2700  11.5600   90.000   97.670   90.000
ZERR   16.000   0.0014   0.0019   0.0023    0.000    0.030    0.000
LATT  1
SYMM 1/2-X, 1/2+Y, 1/2-Z
SFAC C H N O
UNIT 16 16 16 16
L.S. 10
BOND
LIST 6
FMAP 2
PLAN 20
C001  1  0.55100  0.55054  0.33949 11.00000  0.02476   6.46
C002  1  0.66380  0.92481  0.72171 11.00000  0.02264   6.24
C003  1  0.67969  0.48716  0.27905 11.00000  0.02810   6.16
O004  4  0.85155  0.49419  0.30880 11.00000  0.04328   6.16
C005  1  0.58795  0.64438  0.43828 11.00000  0.02928   6.04
C006  1  0.78175  0.73603  0.60912 11.00000  0.02910   5.99
C007  1  0.63221  0.82878  0.62959 11.00000  0.03030   5.94
C008  1  0.46312  0.82889  0.55576 11.00000  0.03271   5.70
C009  1  0.75937  0.64278  0.51399 11.00000  0.02904   5.70
C00A  1  0.43934  0.73624  0.45944 11.00000  0.03237   5.55
C00B  1  0.59112  0.39862  0.17664 11.00000  0.03178   5.47
HKLF 4
END
