TITL SP14R08_expF_1_2_expS_1_1_SP14R08_a.res in P2(1)/n
REM Old TITL SP14R08 in P2(1)/n
REM SHELXT solution in P2(1)/n: R1 0.280, Rweak 0.030, Alpha 0.069
REM <I/s>   1.609 for  107 systematic absences,  Orientation as input
REM Formula found by SHELXT:  C10 O

CELL  0.71073   7.0200   9.2700  11.5600   90.000   97.670   90.000
ZERR   16.000   0.0014   0.0019   0.0023    0.000    0.030    0.000
LATT  1
SYMM 1/2-X, 1/2+Y, 1/2-Z
SFAC C H N O
UNIT 16 16 16 16
L.S. 10
BOND
LIST 6
FMAP 2
PLAN 20
C001  1  0.33790  0.07568  0.27843 11.00000  0.02826   6.45
C002  1  0.44915  0.44773  0.66003 11.00000  0.03119   6.44
C003  1  0.32100  0.51222  0.72100 11.00000  0.03433   6.09
O004  4  0.14906  0.50554  0.69127 11.00000  0.05610   6.09
C005  1  0.21753  0.26271  0.39045 11.00000  0.03623   6.05
C006  1  0.41260  0.35561  0.56138 11.00000  0.03415   5.99
C007  1  0.36661  0.16972  0.37028 11.00000  0.03578   5.91
C008  1  0.53714  0.17076  0.44379 11.00000  0.03999   5.80
C009  1  0.24045  0.35602  0.48583 11.00000  0.03582   5.72
C00A  1  0.55938  0.26392  0.53988 11.00000  0.03858   5.52
C00B  1  0.40779  0.59893  0.82345 11.00000  0.03970   5.31
HKLF 4
END
