TITL SP14R08_expF_1_0_expS_0_7_SP14R08_b.res in Pn
REM Old TITL SP14R08 in P2(1)/n
REM SHELXT solution in Pn: R1 0.237, Rweak 0.041, Alpha 0.035
REM <I/s>   1.262 for  101 systematic absences,  Orientation as input
REM Formula found by SHELXT:  C13 N4 O4

CELL  0.71073   7.0200   9.2700  11.5600   90.000   97.670   90.000
ZERR   16.000   0.0014   0.0019   0.0023    0.000    0.030    0.000
LATT -1
SYMM 1/2+X, -Y, 1/2+Z
SFAC C H N O
UNIT 16 16 16 16
L.S. 10
BOND
LIST 6
FMAP 2
PLAN 20
O001  4  0.21928  0.01478  0.39012 11.00000  0.01788   9.38
O002  4  0.33492 -0.17045  0.27351 11.00000  0.02807   8.24
O003  4  0.85221  0.24362  0.30848 11.00000  0.02940   7.69
C004  1  0.68246  0.23028  0.28074 11.00000  0.02454   7.56
N005  3  0.45109  0.19927  0.65932 11.00000  0.02918   7.46
N006  3  0.63800  0.58398  0.62697 11.00000  0.03642   7.06
N007  3  0.53604 -0.08379  0.44691 11.00000  0.02701   6.83
N008  3  0.41992  0.10744  0.56174 11.00000  0.02784   6.77
C009  1  0.44368  0.48668  0.45733 11.00000  0.03587   6.14
C00A  1  0.75435  0.39036  0.51195 11.00000  0.02740   6.07
C00B  1  0.59748  0.14862  0.17645 11.00000  0.03367   6.05
C00C  1  0.55510  0.29894  0.33920 11.00000  0.02475   5.95
C00D  1  0.23843  0.10423  0.48286 11.00000  0.02965   5.65
C00E  1  0.59380  0.39374  0.44057 11.00000  0.03292   5.48
C00F  1  0.45573  0.57215  0.56223 11.00000  0.05430   5.08
C00G  1  0.56157  0.01860  0.53880 11.00000  0.03017   5.02
C00H  1  0.41380  0.35039  0.82355 11.00000  0.02703   4.99
C00I  1  0.37168 -0.07779  0.36545 11.00000  0.02720   4.97
O00J  4  0.14779  0.25653  0.68990 11.00000  0.05816   4.97
C00K  1  0.65696  0.67882  0.71561 11.00000  0.03320   4.75
C00L  1  0.32422  0.25462  0.71982 11.00000  0.02574   4.44
HKLF 4
END
