TITL SP14R08_expF_0_9_expS_0_5_SP14R08_b.res in Pn
REM Old TITL SP14R08 in P2(1)/n
REM SHELXT solution in Pn: R1 0.233, Rweak 0.072, Alpha 0.073
REM <I/s>   1.141 for  101 systematic absences,  Orientation as input
REM Formula found by SHELXT:  C13 N5 O4

CELL  0.71073   7.0200   9.2700  11.5600   90.000   97.670   90.000
ZERR   16.000   0.0014   0.0019   0.0023    0.000    0.030    0.000
LATT -1
SYMM 1/2+X, -Y, 1/2+Z
SFAC C H N O
UNIT 16 16 16 16
L.S. 10
BOND
LIST 6
FMAP 2
PLAN 20
O001  4  0.46261  0.70321  0.66816 11.00000  0.03235   8.74
N002  3  0.63928  1.07154  0.63667 11.00000  0.02967   8.32
O003  4  0.40442  0.85173  0.82261 11.00000  0.05490   7.55
N004  3  0.42396  0.60422  0.57338 11.00000  0.03296   7.49
N005  3  0.78412  0.89163  0.51706 11.00000  0.05081   6.95
N006  3  0.21776  0.50802  0.39921 11.00000  0.03803   6.87
C007  1  0.33250  0.75604  0.73038 11.00000  0.01309   6.70
N008  3  0.56440  0.42587  0.45173 11.00000  0.04093   6.61
C009  1  0.67347  1.17010  0.72744 11.00000  0.01740   6.45
C00A  1  0.56551  0.52589  0.53774 11.00000  0.02646   6.36
O00B  4  0.15014  0.74797  0.69276 11.00000  0.02907   6.22
O00C  4  0.84986  0.73540  0.31016 11.00000  0.04796   6.22
C00D  1  0.34566  0.32091  0.28304 11.00000  0.01800   5.82
C00E  1  0.68964  0.72512  0.29071 11.00000  0.02876   5.48
C00F  1  0.78661  0.98362  0.61972 11.00000  0.02016   5.46
C00G  1  0.44740  0.99412  0.45794 11.00000  0.01933   4.86
C00H  1  0.48376  1.08221  0.56250 11.00000  0.02084   4.80
C00I  1  0.59753  0.88995  0.44976 11.00000  0.02162   4.59
C00J  1  0.25952  0.60702  0.48895 11.00000  0.01164   4.39
C00K  1  0.56638  0.80348  0.34609 11.00000  0.02884   3.95
C00L  1  0.59190  0.65112  0.17739 11.00000  0.02190   3.64
C00M  1  0.37048  0.41069  0.37452 11.00000  0.03461   3.11
HKLF 4
END
