TITL SP14R08_expF_0_8_expS_0_7_SP14R08_a.res in Pn
REM Old TITL SP14R08 in P2(1)/n
REM SHELXT solution in Pn: R1 0.230, Rweak 0.106, Alpha 0.046
REM <I/s>   1.137 for  101 systematic absences,  Orientation as input
REM Formula found by SHELXT:  C14 N3 O5

CELL  0.71073   7.0200   9.2700  11.5600   90.000   97.670   90.000
ZERR   16.000   0.0014   0.0019   0.0023    0.000    0.030    0.000
LATT -1
SYMM 1/2+X, -Y, 1/2+Z
SFAC C H N O
UNIT 16 16 16 16
L.S. 10
BOND
LIST 6
FMAP 2
PLAN 20
O001  4  0.74427  0.10706  0.48418 11.00000  0.00073  10.28
O002  4  0.84609 -0.17200  0.27942 11.00000  0.01792   7.73
O003  4  0.35486  0.23787  0.30976 11.00000  0.02152   7.71
N004  3  0.86670 -0.07188  0.36716 11.00000  0.01208   7.63
N005  3  0.95979  0.20379  0.66407 11.00000  0.01879   6.92
N006  3 -0.04062  0.58115  0.54945 11.00000  0.03363   6.64
C007  1  0.72028  0.01124  0.38773 11.00000  0.02601   6.48
C008  1  0.18404  0.23686  0.28411 11.00000  0.01307   6.30
C009  1  0.09477  0.39780  0.44284 11.00000  0.02069   5.84
C00A  1 -0.06014  0.48502  0.46022 11.00000  0.02759   5.72
C00B  1  0.91617  0.11324  0.56422 11.00000  0.01366   5.60
C00C  1  0.07684  0.14706  0.17705 11.00000  0.02846   5.46
C00D  1  0.89799  0.34899  0.82295 11.00000  0.00858   5.43
C00E  1  0.06310  0.30398  0.34402 11.00000  0.01238   5.22
C00F  1  0.82388  0.26428  0.72472 11.00000  0.02176   5.20
C00G  1  0.28297  0.48345  0.60756 11.00000  0.01610   5.13
C00H  1  1.06014  0.01476  0.54012 11.00000  0.01239   4.94
O00I  4  0.64921  0.25174  0.69041 11.00000  0.03534   4.92
C00J  1  0.17683  0.67934  0.72044 11.00000  0.02496   4.37
C00K  1  1.04242 -0.07659  0.43985 11.00000  0.03021   3.27
O00L  4  0.60313  0.03396  0.31375 11.00000  0.25131   3.06
C00M  1  0.13237  0.59055  0.62581 11.00000  0.03351   3.06
HKLF 4
END
