TITL SP14R08_expF_1_3_expS_0_5_SP14R08_a.res in P2(1)/n
REM Old TITL SP14R08 in P2(1)/n
REM SHELXT solution in P2(1)/n: R1 0.292, Rweak 0.024, Alpha 0.043
REM <I/s>   2.117 for  107 systematic absences,  Orientation as input
REM Formula found by SHELXT:  C10 O

CELL  0.71073   7.0200   9.2700  11.5600   90.000   97.670   90.000
ZERR   16.000   0.0014   0.0019   0.0023    0.000    0.030    0.000
LATT  1
SYMM 1/2-X, 1/2+Y, 1/2-Z
SFAC C H N O
UNIT 16 16 16 16
L.S. 10
BOND
LIST 6
FMAP 2
PLAN 20
C001  1  0.66052  0.07666  0.72212 11.00000  0.03427   6.46
C002  1  0.55179  0.44829  0.33910 11.00000  0.03728   6.41
C003  1  0.78306  0.26052  0.61027 11.00000  0.04536   6.09
O004  4  0.85267  0.50466  0.30770 11.00000  0.06867   6.04
C005  1  0.67651  0.51394  0.27956 11.00000  0.04317   6.04
C006  1  0.58741  0.35677  0.43841 11.00000  0.03973   6.02
C007  1  0.46171  0.16972  0.55623 11.00000  0.04632   5.92
C008  1  0.63437  0.16876  0.63040 11.00000  0.04148   5.79
C009  1  0.75906  0.35647  0.51390 11.00000  0.04672   5.73
C00A  1  0.44236  0.26535  0.45980 11.00000  0.04677   5.66
C00B  1  0.59577  0.59798  0.17694 11.00000  0.04792   5.36
HKLF 4
END
