TITL SP14R08_expF_0_7_expS_1_4_SP14R08_a.res in Pn
REM Old TITL SP14R08 in P2(1)/n
REM SHELXT solution in Pn: R1 0.265, Rweak 0.191, Alpha 0.075
REM <I/s>   1.439 for   97 systematic absences,  Orientation as input
REM Formula found by SHELXT:  C8 N2 O9

CELL  0.71073   7.0200   9.2700  11.5600   90.000   97.670   90.000
ZERR   16.000   0.0014   0.0019   0.0023    0.000    0.030    0.000
LATT -1
SYMM 1/2+X, -Y, 1/2+Z
SFAC C H N O
UNIT 16 16 16 16
L.S. 10
BOND
LIST 6
FMAP 2
PLAN 20
C001  1  0.83347  0.76370  0.71146 11.00000  0.00010   9.98
O002  4 -0.02084  1.07581  0.55312 11.00000  0.00531   8.96
O003  4  0.75279  0.60293  0.47724 11.00000  0.00010   8.75
O004  4  0.88703  0.42210  0.36113 11.00000  0.02098   8.34
O005  4  0.65802  0.75380  0.68290 11.00000  0.01413   8.17
O006  4  0.19268  1.16468  0.71502 11.00000  0.00674   7.79
O007  4  0.30283  0.97748  0.60170 11.00000  0.02709   7.73
C008  1  0.10764  0.88615  0.43075 11.00000  0.02119   7.71
O009  4  0.93475  0.84953  0.82815 11.00000  0.04363   7.68
N00A  3  0.96452  0.69894  0.65322 11.00000  0.02155   7.29
O00B  4  0.07101  0.80443  0.32837 11.00000  0.01703   7.19
N00C  3 -0.05548  0.98453  0.44909 11.00000  0.00208   6.96
C00D  1  0.86101  0.31331  0.27359 11.00000  0.00270   5.18
C00E  1  0.35398  0.74183  0.29712 11.00000  0.00153   5.14
O00F  4  1.05548  0.50301  0.52701 11.00000  0.04088   4.73
C00G  1  0.92631  0.60213  0.55983 11.00000  0.01810   4.12
C00H  1  0.10727  0.64445  0.17185 11.00000  0.00023   4.09
C00I  1  0.73382  0.50819  0.38340 11.00000  0.00777   3.62
C00J  1  0.14419  1.07658  0.61638 11.00000  0.01057   3.59
HKLF 4
END
