TITL SP14R08_expF_1_3_expS_0_8_SP14R08_a.res in P2(1)/n
REM Old TITL SP14R08 in P2(1)/n
REM SHELXT solution in P2(1)/n: R1 0.291, Rweak 0.024, Alpha 0.043
REM <I/s>   1.887 for  107 systematic absences,  Orientation as input
REM Formula found by SHELXT:  C10 O

CELL  0.71073   7.0200   9.2700  11.5600   90.000   97.670   90.000
ZERR   16.000   0.0014   0.0019   0.0023    0.000    0.030    0.000
LATT  1
SYMM 1/2-X, 1/2+Y, 1/2-Z
SFAC C H N O
UNIT 16 16 16 16
L.S. 10
BOND
LIST 6
FMAP 2
PLAN 20
C001  1  0.66046  0.07625  0.72198 11.00000  0.03347   6.46
C002  1  0.55085  0.44836  0.33893 11.00000  0.03735   6.41
C003  1  0.78223  0.26089  0.60973 11.00000  0.04338   6.09
O004  4  0.85260  0.50484  0.30808 11.00000  0.06632   6.04
C005  1  0.67721  0.51349  0.27944 11.00000  0.04253   6.04
C006  1  0.58741  0.35644  0.43866 11.00000  0.03924   6.02
C007  1  0.46253  0.16999  0.55642 11.00000  0.04572   5.92
C008  1  0.63437  0.16890  0.63034 11.00000  0.04075   5.79
C009  1  0.75938  0.35660  0.51401 11.00000  0.04366   5.73
C00A  1  0.44195  0.26542  0.45956 11.00000  0.04578   5.66
C00B  1  0.59414  0.59801  0.17703 11.00000  0.04734   5.36
HKLF 4
END
