TITL SP14R08_expF_0_8_expS_1_2_SP14R08_a.res in P2(1)/n
REM Old TITL SP14R08 in P2(1)/n
REM SHELXT solution in P2(1)/n: R1 0.290, Rweak 0.137, Alpha 0.172
REM <I/s>   1.301 for  107 systematic absences,  Orientation as input
REM Formula found by SHELXT:  C10 O

CELL  0.71073   7.0200   9.2700  11.5600   90.000   97.670   90.000
ZERR   16.000   0.0014   0.0019   0.0023    0.000    0.030    0.000
LATT  1
SYMM 1/2-X, 1/2+Y, 1/2-Z
SFAC C H N O
UNIT 16 16 16 16
L.S. 10
BOND
LIST 6
FMAP 2
PLAN 20
O001  4  0.85036  0.50697  0.30858 11.00000  0.02474   6.75
C002  1  0.55182  0.44985  0.33853 11.00000  0.01352   6.49
C003  1  0.63045  0.17136  0.62812 11.00000  0.01926   6.13
C004  1  0.66778  0.07462  0.72151 11.00000  0.01416   6.09
C005  1  0.78038  0.26447  0.61040 11.00000  0.01639   6.03
C006  1  0.59147  0.60063  0.17682 11.00000  0.01726   5.87
C007  1  0.58773  0.35557  0.43706 11.00000  0.02243   5.84
C008  1  0.75978  0.35722  0.51441 11.00000  0.01730   5.79
C009  1  0.68013  0.51389  0.27873 11.00000  0.01889   5.72
C00A  1  0.45918  0.17148  0.55427 11.00000  0.02054   5.60
C00B  1  0.43758  0.26271  0.45929 11.00000  0.02149   5.36
HKLF 4
END
