TITL SP14R08_expF_1_2_expS_1_5_SP14R08_b.res in Pn
REM Old TITL SP14R08 in P2(1)/n
REM SHELXT solution in Pn: R1 0.254, Rweak 0.028, Alpha 0.022
REM <I/s>   1.690 for  101 systematic absences,  Orientation as input
REM Formula found by SHELXT:  C10 N5 O7

CELL  0.71073   7.0200   9.2700  11.5600   90.000   97.670   90.000
ZERR   16.000   0.0014   0.0019   0.0023    0.000    0.030    0.000
LATT -1
SYMM 1/2+X, -Y, 1/2+Z
SFAC C H N O
UNIT 16 16 16 16
L.S. 10
BOND
LIST 6
FMAP 2
PLAN 20
N001  3  0.41360  0.89328  0.56364 11.00000  0.03249   9.94
O002  4  0.21883  0.98585  0.39985 11.00000  0.03397   9.19
O003  4  0.85114  0.76273  0.31287 11.00000  0.04125   8.86
O004  4  0.54343  1.08165  0.45025 11.00000  0.04879   8.79
O005  4  0.33032  1.16921  0.28178 11.00000  0.02037   8.35
N006  3  0.63149  0.41484  0.63631 11.00000  0.03414   8.29
O007  4  0.44164  0.51281  0.46239 11.00000  0.04663   8.11
O008  4  0.44814  0.80320  0.66043 11.00000  0.04278   7.92
C009  1  0.32454  0.74481  0.72300 11.00000  0.02532   7.32
N00A  3  0.76022  0.60385  0.51937 11.00000  0.03161   7.03
N00B  3  0.55239  0.70005  0.34041 11.00000  0.03042   6.77
N00C  3  0.40983  0.64968  0.82290 11.00000  0.04311   6.65
C00D  1  0.68105  0.76999  0.28323 11.00000  0.03126   6.51
C00E  1  0.64907  0.31804  0.72709 11.00000  0.03993   6.40
C00F  1  0.59462  0.85195  0.17710 11.00000  0.03118   6.13
C00G  1  0.24180  0.89289  0.49100 11.00000  0.03180   5.79
O00H  4  0.14886  0.74925  0.69580 11.00000  0.03742   5.41
C00I  1  0.78369  0.51173  0.62033 11.00000  0.03948   5.32
C00J  1  0.55843  0.98517  0.54286 11.00000  0.03209   5.12
C00K  1  0.46821  0.42384  0.56277 11.00000  0.03819   5.05
C00L  1  0.36666  1.07786  0.37518 11.00000  0.03245   4.71
C00M  1  0.58989  0.60617  0.44128 11.00000  0.03007   4.08
HKLF 4
END
