TITL SP14R08_expF_0_8_expS_1_2_SP14R08_b.res in Pn
REM Old TITL SP14R08 in P2(1)/n
REM SHELXT solution in Pn: R1 0.227, Rweak 0.118, Alpha 0.102
REM <I/s>   1.320 for  101 systematic absences,  Orientation as input
REM Formula found by SHELXT:  C12 N4 O7

CELL  0.71073   7.0200   9.2700  11.5600   90.000   97.670   90.000
ZERR   16.000   0.0014   0.0019   0.0023    0.000    0.030    0.000
LATT -1
SYMM 1/2+X, -Y, 1/2+Z
SFAC C H N O
UNIT 16 16 16 16
L.S. 10
BOND
LIST 6
FMAP 2
PLAN 20
O001  4  0.93849  0.79779  0.66129 11.00000  0.00823  10.16
C002  1  0.86053  1.08647  0.37649 11.00000  0.00820  10.15
O003  4  0.64022  0.75102  0.69315 11.00000  0.01922   9.99
O004  4  0.74733  0.89204  0.49094 11.00000  0.01766   8.91
N005  3  0.08229  0.61380  0.44428 11.00000  0.01851   8.39
N006  3  0.72066  0.98421  0.40050 11.00000  0.00117   7.78
O007  4  0.83867  1.17146  0.28110 11.00000  0.01049   7.34
O008  4  0.90284  0.64847  0.82271 11.00000  0.02296   7.33
N009  3  0.17299  0.76922  0.27959 11.00000  0.01709   7.25
N00A  3 -0.03799  0.42597  0.56237 11.00000  0.01118   7.05
C00B  1  1.06244  0.97295  0.54198 11.00000  0.01612   6.41
C00C  1  0.17362  0.31846  0.72412 11.00000  0.02152   6.21
C00D  1  0.28435  0.51024  0.62643 11.00000  0.02913   5.82
C00E  1 -0.06244  0.49981  0.46091 11.00000  0.01232   5.76
C00F  1  0.81575  0.74342  0.72089 11.00000  0.01811   5.67
C00G  1  1.04889  1.08650  0.45508 11.00000  0.02669   5.43
C00H  1  0.08226  0.85179  0.17729 11.00000  0.02074   5.08
O00I  4  0.34532  0.76504  0.31210 11.00000  0.02469   4.64
C00J  1  0.90433  0.89901  0.56681 11.00000  0.01512   3.93
C00K  1  0.03643  0.69888  0.33685 11.00000  0.02835   3.77
C00L  1  0.12346  0.42738  0.63684 11.00000  0.01439   3.39
O00M  4  0.58226  0.97334  0.31561 11.00000  0.23500   3.25
C00N  1  0.27327  0.60355  0.52058 11.00000  0.02764   3.17
HKLF 4
END
