TITL SP14R08_expF_1_0_expS_0_6_SP14R08_a.res in P2(1)/n
REM Old TITL SP14R08 in P2(1)/n
REM SHELXT solution in P2(1)/n: R1 0.269, Rweak 0.056, Alpha 0.115
REM <I/s>   1.428 for  107 systematic absences,  Orientation as input
REM Formula found by SHELXT:  C9 N O

CELL  0.71073   7.0200   9.2700  11.5600   90.000   97.670   90.000
ZERR   16.000   0.0014   0.0019   0.0023    0.000    0.030    0.000
LATT  1
SYMM 1/2-X, 1/2+Y, 1/2-Z
SFAC C H N O
UNIT 16 16 16 16
L.S. 10
BOND
LIST 6
FMAP 2
PLAN 20
N001  3  0.44925  0.44961  0.66101 11.00000  0.03401   6.57
O002  4  0.14929  0.50543  0.69117 11.00000  0.04722   6.33
C003  1  0.33722  0.07462  0.27808 11.00000  0.02135   6.26
C004  1  0.32114  0.51197  0.72096 11.00000  0.02457   6.18
C005  1  0.21682  0.26298  0.38981 11.00000  0.02934   6.06
C006  1  0.41210  0.35707  0.56154 11.00000  0.02587   6.05
C007  1  0.36585  0.17097  0.36946 11.00000  0.02821   5.92
C008  1  0.24156  0.35689  0.48526 11.00000  0.02869   5.65
C009  1  0.55979  0.26523  0.54082 11.00000  0.03080   5.58
C00A  1  0.53889  0.17085  0.44502 11.00000  0.03252   5.57
C00B  1  0.40721  0.60075  0.82336 11.00000  0.03049   5.50
HKLF 4
END
