TITL SP14R08_expF_1_4_expS_0_8_SP14R08_a.res in P2(1)/n
REM Old TITL SP14R08 in P2(1)/n
REM SHELXT solution in P2(1)/n: R1 0.311, Rweak 0.021, Alpha 0.045
REM <I/s>   1.434 for  107 systematic absences,  Orientation as input
REM Formula found by SHELXT:  C10 O

CELL  0.71073   7.0200   9.2700  11.5600   90.000   97.670   90.000
ZERR   16.000   0.0014   0.0019   0.0023    0.000    0.030    0.000
LATT  1
SYMM 1/2-X, 1/2+Y, 1/2-Z
SFAC C H N O
UNIT 16 16 16 16
L.S. 10
BOND
LIST 6
FMAP 2
PLAN 20
C001  1  0.65909  0.92470  0.72188 11.00000  0.03780   6.42
C002  1  0.55257  0.55231  0.33961 11.00000  0.04393   6.32
C003  1  0.78141  0.73841  0.60936 11.00000  0.04890   6.25
C004  1  0.46426  0.83137  0.55668 11.00000  0.05179   6.07
C005  1  0.58854  0.64407  0.43864 11.00000  0.04532   6.05
O006  4  0.85101  0.49492  0.30899 11.00000  0.07187   6.03
C007  1  0.67805  0.48620  0.27852 11.00000  0.04592   5.82
C008  1  0.44191  0.73556  0.45922 11.00000  0.05397   5.79
C009  1  0.76005  0.64265  0.51401 11.00000  0.04900   5.71
C00A  1  0.63350  0.83124  0.62898 11.00000  0.04637   5.69
C00B  1  0.59134  0.40234  0.17656 11.00000  0.05509   5.38
HKLF 4
END
