TITL SP14R08_expF_1_5_expS_1_3_SP14R08_a.res in P2(1)/n
REM Old TITL SP14R08 in P2(1)/n
REM SHELXT solution in P2(1)/n: R1 0.359, Rweak 0.017, Alpha 0.033
REM <I/s>   1.805 for  107 systematic absences,  Orientation as input
REM Formula found by SHELXT:  C9 N O

CELL  0.71073   7.0200   9.2700  11.5600   90.000   97.670   90.000
ZERR   16.000   0.0014   0.0019   0.0023    0.000    0.030    0.000
LATT  1
SYMM 1/2-X, 1/2+Y, 1/2-Z
SFAC C H N O
UNIT 16 16 16 16
L.S. 10
BOND
LIST 6
FMAP 2
PLAN 20
N001  3  0.65983  0.92419  0.72124 11.00000  0.03933   6.56
C002  1  0.55137  0.55301  0.33977 11.00000  0.03506   6.34
C003  1  0.78074  0.73544  0.60722 11.00000  0.04258   6.17
C004  1  0.58799  0.64349  0.43801 11.00000  0.03738   6.05
C005  1  0.46154  0.82923  0.55612 11.00000  0.04408   6.01
O006  4  0.85452  0.49499  0.30895 11.00000  0.05533   5.92
C007  1  0.67782  0.48598  0.28009 11.00000  0.04159   5.92
C008  1  0.63278  0.83272  0.62957 11.00000  0.04150   5.76
C009  1  0.76019  0.64125  0.51431 11.00000  0.04115   5.76
C00A  1  0.44043  0.73522  0.46111 11.00000  0.04479   5.74
C00B  1  0.58921  0.40151  0.17625 11.00000  0.04927   5.27
HKLF 4
END
