TITL SP14R08_expF_1_2_expS_0_5_SP14R08_a.res in P2(1)/n
REM Old TITL SP14R08 in P2(1)/n
REM SHELXT solution in P2(1)/n: R1 0.283, Rweak 0.023, Alpha 0.069
REM <I/s>   1.792 for  107 systematic absences,  Orientation as input
REM Formula found by SHELXT:  C10 O

CELL  0.71073   7.0200   9.2700  11.5600   90.000   97.670   90.000
ZERR   16.000   0.0014   0.0019   0.0023    0.000    0.030    0.000
LATT  1
SYMM 1/2-X, 1/2+Y, 1/2-Z
SFAC C H N O
UNIT 16 16 16 16
L.S. 10
BOND
LIST 6
FMAP 2
PLAN 20
C001  1  0.44914  0.44761  0.66011 11.00000  0.03505   6.42
C002  1  0.33976  0.07573  0.27882 11.00000  0.03274   6.40
C003  1  0.32243  0.51275  0.72039 11.00000  0.03710   6.13
C004  1  0.21668  0.26142  0.38955 11.00000  0.04112   6.07
O005  4  0.14890  0.50441  0.69130 11.00000  0.06972   6.06
C006  1  0.41374  0.35536  0.56152 11.00000  0.03659   5.99
C007  1  0.53908  0.17099  0.44434 11.00000  0.04250   5.88
C008  1  0.36491  0.16882  0.37040 11.00000  0.03884   5.79
C009  1  0.24072  0.35599  0.48552 11.00000  0.04283   5.72
C00A  1  0.55707  0.26424  0.53927 11.00000  0.04251   5.58
C00B  1  0.40618  0.59845  0.82388 11.00000  0.04368   5.41
HKLF 4
END
