TITL SP14R08_expF_1_0_expS_1_4_SP14R08_a.res in P2(1)/n
REM Old TITL SP14R08 in P2(1)/n
REM SHELXT solution in P2(1)/n: R1 0.272, Rweak 0.063, Alpha 0.107
REM <I/s>   1.484 for  107 systematic absences,  Orientation as input
REM Formula found by SHELXT:  C9 N O

CELL  0.71073   7.0200   9.2700  11.5600   90.000   97.670   90.000
ZERR   16.000   0.0014   0.0019   0.0023    0.000    0.030    0.000
LATT  1
SYMM 1/2-X, 1/2+Y, 1/2-Z
SFAC C H N O
UNIT 16 16 16 16
L.S. 10
BOND
LIST 6
FMAP 2
PLAN 20
N001  3  0.55185  0.44930  0.33912 11.00000  0.02764   6.56
C002  1  0.66536  0.07468  0.72192 11.00000  0.01774   6.28
O003  4  0.84988  0.50730  0.30856 11.00000  0.03575   6.22
C004  1  0.67924  0.51213  0.27913 11.00000  0.02282   6.22
C005  1  0.78154  0.26430  0.60944 11.00000  0.02390   6.02
C006  1  0.58857  0.35605  0.43838 11.00000  0.02558   5.96
C007  1  0.63229  0.17131  0.63006 11.00000  0.02598   5.87
C008  1  0.76007  0.35644  0.51445 11.00000  0.02456   5.71
C009  1  0.46177  0.17133  0.55591 11.00000  0.02787   5.66
C00A  1  0.43891  0.26408  0.45934 11.00000  0.02697   5.50
C00B  1  0.59124  0.60142  0.17653 11.00000  0.02560   5.43
HKLF 4
END
