TITL SP14R08_expF_1_0_expS_1_3_SP14R08_b.res in Pn
REM Old TITL SP14R08 in P2(1)/n
REM SHELXT solution in Pn: R1 0.230, Rweak 0.054, Alpha 0.031
REM <I/s>   1.457 for  101 systematic absences,  Orientation as input
REM Formula found by SHELXT:  C14 N3 O5

CELL  0.71073   7.0200   9.2700  11.5600   90.000   97.670   90.000
ZERR   16.000   0.0014   0.0019   0.0023    0.000    0.030    0.000
LATT -1
SYMM 1/2+X, -Y, 1/2+Z
SFAC C H N O
UNIT 16 16 16 16
L.S. 10
BOND
LIST 6
FMAP 2
PLAN 20
O001  4  0.14853  0.76305  0.68668 11.00000  0.03148   8.46
N002  3  0.58216  0.89503  0.43272 11.00000  0.03485   8.31
O003  4  0.77923  0.98827  0.59852 11.00000  0.03022   8.27
O004  4  0.66673  1.17153  0.71868 11.00000  0.00932   7.67
N005  3  0.56155  0.51285  0.53660 11.00000  0.03458   7.02
C006  1  0.37059  0.41610  0.36584 11.00000  0.02427   6.74
N007  3  0.55278  0.79807  0.33807 11.00000  0.02711   6.72
C008  1  0.67791  0.74595  0.27274 11.00000  0.03059   6.56
C009  1  0.45113  0.69687  0.65832 11.00000  0.02411   5.94
C00A  1  0.58898  0.64724  0.17709 11.00000  0.02985   5.63
C00B  1  0.45710  1.08364  0.54899 11.00000  0.02563   5.62
C00C  1  0.53443  0.42485  0.43951 11.00000  0.03524   5.62
C00D  1  0.23520  0.60249  0.48059 11.00000  0.02425   5.42
C00E  1  0.75174  0.89095  0.50922 11.00000  0.02699   5.33
C00F  1  0.31980  0.76951  0.71337 11.00000  0.02176   5.10
C00G  1  0.40468  0.85360  0.82291 11.00000  0.02909   5.06
C00H  1  0.63506  1.07717  0.62518 11.00000  0.02715   4.47
O00I  4  0.37211  0.30531  0.27670 11.00000  0.11483   4.30
C00J  1  0.44221  0.98524  0.45414 11.00000  0.03126   3.82
O00K  4  0.85147  0.75269  0.30392 11.00000  0.03955   3.81
C00L  1  0.21376  0.51494  0.37542 11.00000  0.04060   3.74
C00M  1  0.40797  0.61024  0.55539 11.00000  0.02864   3.09
HKLF 4
END
