TITL SP14R08_expF_0_7_expS_1_2_SP14R08_a.res in Pn
REM Old TITL SP14R08 in P2(1)/n
REM SHELXT solution in Pn: R1 0.250, Rweak 0.195, Alpha 0.154
REM <I/s>   1.339 for   97 systematic absences,  Orientation as input
REM Formula found by SHELXT:  C11 N6 O4

CELL  0.71073   7.0200   9.2700  11.5600   90.000   97.670   90.000
ZERR   16.000   0.0014   0.0019   0.0023    0.000    0.030    0.000
LATT -1
SYMM 1/2+X, -Y, 1/2+Z
SFAC C H N O
UNIT 16 16 16 16
L.S. 10
BOND
LIST 6
FMAP 2
PLAN 20
O001  4  0.18858  0.26149  0.69115 11.00000  0.00010   9.92
O002  4  0.58867  0.30149  0.34288 11.00000  0.03174   7.99
O003  4  0.37363 -0.17173  0.27434 11.00000  0.03039   7.53
N004  3  0.25002  0.01230  0.38250 11.00000  0.01531   7.32
N005  3  0.56688 -0.07033  0.44086 11.00000  0.01730   7.21
N006  3  0.58280  0.01052  0.53424 11.00000  0.01785   7.15
C007  1  0.36407  0.27056  0.71687 11.00000  0.00804   7.07
N008  3  0.44966  0.10548  0.55918 11.00000  0.01000   6.83
N009  3  0.63093  0.15782  0.17721 11.00000  0.01443   6.77
N00A  3  0.80611  0.39557  0.52066 11.00000  0.03091   6.71
C00B  1  0.66859  0.59173  0.63849 11.00000  0.03027   6.09
C00C  1  0.40365 -0.07519  0.37251 11.00000  0.00021   5.69
C00D  1  0.72470  0.24206  0.27744 11.00000  0.02075   5.50
C00E  1  0.63583  0.38967  0.42682 11.00000  0.05557   5.16
C00F  1  0.48499  0.19690  0.66233 11.00000  0.00454   5.12
O00G  4  0.70547  0.67865  0.71613 11.00000  0.03946   5.01
C00H  1  0.28478  0.11026  0.48756 11.00000  0.00707   4.56
C00I  1  0.44624  0.36380  0.82279 11.00000  0.01651   4.55
C00J  1  0.81142  0.48162  0.60046 11.00000  0.01645   4.22
C00K  1  0.45816  0.48157  0.45450 11.00000  0.02895   3.94
C00L  1  0.49134  0.58407  0.55204 11.00000  0.01746   3.82
HKLF 4
END
