TITL SP14R08_expF_1_4_expS_1_3_SP14R08_a.res in P2(1)/n
REM Old TITL SP14R08 in P2(1)/n
REM SHELXT solution in P2(1)/n: R1 0.322, Rweak 0.019, Alpha 0.028
REM <I/s>   1.585 for  107 systematic absences,  Orientation as input
REM Formula found by SHELXT:  C10 O

CELL  0.71073   7.0200   9.2700  11.5600   90.000   97.670   90.000
ZERR   16.000   0.0014   0.0019   0.0023    0.000    0.030    0.000
LATT  1
SYMM 1/2-X, 1/2+Y, 1/2-Z
SFAC C H N O
UNIT 16 16 16 16
L.S. 10
BOND
LIST 6
FMAP 2
PLAN 20
C001  1  0.66111  0.07530  0.72235 11.00000  0.03431   6.40
C002  1  0.55222  0.44861  0.34024 11.00000  0.03938   6.31
C003  1  0.78283  0.26179  0.60913 11.00000  0.04348   6.26
C004  1  0.46470  0.16899  0.55661 11.00000  0.04731   6.05
C005  1  0.58925  0.35555  0.43872 11.00000  0.04162   6.02
O006  4  0.85116  0.50556  0.30925 11.00000  0.06072   6.01
C007  1  0.67952  0.51322  0.27919 11.00000  0.04303   5.85
C008  1  0.44128  0.26546  0.45979 11.00000  0.04860   5.78
C009  1  0.76019  0.35722  0.51406 11.00000  0.04318   5.72
C00A  1  0.63251  0.16891  0.62945 11.00000  0.04357   5.68
C00B  1  0.58932  0.59883  0.17675 11.00000  0.05110   5.36
HKLF 4
END
