TITL SP14R08_expF_1_3_expS_1_3_SP14R08_b.res in Pn
REM Old TITL SP14R08 in P2(1)/n
REM SHELXT solution in Pn: R1 0.278, Rweak 0.023, Alpha 0.022
REM <I/s>   1.732 for  101 systematic absences,  Orientation as input
REM Formula found by SHELXT:  C15 N4 O3

CELL  0.71073   7.0200   9.2700  11.5600   90.000   97.670   90.000
ZERR   16.000   0.0014   0.0019   0.0023    0.000    0.030    0.000
LATT -1
SYMM 1/2+X, -Y, 1/2+Z
SFAC C H N O
UNIT 16 16 16 16
L.S. 10
BOND
LIST 6
FMAP 2
PLAN 20
O001  4  0.22273  0.98831  0.39166 11.00000  0.06689   7.89
C002  1  0.68457  0.76748  0.28655 11.00000  0.03733   7.49
N003  3  0.54292  1.08328  0.45066 11.00000  0.04027   7.27
N004  3  0.44962  0.80148  0.66230 11.00000  0.04117   7.17
N005  3  0.42430  0.89449  0.56408 11.00000  0.04684   7.07
N006  3  0.66235  0.32270  0.72024 11.00000  0.04434   6.87
O007  4  0.14757  0.74208  0.69310 11.00000  0.05197   6.41
C008  1  0.24710  0.88953  0.48243 11.00000  0.04065   6.40
C009  1  0.41671  0.64492  0.82277 11.00000  0.04161   6.32
C00A  1  0.33921  1.16963  0.27633 11.00000  0.02767   6.28
C00B  1  0.37660  1.07563  0.36779 11.00000  0.04126   6.16
C00C  1  0.55734  0.98640  0.53893 11.00000  0.03892   5.92
O00D  4  0.85243  0.75422  0.30970 11.00000  0.05931   5.83
C00E  1  0.55418  0.69931  0.34231 11.00000  0.03744   5.62
C00F  1  0.44112  0.51693  0.45838 11.00000  0.04547   5.59
C00G  1  0.64185  0.41350  0.62955 11.00000  0.03612   5.49
C00H  1  0.59752  0.60859  0.44143 11.00000  0.03879   5.36
C00I  1  0.76531  0.60287  0.51072 11.00000  0.03897   5.34
C00J  1  0.46709  0.42832  0.56659 11.00000  0.05773   5.13
C00K  1  0.78773  0.51406  0.60979 11.00000  0.04094   4.74
C00L  1  0.32828  0.74093  0.72528 11.00000  0.04131   4.51
C00M  1  0.60258  0.84328  0.17723 11.00000  0.05079   4.46
HKLF 4
END
