TITL SP14R08_expF_1_5_expS_0_5_SP14R08_a.res in P2(1)/n
REM Old TITL SP14R08 in P2(1)/n
REM SHELXT solution in P2(1)/n: R1 0.334, Rweak 0.019, Alpha 0.029
REM <I/s>   2.229 for  107 systematic absences,  Orientation as input
REM Formula found by SHELXT:  C9 N O

CELL  0.71073   7.0200   9.2700  11.5600   90.000   97.670   90.000
ZERR   16.000   0.0014   0.0019   0.0023    0.000    0.030    0.000
LATT  1
SYMM 1/2-X, 1/2+Y, 1/2-Z
SFAC C H N O
UNIT 16 16 16 16
L.S. 10
BOND
LIST 6
FMAP 2
PLAN 20
N001  3  0.65824  0.07733  0.72015 11.00000  0.04792   6.51
C002  1  0.55070  0.44661  0.33924 11.00000  0.04277   6.34
C003  1  0.77789  0.26441  0.60644 11.00000  0.05189   6.19
C004  1  0.58643  0.35720  0.43755 11.00000  0.04467   6.10
C005  1  0.46097  0.17003  0.55601 11.00000  0.05267   6.09
O006  4  0.85245  0.50394  0.30858 11.00000  0.07152   5.91
C007  1  0.67578  0.51482  0.27929 11.00000  0.05151   5.90
C008  1  0.75825  0.35842  0.51319 11.00000  0.05336   5.81
C009  1  0.63493  0.16735  0.62949 11.00000  0.04968   5.80
C00A  1  0.44237  0.26538  0.46098 11.00000  0.05681   5.77
C00B  1  0.59203  0.59675  0.17488 11.00000  0.05860   5.29
HKLF 4
END
