TITL SP14R08_expF_1_4_expS_0_9_SP14R08_a.res in P2(1)/n
REM Old TITL SP14R08 in P2(1)/n
REM SHELXT solution in P2(1)/n: R1 0.312, Rweak 0.021, Alpha 0.039
REM <I/s>   1.457 for  107 systematic absences,  Orientation as input
REM Formula found by SHELXT:  C10 O

CELL  0.71073   7.0200   9.2700  11.5600   90.000   97.670   90.000
ZERR   16.000   0.0014   0.0019   0.0023    0.000    0.030    0.000
LATT  1
SYMM 1/2-X, 1/2+Y, 1/2-Z
SFAC C H N O
UNIT 16 16 16 16
L.S. 10
BOND
LIST 6
FMAP 2
PLAN 20
C001  1  0.65984  0.07520  0.72213 11.00000  0.03742   6.40
C002  1  0.55215  0.44803  0.33957 11.00000  0.04300   6.33
C003  1  0.78206  0.26152  0.60947 11.00000  0.04799   6.18
C004  1  0.58887  0.35590  0.43875 11.00000  0.04499   6.02
C005  1  0.46484  0.16858  0.55685 11.00000  0.05142   5.98
O006  4  0.85100  0.50505  0.30899 11.00000  0.06962   5.97
C007  1  0.67824  0.51360  0.27860 11.00000  0.04547   5.96
C008  1  0.63295  0.16872  0.62892 11.00000  0.04590   5.79
C009  1  0.44134  0.26462  0.45906 11.00000  0.05255   5.74
C00A  1  0.75958  0.35733  0.51387 11.00000  0.04774   5.72
C00B  1  0.59098  0.59787  0.17663 11.00000  0.05445   5.32
HKLF 4
END
