TITL SP14R08_expF_1_0_expS_0_9_SP14R08_c.res in P2(1)
REM Old TITL SP14R08 in P2(1)/n
REM SHELXT solution in P2(1): R1 0.247, Rweak 0.055, Alpha 0.156
REM <I/s>   2.799 for    6 systematic absences,  Orientation as input
REM Formula found by SHELXT:  C15 N2 O5

CELL  0.71073   7.0200   9.2700  11.5600   90.000   97.670   90.000
ZERR   16.000   0.0014   0.0019   0.0023    0.000    0.030    0.000
LATT -1
SYMM -X, 1/2+Y, -Z
SFAC C H N O
UNIT 16 16 16 16
L.S. 10
BOND
LIST 6
FMAP 2
PLAN 20
O001  4  0.41515  0.32521  0.97652 11.00000  0.02125   8.21
O002  4  0.53348  0.50925  0.86095 11.00000  0.05339   7.58
N003  3  0.83132  0.39071  0.18923 11.00000  0.02151   7.12
N004  3  0.80334  0.31054  0.08721 11.00000  0.02656   6.86
C005  1  0.68863  0.49290  0.20606 11.00000  0.02723   6.39
C006  1  0.88608  0.58773  0.37760 11.00000  0.02564   6.31
O007  4  0.60058  0.74826  0.55621 11.00000  0.03288   6.22
C008  1  0.92958  0.23674  0.03152 11.00000  0.02431   6.04
O009  4  1.10254  0.23351  0.06129 11.00000  0.04454   5.89
C00A  1  0.43042  0.76197  0.52850 11.00000  0.02746   5.84
C00B  1  0.30011  0.70903  0.59250 11.00000  0.02016   5.82
C00C  1  0.21961  0.41928  0.80340 11.00000  0.03632   5.79
C00D  1  1.00625  0.39414  0.26468 11.00000  0.03031   5.71
C00E  1  0.70452  0.57791  0.30640 11.00000  0.02495   5.64
C00F  1  0.84214  0.14828 -0.07234 11.00000  0.02935   5.63
C00G  1  0.51109  0.60808  0.76455 11.00000  0.02520   5.32
C00H  1  1.03032  0.48229  0.35951 11.00000  0.02693   5.17
C00I  1  0.34260  0.85172  0.42496 11.00000  0.03193   5.06
C00J  1  0.38032  0.42626  0.88266 11.00000  0.02456   4.86
C00K  1  0.19340  0.52149  0.71336 11.00000  0.03083   4.79
C00L  1  0.34670  0.60044  0.68640 11.00000  0.04183   4.48
O00M  4  0.90583  0.67257  0.46097 11.00000  0.07700   4.08
HKLF 4
END
