TITL SP14R08_expF_0_9_expS_0_9_SP14R08_b.res in Pn
REM Old TITL SP14R08 in P2(1)/n
REM SHELXT solution in Pn: R1 0.226, Rweak 0.076, Alpha 0.067
REM <I/s>   1.251 for  101 systematic absences,  Orientation as input
REM Formula found by SHELXT:  C14 N3 O5

CELL  0.71073   7.0200   9.2700  11.5600   90.000   97.670   90.000
ZERR   16.000   0.0014   0.0019   0.0023    0.000    0.030    0.000
LATT -1
SYMM 1/2+X, -Y, 1/2+Z
SFAC C H N O
UNIT 16 16 16 16
L.S. 10
BOND
LIST 6
FMAP 2
PLAN 20
O001  4  0.85123  0.75915  0.31215 11.00000  0.01499   9.06
O002  4  0.53807  1.08136  0.44743 11.00000  0.02965   8.23
O003  4  0.75935  0.60238  0.51366 11.00000  0.04005   8.10
O004  4  0.33087  1.17141  0.28031 11.00000  0.00817   8.08
N005  3  0.22306  0.98772  0.39727 11.00000  0.02114   7.05
N006  3  0.44772  0.79754  0.66479 11.00000  0.02008   6.92
N007  3  0.58492  0.85861  0.17702 11.00000  0.03060   6.50
C008  1  0.32043  0.74517  0.72607 11.00000  0.02387   6.35
C009  1  0.54821  0.69686  0.34400 11.00000  0.02540   6.04
C00A  1  0.41358  0.89188  0.56053 11.00000  0.01854   5.95
C00B  1  0.36498  1.08065  0.37350 11.00000  0.01889   5.71
C00C  1  0.56362  0.98418  0.54602 11.00000  0.02573   5.67
C00D  1  0.58689  0.60403  0.43510 11.00000  0.03061   5.42
C00E  1  0.62847  0.42024  0.63577 11.00000  0.02855   5.32
C00F  1  0.44077  0.51106  0.46314 11.00000  0.02481   5.25
C00G  1  0.67696  0.77185  0.28523 11.00000  0.01710   5.15
C00H  1  0.78767  0.51444  0.62000 11.00000  0.03441   4.75
C00I  1  0.40321  0.65611  0.82298 11.00000  0.02747   4.65
C00J  1  0.62565  0.30681  0.72076 11.00000  0.07745   4.05
C00K  1  0.24364  0.88791  0.48481 11.00000  0.02538   3.33
C00L  1  0.45947  0.42307  0.56046 11.00000  0.04697   3.30
O00M  4  0.14877  0.75381  0.69414 11.00000  0.07355   3.04
HKLF 4
END
