TITL SP14R08_expF_1_0_expS_0_9_SP14R08_b.res in Pn
REM Old TITL SP14R08 in P2(1)/n
REM SHELXT solution in Pn: R1 0.231, Rweak 0.052, Alpha 0.037
REM <I/s>   1.315 for  101 systematic absences,  Orientation as input
REM Formula found by SHELXT:  C15 N2 O5

CELL  0.71073   7.0200   9.2700  11.5600   90.000   97.670   90.000
ZERR   16.000   0.0014   0.0019   0.0023    0.000    0.030    0.000
LATT -1
SYMM 1/2+X, -Y, 1/2+Z
SFAC C H N O
UNIT 16 16 16 16
L.S. 10
BOND
LIST 6
FMAP 2
PLAN 20
O001  4  0.14838  0.76223  0.68758 11.00000  0.02930   9.22
O002  4  0.77658  0.98751  0.60152 11.00000  0.03494   8.95
O003  4  0.66699  1.17173  0.71935 11.00000  0.01221   7.88
N004  3  0.55233  0.79708  0.33751 11.00000  0.03029   6.83
N005  3  0.58115  0.89394  0.43568 11.00000  0.03240   6.77
C006  1  0.55952  0.51072  0.53847 11.00000  0.02995   6.50
C007  1  0.45881  1.08161  0.55056 11.00000  0.02346   6.47
C008  1  0.31945  0.77217  0.71387 11.00000  0.02468   6.44
C009  1  0.75509  0.89147  0.51158 11.00000  0.03027   6.35
C00A  1  0.63545  1.07749  0.62824 11.00000  0.02830   6.13
C00B  1  0.40878  0.85416  0.82339 11.00000  0.03199   5.84
C00C  1  0.45049  0.69615  0.65819 11.00000  0.02636   5.75
C00D  1  0.40623  0.60843  0.55869 11.00000  0.03419   5.44
C00E  1  0.67782  0.74733  0.27378 11.00000  0.02768   5.39
C00F  1  0.37077  0.41606  0.36837 11.00000  0.02707   5.37
C00G  1  0.43925  0.98190  0.45618 11.00000  0.03230   5.25
C00H  1  0.53463  0.42402  0.43997 11.00000  0.04261   5.22
C00I  1  0.59173  0.64909  0.17661 11.00000  0.03266   5.18
C00J  1  0.23946  0.60408  0.48294 11.00000  0.02734   4.97
O00K  4  0.37790  0.30375  0.27705 11.00000  0.12515   4.54
C00L  1  0.20898  0.51362  0.37668 11.00000  0.04820   3.42
O00M  4  0.85162  0.75401  0.30474 11.00000  0.05735   3.33
HKLF 4
END
