TITL SP14R08_expF_1_0_expS_1_5_SP14R08_b.res in Pn
REM Old TITL SP14R08 in P2(1)/n
REM SHELXT solution in Pn: R1 0.240, Rweak 0.040, Alpha 0.037
REM <I/s>   1.548 for  101 systematic absences,  Orientation as input
REM Formula found by SHELXT:  C15 N O5

CELL  0.71073   7.0200   9.2700  11.5600   90.000   97.670   90.000
ZERR   16.000   0.0014   0.0019   0.0023    0.000    0.030    0.000
LATT -1
SYMM 1/2+X, -Y, 1/2+Z
SFAC C H N O
UNIT 16 16 16 16
L.S. 10
BOND
LIST 6
FMAP 2
PLAN 20
O001  4  0.23573  0.89372  0.48442 11.00000  0.01468   8.56
O002  4  0.33797  1.17371  0.27930 11.00000  0.03565   8.26
O003  4  0.21012  0.98816  0.39158 11.00000  0.06278   7.83
C004  1  0.31637  0.73568  0.72338 11.00000  0.02880   7.64
O005  4  0.85031  0.75848  0.30674 11.00000  0.02964   6.82
N006  3  0.45674  0.80007  0.66334 11.00000  0.02349   6.58
C007  1  0.35972  1.07601  0.36913 11.00000  0.01388   6.57
C008  1  0.43459  0.51751  0.46223 11.00000  0.02672   6.49
C009  1  0.41241  0.88515  0.56437 11.00000  0.02190   6.45
C00A  1  0.45561  0.41701  0.55299 11.00000  0.03018   6.33
C00B  1  0.56232  0.69839  0.34373 11.00000  0.01716   5.78
C00C  1  0.58356  0.85366  0.17735 11.00000  0.03393   5.63
O00D  4  0.14969  0.74441  0.68926 11.00000  0.03959   5.51
C00E  1  0.59219  0.59868  0.44075 11.00000  0.02458   5.49
C00F  1  0.39880  0.65195  0.82265 11.00000  0.02085   5.33
C00G  1  0.61776  0.41504  0.62954 11.00000  0.03722   4.91
C00H  1  0.53388  1.07447  0.44117 11.00000  0.03041   4.72
C00I  1  0.55333  0.99024  0.54101 11.00000  0.02081   4.64
C00J  1  0.77550  0.51732  0.60865 11.00000  0.01620   4.48
C00K  1  0.66193  0.32554  0.72214 11.00000  0.02076   4.31
C00L  1  0.67594  0.75856  0.28304 11.00000  0.01892   4.23
HKLF 4
END
