TITL SP14R08_expF_0_8_expS_0_8_SP14R08_c.res in P2(1)
REM Old TITL SP14R08 in P2(1)/n
REM SHELXT solution in P2(1): R1 0.250, Rweak 0.119, Alpha 0.203
REM <I/s>   1.884 for    6 systematic absences,  Orientation as input
REM Formula found by SHELXT:  C16 N2 O4

CELL  0.71073   7.0200   9.2700  11.5600   90.000   97.670   90.000
ZERR   16.000   0.0014   0.0019   0.0023    0.000    0.030    0.000
LATT -1
SYMM -X, 1/2+Y, -Z
SFAC C H N O
UNIT 16 16 16 16
L.S. 10
BOND
LIST 6
FMAP 2
PLAN 20
O001  4  0.41665  0.66722  0.97559 11.00000  0.00699   7.80
C002  1  0.84179  0.60095  0.19496 11.00000  0.02245   7.38
N003  3  0.80407  0.69353  0.08820 11.00000  0.01707   7.18
C004  1  0.92485  0.75690  0.02865 11.00000  0.02000   6.95
C005  1  0.88903  0.42177  0.38142 11.00000  0.01452   6.91
O006  4  1.09785  0.76363  0.06027 11.00000  0.04051   6.57
N007  3  1.00438  0.61544  0.26817 11.00000  0.02542   6.54
C008  1  1.02655  0.51893  0.35899 11.00000  0.01742   6.50
C009  1  0.20475  0.56732  0.81064 11.00000  0.01606   6.25
C00A  1  0.69107  0.50394  0.20558 11.00000  0.02121   6.07
O00B  4  0.60537  0.24670  0.55789 11.00000  0.01932   5.70
C00C  1  0.33283  0.14908  0.42440 11.00000  0.02363   5.69
C00D  1  0.29912  0.29382  0.59137 11.00000  0.01879   5.38
C00E  1  0.85015  0.85092 -0.07056 11.00000  0.01962   5.37
C00F  1  0.53338  0.49020  0.86305 11.00000  0.02417   5.12
C00G  1  0.51304  0.39899  0.76280 11.00000  0.01923   5.11
C00H  1  0.71333  0.40771  0.29784 11.00000  0.02509   4.89
C00I  1  0.18728  0.47576  0.71311 11.00000  0.02073   4.77
C00J  1  0.43386  0.23166  0.53033 11.00000  0.01656   4.61
C00K  1  0.37582  0.58234  0.87833 11.00000  0.02391   4.20
O00L  4  0.90967  0.30312  0.45864 11.00000  0.09241   4.10
C00M  1  0.33352  0.38745  0.68233 11.00000  0.01456   3.92
HKLF 4
END
