TITL SP14R08_expF_0_9_expS_1_5_SP14R08_a.res in P2(1)/n
REM Old TITL SP14R08 in P2(1)/n
REM SHELXT solution in P2(1)/n: R1 0.278, Rweak 0.083, Alpha 0.136
REM <I/s>   1.465 for  107 systematic absences,  Orientation as input
REM Formula found by SHELXT:  C9 N O

CELL  0.71073   7.0200   9.2700  11.5600   90.000   97.670   90.000
ZERR   16.000   0.0014   0.0019   0.0023    0.000    0.030    0.000
LATT  1
SYMM 1/2-X, 1/2+Y, 1/2-Z
SFAC C H N O
UNIT 16 16 16 16
L.S. 10
BOND
LIST 6
FMAP 2
PLAN 20
N001  3  0.44777  0.55070  0.66121 11.00000  0.02382   6.56
O002  4  0.15057  0.49229  0.69119 11.00000  0.02972   6.36
C003  1  0.32031  0.48714  0.72086 11.00000  0.02011   6.30
C004  1  0.33326  0.92538  0.27824 11.00000  0.01498   6.04
C005  1  0.41111  0.64418  0.56189 11.00000  0.02516   6.02
C006  1  0.21922  0.73536  0.39044 11.00000  0.01954   5.89
C007  1  0.36858  0.82832  0.37050 11.00000  0.02336   5.86
C008  1  0.23928  0.64353  0.48575 11.00000  0.02154   5.75
C009  1  0.53933  0.82844  0.44475 11.00000  0.02293   5.62
C00A  1  0.40855  0.39865  0.82388 11.00000  0.02051   5.59
C00B  1  0.56163  0.73665  0.54101 11.00000  0.02355   5.45
HKLF 4
END
