TITL SP14R08_expF_0_6_expS_1_5_SP14R08_a.res in Pn
REM Old TITL SP14R08 in P2(1)/n
REM SHELXT solution in Pn: R1 0.268, Rweak 0.265, Alpha 0.119
REM <I/s>   1.474 for   97 systematic absences,  Orientation as input
REM Formula found by SHELXT:  C13 N O6

CELL  0.71073   7.0200   9.2700  11.5600   90.000   97.670   90.000
ZERR   16.000   0.0014   0.0019   0.0023    0.000    0.030    0.000
LATT -1
SYMM 1/2+X, -Y, 1/2+Z
SFAC C H N O
UNIT 16 16 16 16
L.S. 10
BOND
LIST 6
FMAP 2
PLAN 20
O001  4  0.76183  0.60750  0.52552 11.00000  0.00010   9.15
O002  4  0.77263  0.51989  0.62101 11.00000  0.00010   8.89
O003  4  0.14893  0.74429  0.70488 11.00000  0.01559   7.27
C004  1  0.62415  0.42493  0.63734 11.00000  0.00010   6.98
N005  3  0.66691  0.31642  0.72537 11.00000  0.00914   6.92
C006  1  0.55117  0.70451  0.35028 11.00000  0.00010   6.46
C007  1  0.57196  0.84816  0.17577 11.00000  0.00464   6.23
C008  1  0.30355  0.72857  0.72788 11.00000  0.00666   5.99
C009  1  0.59529  0.61176  0.44816 11.00000  0.01212   5.74
C00A  1  0.66843  0.75573  0.29629 11.00000  0.01017   5.50
O00B  4  0.44910  0.80190  0.67703 11.00000  0.01842   5.31
C00C  1  0.55545  0.98339  0.55056 11.00000  0.02400   5.25
O00D  4  0.85107  0.75755  0.31953 11.00000  0.01868   5.23
C00E  1  0.53656  1.08092  0.45441 11.00000  0.01313   4.54
C00F  1  0.42712  0.50544  0.47243 11.00000  0.00938   4.33
O00G  4  0.39631  0.65032  0.82423 11.00000  0.00731   4.29
C00H  1  0.41355  0.89919  0.57393 11.00000  0.02015   4.09
C00I  1  0.33403  1.17299  0.27763 11.00000  0.00171   4.08
C00J  1  0.46311  0.42011  0.57095 11.00000  0.00943   4.01
C00K  1  0.36090  1.08414  0.37771 11.00000  0.02352   3.17
HKLF 4
END
