TITL SP14R08_expF_0_9_expS_1_1_SP14R08_a.res in Pn
REM Old TITL SP14R08 in P2(1)/n
REM SHELXT solution in Pn: R1 0.246, Rweak 0.073, Alpha 0.028
REM <I/s>   1.320 for  101 systematic absences,  Orientation as input
REM Formula found by SHELXT:  C13 N3 O4

CELL  0.71073   7.0200   9.2700  11.5600   90.000   97.670   90.000
ZERR   16.000   0.0014   0.0019   0.0023    0.000    0.030    0.000
LATT -1
SYMM 1/2+X, -Y, 1/2+Z
SFAC C H N O
UNIT 16 16 16 16
L.S. 10
BOND
LIST 6
FMAP 2
PLAN 20
N001  3  0.13795 -0.07925  0.62640 11.00000  0.00224  10.31
N002  3  0.91772  0.39179  0.55808 11.00000  0.00552  10.18
C003  1  0.82218  0.23731  0.71209 11.00000  0.01962   8.64
O004  4 -0.05660  0.01512  0.45796 11.00000  0.02833   7.83
O005  4  0.05140  0.19410  0.33497 11.00000  0.03357   7.25
O006  4  0.35862  0.26510  0.30690 11.00000  0.01762   6.91
N007  3  0.17495 -0.16835  0.72232 11.00000  0.01717   6.69
C008  1  1.04499  0.58038  0.44164 11.00000  0.02383   6.36
C009  1  0.91935  0.15132  0.82349 11.00000  0.02475   6.22
C00A  1  0.72877  0.48748  0.38657 11.00000  0.02813   6.19
C00B  1  0.25454  0.10839  0.50954 11.00000  0.01489   6.16
C00C  1  0.29159  0.01328  0.60442 11.00000  0.01713   6.08
C00D  1  0.94741  0.29543  0.65691 11.00000  0.02055   6.03
O00E  4  0.65755  0.25498  0.68767 11.00000  0.04408   5.82
C00F  1  0.84330  0.68126  0.27947 11.00000  0.02042   5.64
C00G  1  0.10510  0.35298  0.17651 11.00000  0.02059   5.20
C00H  1  0.73397  0.39211  0.47705 11.00000  0.02966   4.95
C00I  1 -0.03361 -0.07654  0.54966 11.00000  0.04179   4.71
C00J  1  0.17900  0.26016  0.27238 11.00000  0.02145   4.47
C00K  1  1.05660  0.49093  0.54442 11.00000  0.04383   3.14
HKLF 4
END
