TITL SP14R08_expF_1_0_expS_1_3_SP14R08_a.res in P2(1)/n
REM Old TITL SP14R08 in P2(1)/n
REM SHELXT solution in P2(1)/n: R1 0.272, Rweak 0.057, Alpha 0.098
REM <I/s>   1.457 for  107 systematic absences,  Orientation as input
REM Formula found by SHELXT:  C10 O

CELL  0.71073   7.0200   9.2700  11.5600   90.000   97.670   90.000
ZERR   16.000   0.0014   0.0019   0.0023    0.000    0.030    0.000
LATT  1
SYMM 1/2-X, 1/2+Y, 1/2-Z
SFAC C H N O
UNIT 16 16 16 16
L.S. 10
BOND
LIST 6
FMAP 2
PLAN 20
C001  1  0.55107  0.55071  0.33931 11.00000  0.02094   6.50
C002  1  0.66464  0.92488  0.72192 11.00000  0.02008   6.27
O003  4  0.85129  0.49381  0.30858 11.00000  0.03795   6.23
C004  1  0.67926  0.48708  0.27868 11.00000  0.02476   6.18
C005  1  0.78166  0.73594  0.60954 11.00000  0.02562   6.06
C006  1  0.58798  0.64419  0.43813 11.00000  0.02705   5.98
C007  1  0.63233  0.82890  0.62965 11.00000  0.02663   5.97
C008  1  0.75949  0.64322  0.51430 11.00000  0.02539   5.69
C009  1  0.46180  0.82895  0.55559 11.00000  0.02954   5.62
C00A  1  0.43863  0.73608  0.45937 11.00000  0.02875   5.47
C00B  1  0.59138  0.39880  0.17672 11.00000  0.02750   5.44
HKLF 4
END
