TITL SP14R08_expF_1_0_expS_1_4_SP14R08_c.res in P2(1)
REM Old TITL SP14R08 in P2(1)/n
REM SHELXT solution in P2(1): R1 0.242, Rweak 0.054, Alpha 0.133
REM <I/s>   1.247 for    6 systematic absences,  Orientation as input
REM Formula found by SHELXT:  C15 N5 O2

CELL  0.71073   7.0200   9.2700  11.5600   90.000   97.670   90.000
ZERR   16.000   0.0014   0.0019   0.0023    0.000    0.030    0.000
LATT -1
SYMM -X, 1/2+Y, -Z
SFAC C H N O
UNIT 16 16 16 16
L.S. 10
BOND
LIST 6
FMAP 2
PLAN 20
N001  3  0.83258  0.61481  0.18905 11.00000  0.01819   7.95
O002  4  1.10342  0.77196  0.06149 11.00000  0.03186   7.68
N003  3  0.30370  0.29640  0.58998 11.00000  0.03275   7.22
N004  3  0.53034  0.49093  0.85877 11.00000  0.02955   6.99
N005  3  0.41406  0.67766  0.97501 11.00000  0.02888   6.98
C006  1  0.88353  0.43108  0.38137 11.00000  0.03101   6.64
N007  3  0.70634  0.42809  0.30694 11.00000  0.02351   6.53
C008  1  0.93147  0.76791  0.03302 11.00000  0.01823   6.30
C009  1  0.51523  0.40864  0.76179 11.00000  0.02136   6.13
C00A  1  0.18858  0.50190  0.70662 11.00000  0.03230   5.72
C00B  1  0.42613  0.24235  0.52503 11.00000  0.03374   5.70
C00C  1  1.03297  0.51898  0.36182 11.00000  0.03786   5.65
C00D  1  0.91638  0.33007  0.46978 11.00000  0.02154   5.52
C00E  1  0.84474  0.85131 -0.07063 11.00000  0.02837   5.50
C00F  1  0.79896  0.69761  0.09006 11.00000  0.01859   5.43
C00G  1  0.34011  0.14869  0.42498 11.00000  0.03085   5.36
C00H  1  0.68971  0.53005  0.21072 11.00000  0.02556   5.30
C00I  1  0.22163  0.58730  0.80186 11.00000  0.05302   5.17
C00J  1  1.00327  0.62156  0.26560 11.00000  0.02507   5.16
C00K  1  0.38186  0.59024  0.87859 11.00000  0.02503   4.74
O00L  4  0.59999  0.26178  0.55574 11.00000  0.04378   4.59
C00M  1  0.34819  0.40400  0.68751 11.00000  0.05298   3.91
HKLF 4
END
