TITL SP14R08_expF_0_8_expS_1_1_SP14R08_a.res in Pn
REM Old TITL SP14R08 in P2(1)/n
REM SHELXT solution in Pn: R1 0.232, Rweak 0.112, Alpha 0.078
REM <I/s>   1.276 for  101 systematic absences,  Orientation as input
REM Formula found by SHELXT:  C11 N2 O7

CELL  0.71073   7.0200   9.2700  11.5600   90.000   97.670   90.000
ZERR   16.000   0.0014   0.0019   0.0023    0.000    0.030    0.000
LATT -1
SYMM 1/2+X, -Y, 1/2+Z
SFAC C H N O
UNIT 16 16 16 16
L.S. 10
BOND
LIST 6
FMAP 2
PLAN 20
O001  4  0.78098  0.98489  0.61077 11.00000  0.00753  10.23
O002  4  0.14760  0.75698  0.69137 11.00000  0.01612   9.42
O003  4  0.66368  1.17240  0.72927 11.00000  0.03125   9.35
O004  4  0.46378  1.08208  0.55590 11.00000  0.00502   9.20
N005  3  0.58801  0.89251  0.44062 11.00000  0.00157   8.95
O006  4  0.55376  0.79881  0.34250 11.00000  0.01495   7.79
O007  4  0.56782  0.51979  0.54168 11.00000  0.03792   7.79
O008  4  0.35680  0.41206  0.37039 11.00000  0.03593   7.00
C009  1  0.31728  0.77134  0.71867 11.00000  0.01830   6.63
C00A  1  0.67790  0.74397  0.28173 11.00000  0.00864   6.60
N00B  3  0.57701  0.65147  0.17729 11.00000  0.02265   6.52
C00C  1  0.45588  0.69841  0.66623 11.00000  0.02326   6.45
C00D  1  0.39669  0.85076  0.82271 11.00000  0.01015   5.93
C00E  1  0.24041  0.60133  0.48652 11.00000  0.01483   5.87
C00F  1  0.75607  0.88653  0.51858 11.00000  0.02101   5.68
C00G  1  0.62962  1.07187  0.63199 11.00000  0.01445   5.42
C00H  1  0.41635  0.61038  0.56495 11.00000  0.03680   4.40
C00I  1  0.85240  0.74387  0.30995 11.00000  0.01412   4.39
C00J  1  0.33561  0.32589  0.28321 11.00000  0.00624   4.21
C00K  1  0.44714  0.99291  0.46243 11.00000  0.02116   4.06
HKLF 4
END
