TITL SP14R08_expF_1_3_expS_1_0_SP14R08_a.res in P2(1)/n
REM Old TITL SP14R08 in P2(1)/n
REM SHELXT solution in P2(1)/n: R1 0.293, Rweak 0.023, Alpha 0.043
REM <I/s>   1.810 for  107 systematic absences,  Orientation as input
REM Formula found by SHELXT:  C10 O

CELL  0.71073   7.0200   9.2700  11.5600   90.000   97.670   90.000
ZERR   16.000   0.0014   0.0019   0.0023    0.000    0.030    0.000
LATT  1
SYMM 1/2-X, 1/2+Y, 1/2-Z
SFAC C H N O
UNIT 16 16 16 16
L.S. 10
BOND
LIST 6
FMAP 2
PLAN 20
C001  1  0.66095  0.07607  0.72201 11.00000  0.03239   6.46
C002  1  0.55086  0.44842  0.33923 11.00000  0.03649   6.41
C003  1  0.78222  0.26128  0.60951 11.00000  0.04166   6.09
O004  4  0.85229  0.50502  0.30834 11.00000  0.06282   6.04
C005  1  0.67793  0.51317  0.27935 11.00000  0.04138   6.04
C006  1  0.58732  0.35622  0.43866 11.00000  0.03855   6.02
C007  1  0.46290  0.16997  0.55641 11.00000  0.04459   5.92
C008  1  0.63412  0.16901  0.63041 11.00000  0.04009   5.79
C009  1  0.75968  0.35685  0.51415 11.00000  0.04125   5.73
C00A  1  0.44199  0.26560  0.45979 11.00000  0.04434   5.66
C00B  1  0.59292  0.59831  0.17709 11.00000  0.04629   5.36
HKLF 4
END
