TITL SP14R08_expF_1_1_expS_0_8_SP14R08_a.res in P2(1)/n
REM Old TITL SP14R08 in P2(1)/n
REM SHELXT solution in P2(1)/n: R1 0.271, Rweak 0.041, Alpha 0.066
REM <I/s>   1.476 for  107 systematic absences,  Orientation as input
REM Formula found by SHELXT:  C10 O

CELL  0.71073   7.0200   9.2700  11.5600   90.000   97.670   90.000
ZERR   16.000   0.0014   0.0019   0.0023    0.000    0.030    0.000
LATT  1
SYMM 1/2-X, 1/2+Y, 1/2-Z
SFAC C H N O
UNIT 16 16 16 16
L.S. 10
BOND
LIST 6
FMAP 2
PLAN 20
C001  1  0.44987  0.44940  0.66084 11.00000  0.02833   6.42
C002  1  0.33800  0.07517  0.27851 11.00000  0.02606   6.26
O003  4  0.14861  0.50411  0.69149 11.00000  0.05405   6.19
C004  1  0.32176  0.51289  0.72115 11.00000  0.03017   6.12
C005  1  0.21763  0.26263  0.39003 11.00000  0.03338   6.04
C006  1  0.41288  0.35596  0.56179 11.00000  0.03124   6.02
C007  1  0.36635  0.17050  0.36961 11.00000  0.03280   5.93
C008  1  0.24182  0.35722  0.48564 11.00000  0.03308   5.74
C009  1  0.53690  0.17044  0.44457 11.00000  0.03642   5.73
C00A  1  0.56027  0.26410  0.54106 11.00000  0.03544   5.57
C00B  1  0.40699  0.60049  0.82358 11.00000  0.03599   5.45
HKLF 4
END
