TITL SP14R08_expF_0_5_expS_1_1_SP14R08_a.res in Pn
REM Old TITL SP14R08 in P2(1)/n
REM SHELXT solution in Pn: R1 0.277, Rweak 0.385, Alpha 0.238
REM <I/s>   1.254 for   97 systematic absences,  Orientation as input
REM Formula found by SHELXT:  C13 N3 O5

CELL  0.71073   7.0200   9.2700  11.5600   90.000   97.670   90.000
ZERR   16.000   0.0014   0.0019   0.0023    0.000    0.030    0.000
LATT -1
SYMM 1/2+X, -Y, 1/2+Z
SFAC C H N O
UNIT 16 16 16 16
L.S. 10
BOND
LIST 6
FMAP 2
PLAN 20
O001  4  0.85415  0.73817  0.29891 11.00000  0.00010   8.81
O002  4  0.47705  1.07878  0.55092 11.00000  0.00010   8.70
O003  4  0.23528  0.51696  0.38815 11.00000  0.00010   8.17
N004  3  0.78277  0.90435  0.51300 11.00000  0.00418   7.10
C005  1  0.32577  0.76817  0.71140 11.00000  0.00385   6.96
N006  3  0.35259  0.31890  0.27266 11.00000  0.00790   6.84
N007  3  0.45695  0.70504  0.65629 11.00000  0.00010   6.80
C008  1  0.43340  0.83949  0.81933 11.00000  0.00072   6.16
C009  1  0.43129  0.61278  0.55581 11.00000  0.00010   5.90
C00A  1  0.55177  0.80360  0.33888 11.00000  0.04398   5.66
C00B  1  0.38494  0.41029  0.36575 11.00000  0.00612   5.61
C00C  1  0.64264  1.05515  0.61191 11.00000  0.01079   5.58
C00D  1  0.46313  1.00288  0.45964 11.00000  0.01750   5.23
O00E  4  0.57659  0.51948  0.53912 11.00000  0.01686   5.08
C00F  1  0.60392  0.90336  0.42997 11.00000  0.04818   4.34
C00G  1  0.69054  0.73634  0.27868 11.00000  0.02697   3.92
C00H  1  0.69446  1.17654  0.71217 11.00000  0.00010   3.89
O00I  4  0.14585  0.74673  0.67275 11.00000  0.01777   3.81
C00J  1  0.80526  0.99715  0.61741 11.00000  0.05800   3.79
C00K  1  0.61884  0.63946  0.18067 11.00000  0.00010   3.62
C00L  1  0.26262  0.61500  0.48285 11.00000  0.00010   3.45
HKLF 4
END
