TITL SP14R08_expF_1_1_expS_1_3_SP14R08_b.res in Pn
REM Old TITL SP14R08 in P2(1)/n
REM SHELXT solution in Pn: R1 0.233, Rweak 0.037, Alpha 0.049
REM <I/s>   1.529 for  101 systematic absences,  Orientation as input
REM Formula found by SHELXT:  C9 N5 O8

CELL  0.71073   7.0200   9.2700  11.5600   90.000   97.670   90.000
ZERR   16.000   0.0014   0.0019   0.0023    0.000    0.030    0.000
LATT -1
SYMM 1/2+X, -Y, 1/2+Z
SFAC C H N O
UNIT 16 16 16 16
L.S. 10
BOND
LIST 6
FMAP 2
PLAN 20
O001  4  0.85126  0.23981  0.31432 11.00000  0.03989   9.43
O002  4  0.33392 -0.16892  0.28005 11.00000  0.01775   9.05
O003  4  0.53968 -0.07824  0.45180 11.00000  0.04068   8.89
O004  4  0.22195  0.01613  0.39621 11.00000  0.03387   8.07
O005  4  0.76675  0.39644  0.51859 11.00000  0.03003   8.00
N006  3  0.41121  0.10730  0.56520 11.00000  0.02388   7.88
N007  3  0.32533  0.25662  0.72695 11.00000  0.02580   7.66
O008  4  0.54253  0.30170  0.34229 11.00000  0.03769   7.54
N009  3  0.64015  0.58027  0.63634 11.00000  0.02828   7.40
O00A  4  0.58923  0.14313  0.17721 11.00000  0.04134   7.27
N00B  3  0.43869  0.20073  0.66347 11.00000  0.02151   7.06
N00C  3  0.44836  0.49074  0.46127 11.00000  0.03530   6.69
C00D  1  0.56694  0.01838  0.54248 11.00000  0.02072   5.94
C00E  1  0.78555  0.49087  0.61527 11.00000  0.03394   5.90
C00F  1  0.58572  0.39333  0.44114 11.00000  0.02971   5.54
C00G  1  0.68355  0.22915  0.28724 11.00000  0.02698   5.51
C00H  1  0.37825 -0.08118  0.37554 11.00000  0.02743   5.22
C00I  1  0.40485  0.34514  0.82279 11.00000  0.03261   5.13
C00J  1  0.65559  0.68475  0.72232 11.00000  0.03739   5.01
C00K  1  0.25111  0.11085  0.48993 11.00000  0.03536   4.79
O00L  4  0.14874  0.25323  0.69660 11.00000  0.02928   4.50
C00M  1  0.46193  0.58146  0.56384 11.00000  0.03254   4.39
HKLF 4
END
