TITL SP14R08_expF_1_3_expS_1_2_SP14R08_a.res in P2(1)/n
REM Old TITL SP14R08 in P2(1)/n
REM SHELXT solution in P2(1)/n: R1 0.298, Rweak 0.023, Alpha 0.043
REM <I/s>   1.780 for  107 systematic absences,  Orientation as input
REM Formula found by SHELXT:  C10 O

CELL  0.71073   7.0200   9.2700  11.5600   90.000   97.670   90.000
ZERR   16.000   0.0014   0.0019   0.0023    0.000    0.030    0.000
LATT  1
SYMM 1/2-X, 1/2+Y, 1/2-Z
SFAC C H N O
UNIT 16 16 16 16
L.S. 10
BOND
LIST 6
FMAP 2
PLAN 20
C001  1  0.66148  0.07602  0.72207 11.00000  0.03067   6.46
C002  1  0.55124  0.44855  0.33971 11.00000  0.03480   6.41
C003  1  0.78222  0.26176  0.60933 11.00000  0.03952   6.09
O004  4  0.85215  0.50535  0.30870 11.00000  0.05786   6.04
C005  1  0.67873  0.51285  0.27940 11.00000  0.03959   6.04
C006  1  0.58745  0.35592  0.43868 11.00000  0.03709   6.02
C007  1  0.46297  0.17008  0.55631 11.00000  0.04283   5.92
C008  1  0.63371  0.16923  0.63033 11.00000  0.03879   5.79
C009  1  0.76008  0.35702  0.51423 11.00000  0.03863   5.73
C00A  1  0.44203  0.26598  0.46012 11.00000  0.04250   5.66
C00B  1  0.59175  0.59884  0.17708 11.00000  0.04447   5.36
HKLF 4
END
