TITL SP14R08_expF_1_2_expS_1_3_SP14R08_a.res in P2(1)/n
REM Old TITL SP14R08 in P2(1)/n
REM SHELXT solution in P2(1)/n: R1 0.285, Rweak 0.030, Alpha 0.081
REM <I/s>   1.627 for  107 systematic absences,  Orientation as input
REM Formula found by SHELXT:  C10 O

CELL  0.71073   7.0200   9.2700  11.5600   90.000   97.670   90.000
ZERR   16.000   0.0014   0.0019   0.0023    0.000    0.030    0.000
LATT  1
SYMM 1/2-X, 1/2+Y, 1/2-Z
SFAC C H N O
UNIT 16 16 16 16
L.S. 10
BOND
LIST 6
FMAP 2
PLAN 20
C001  1  0.44868  0.55211  0.65987 11.00000  0.02936   6.39
C002  1  0.33732  0.92429  0.27828 11.00000  0.02638   6.35
O003  4  0.14883  0.49404  0.69098 11.00000  0.05091   6.11
C004  1  0.21760  0.73690  0.39064 11.00000  0.03426   6.08
C005  1  0.32049  0.48787  0.72086 11.00000  0.03306   6.06
C006  1  0.41209  0.64467  0.56134 11.00000  0.03276   6.04
C007  1  0.36698  0.82995  0.37033 11.00000  0.03455   5.88
C008  1  0.53699  0.82908  0.44378 11.00000  0.03817   5.81
C009  1  0.24004  0.64388  0.48591 11.00000  0.03374   5.73
C00A  1  0.55955  0.73607  0.53976 11.00000  0.03708   5.57
C00B  1  0.40853  0.40055  0.82337 11.00000  0.03796   5.37
HKLF 4
END
