TITL SP14R08_expF_0_5_expS_1_4_SP14R08_a.res in Pn
REM Old TITL SP14R08 in P2(1)/n
REM SHELXT solution in Pn: R1 0.300, Rweak 0.382, Alpha 0.184
REM <I/s>   1.408 for   97 systematic absences,  Orientation as input
REM Formula found by SHELXT:  C8 N2 O7

CELL  0.71073   7.0200   9.2700  11.5600   90.000   97.670   90.000
ZERR   16.000   0.0014   0.0019   0.0023    0.000    0.030    0.000
LATT -1
SYMM 1/2+X, -Y, 1/2+Z
SFAC C H N O
UNIT 16 16 16 16
L.S. 10
BOND
LIST 6
FMAP 2
PLAN 20
O001  4  0.12867 -0.07418  0.63391 11.00000  0.00010  11.40
C002  1  0.14660 -0.17480  0.71943 11.00000  0.00010   8.30
O003  4  0.24581  0.10613  0.51778 11.00000  0.00010   8.29
O004  4  0.89134  0.38947  0.56153 11.00000  0.02077   7.71
O005  4  0.35465  0.25068  0.32233 11.00000  0.01728   7.63
N006  3  0.82648  0.23567  0.71675 11.00000  0.03175   7.52
O007  4  0.70761  0.47894  0.39346 11.00000  0.00942   7.49
O008  4 -0.05784  0.00652  0.45833 11.00000  0.01794   7.46
N009  3  0.93715  0.29869  0.65861 11.00000  0.00970   7.29
C00A  1  0.91672  0.14318  0.81723 11.00000  0.01087   6.07
O00B  4  0.65848  0.23407  0.69788 11.00000  0.01888   5.18
C00C  1  0.10189  0.35326  0.18277 11.00000  0.00010   5.17
C00D  1  0.03532  0.20111  0.34010 11.00000  0.03583   4.56
C00E  1  0.18260  0.26209  0.28034 11.00000  0.00730   4.42
C00F  1  1.05784  0.56789  0.44496 11.00000  0.00376   4.28
C00G  1  0.09111  0.10833  0.43614 11.00000  0.01863   3.40
C00H  1  0.83336  0.68505  0.28042 11.00000  0.01434   3.33
HKLF 4
END
