TITL SP14R08_expF_0_7_expS_0_6_SP14R08_a.res in Pn
REM Old TITL SP14R08 in P2(1)/n
REM SHELXT solution in Pn: R1 0.238, Rweak 0.174, Alpha 0.113
REM <I/s>   1.068 for  101 systematic absences,  Orientation as input
REM Formula found by SHELXT:  C11 N3 O6

CELL  0.71073   7.0200   9.2700  11.5600   90.000   97.670   90.000
ZERR   16.000   0.0014   0.0019   0.0023    0.000    0.030    0.000
LATT -1
SYMM 1/2+X, -Y, 1/2+Z
SFAC C H N O
UNIT 16 16 16 16
L.S. 10
BOND
LIST 6
FMAP 2
PLAN 20
O001  4  0.33769  0.32922  0.28509 11.00000  0.00010  11.54
O002  4  0.24156  0.60613  0.49421 11.00000  0.00454   9.24
O003  4  0.20776  0.50723  0.40095 11.00000  0.02688   7.93
O004  4  0.55704  0.79880  0.34922 11.00000  0.02841   7.91
O005  4  0.15030  0.74945  0.69915 11.00000  0.02829   7.82
C006  1  0.67612  0.73231  0.28699 11.00000  0.00835   7.04
N007  3  0.56045  0.50379  0.55363 11.00000  0.02045   6.85
N008  3  0.61584  1.08216  0.63634 11.00000  0.02842   6.84
N009  3  0.43738  1.08712  0.55306 11.00000  0.02661   6.80
C00A  1  0.39895  0.84441  0.82391 11.00000  0.01051   6.42
C00B  1  0.58946  0.88954  0.44589 11.00000  0.01277   6.20
C00C  1  0.41357  0.60603  0.56867 11.00000  0.01869   6.14
C00D  1  0.35729  0.42214  0.37761 11.00000  0.00346   6.01
O00E  4  0.84970  0.73974  0.31776 11.00000  0.01771   5.86
C00F  1  0.32189  0.75968  0.72703 11.00000  0.01960   5.56
C00G  1  0.45763  0.69982  0.66994 11.00000  0.00628   5.25
C00H  1  0.43917  0.97843  0.46989 11.00000  0.01194   4.95
C00I  1  0.77607  0.97957  0.62529 11.00000  0.01753   4.94
C00J  1  0.58385  0.64143  0.17609 11.00000  0.01654   4.73
C00K  1  0.52324  0.42524  0.44659 11.00000  0.01283   4.47
HKLF 4
END
