TITL SP14R08_expF_1_4_expS_1_2_SP14R08_a.res in P2(1)/n
REM Old TITL SP14R08 in P2(1)/n
REM SHELXT solution in P2(1)/n: R1 0.319, Rweak 0.019, Alpha 0.040
REM <I/s>   1.545 for  107 systematic absences,  Orientation as input
REM Formula found by SHELXT:  C10 O

CELL  0.71073   7.0200   9.2700  11.5600   90.000   97.670   90.000
ZERR   16.000   0.0014   0.0019   0.0023    0.000    0.030    0.000
LATT  1
SYMM 1/2-X, 1/2+Y, 1/2-Z
SFAC C H N O
UNIT 16 16 16 16
L.S. 10
BOND
LIST 6
FMAP 2
PLAN 20
C001  1  0.33924  0.92479  0.27771 11.00000  0.03521   6.47
C002  1  0.44780  0.55154  0.65992 11.00000  0.04045   6.38
C003  1  0.21739  0.73825  0.39078 11.00000  0.04478   6.13
C004  1  0.41077  0.64433  0.56124 11.00000  0.04270   6.02
C005  1  0.32076  0.48669  0.72093 11.00000  0.04369   5.97
C006  1  0.53525  0.83115  0.44335 11.00000  0.04854   5.96
O007  4  0.14889  0.49451  0.69082 11.00000  0.06317   5.95
C008  1  0.36739  0.83119  0.37071 11.00000  0.04445   5.79
C009  1  0.23990  0.64271  0.48598 11.00000  0.04437   5.73
C00A  1  0.55845  0.73482  0.54040 11.00000  0.04979   5.69
C00B  1  0.41044  0.40156  0.82336 11.00000  0.05203   5.32
HKLF 4
END
