TITL SP14R08_expF_1_1_expS_1_3_SP14R08_a.res in P2(1)/n
REM Old TITL SP14R08 in P2(1)/n
REM SHELXT solution in P2(1)/n: R1 0.276, Rweak 0.040, Alpha 0.083
REM <I/s>   1.521 for  107 systematic absences,  Orientation as input
REM Formula found by SHELXT:  C10 O

CELL  0.71073   7.0200   9.2700  11.5600   90.000   97.670   90.000
ZERR   16.000   0.0014   0.0019   0.0023    0.000    0.030    0.000
LATT  1
SYMM 1/2-X, 1/2+Y, 1/2-Z
SFAC C H N O
UNIT 16 16 16 16
L.S. 10
BOND
LIST 6
FMAP 2
PLAN 20
C001  1  0.55076  0.44943  0.33947 11.00000  0.02515   6.45
C002  1  0.66359  0.07512  0.72168 11.00000  0.02308   6.30
O003  4  0.85150  0.50557  0.30872 11.00000  0.04455   6.19
C004  1  0.67950  0.51275  0.27895 11.00000  0.02815   6.12
C005  1  0.58778  0.35571  0.43829 11.00000  0.02933   6.06
C006  1  0.78187  0.26384  0.60925 11.00000  0.02955   6.03
C007  1  0.63242  0.17109  0.62975 11.00000  0.03049   5.92
C008  1  0.46324  0.17095  0.55573 11.00000  0.03320   5.77
C009  1  0.75911  0.35720  0.51408 11.00000  0.02933   5.64
C00A  1  0.43929  0.26373  0.45934 11.00000  0.03255   5.54
C00B  1  0.59134  0.60120  0.17660 11.00000  0.03214   5.41
HKLF 4
END
