TITL SP14R08_expF_1_3_expS_0_6_SP14R08_a.res in P2(1)/n
REM Old TITL SP14R08 in P2(1)/n
REM SHELXT solution in P2(1)/n: R1 0.291, Rweak 0.024, Alpha 0.053
REM <I/s>   2.022 for  107 systematic absences,  Orientation as input
REM Formula found by SHELXT:  C10 O

CELL  0.71073   7.0200   9.2700  11.5600   90.000   97.670   90.000
ZERR   16.000   0.0014   0.0019   0.0023    0.000    0.030    0.000
LATT  1
SYMM 1/2-X, 1/2+Y, 1/2-Z
SFAC C H N O
UNIT 16 16 16 16
L.S. 10
BOND
LIST 6
FMAP 2
PLAN 20
C001  1  0.66027  0.92352  0.72201 11.00000  0.03407   6.45
C002  1  0.55132  0.55165  0.33898 11.00000  0.03741   6.41
C003  1  0.78258  0.73940  0.60997 11.00000  0.04486   6.09
O004  4  0.85284  0.49534  0.30786 11.00000  0.06797   6.05
C005  1  0.67655  0.48619  0.27948 11.00000  0.04327   6.03
C006  1  0.58747  0.64328  0.43849 11.00000  0.03978   6.02
C007  1  0.46202  0.83020  0.55634 11.00000  0.04629   5.91
C008  1  0.63439  0.83117  0.63042 11.00000  0.04125   5.80
C009  1  0.75915  0.64347  0.51391 11.00000  0.04572   5.74
C00A  1  0.44194  0.73468  0.45964 11.00000  0.04661   5.63
C00B  1  0.59539  0.40201  0.17694 11.00000  0.04777   5.35
HKLF 4
END
