TITL SP14R08_expF_1_0_expS_0_8_SP14R08_b.res in Pn
REM Old TITL SP14R08 in P2(1)/n
REM SHELXT solution in Pn: R1 0.228, Rweak 0.049, Alpha 0.024
REM <I/s>   1.286 for  101 systematic absences,  Orientation as input
REM Formula found by SHELXT:  C10 N5 O8

CELL  0.71073   7.0200   9.2700  11.5600   90.000   97.670   90.000
ZERR   16.000   0.0014   0.0019   0.0023    0.000    0.030    0.000
LATT -1
SYMM 1/2+X, -Y, 1/2+Z
SFAC C H N O
UNIT 16 16 16 16
L.S. 10
BOND
LIST 6
FMAP 2
PLAN 20
O001  4  0.72965  0.60704  0.48117 11.00000  0.03570   9.88
O002  4  0.94307  0.69960  0.65870 11.00000  0.03421   9.48
N003  3  0.85288  0.41885  0.36662 11.00000  0.03051   9.31
O004  4  0.34352  0.74179  0.30770 11.00000  0.02320   9.12
O005  4  0.89148  0.85629  0.82365 11.00000  0.03513   8.88
N006  3  0.08340  0.89128  0.44336 11.00000  0.02625   8.48
O007  4  1.05869  0.51936  0.54302 11.00000  0.04021   8.00
O008  4  0.83589  0.32607  0.27571 11.00000  0.03507   7.78
N009  3 -0.04915  1.07085  0.56262 11.00000  0.03099   7.49
C00A  1  0.72615  0.51692  0.39138 11.00000  0.02637   7.46
C00B  1  0.16941  0.72857  0.28385 11.00000  0.02001   7.36
N00C  3  0.28646  0.98898  0.60933 11.00000  0.02290   6.85
C00D  1  0.81184  0.75561  0.72380 11.00000  0.01895   6.82
N00E  3  0.16303  1.17195  0.72081 11.00000  0.02419   6.80
C00F  1  1.02889  0.41193  0.45211 11.00000  0.02240   5.63
O00G  4  0.63759  0.75087  0.68759 11.00000  0.05109   5.47
C00H  1  0.04734  0.80106  0.33921 11.00000  0.01840   5.30
C00I  1  0.90918  0.60456  0.56729 11.00000  0.02481   4.94
C00J  1 -0.05869  0.99425  0.46032 11.00000  0.02939   4.87
C00K  1  0.11921  1.07992  0.62756 11.00000  0.02330   4.09
C00L  1  0.07138  0.65539  0.17635 11.00000  0.03486   4.07
O00M  4  0.61145  0.51582  0.35198 11.00000  0.24398   3.21
C00N  1  0.24817  0.89388  0.50882 11.00000  0.02888   3.14
HKLF 4
END
