TITL SP14R08_expF_0_6_expS_0_9_SP14R08_a.res in Pn
REM Old TITL SP14R08 in P2(1)/n
REM SHELXT solution in Pn: R1 0.264, Rweak 0.281, Alpha 0.115
REM <I/s>   1.184 for   97 systematic absences,  Orientation as input
REM Formula found by SHELXT:  C11 N3 O5

CELL  0.71073   7.0200   9.2700  11.5600   90.000   97.670   90.000
ZERR   16.000   0.0014   0.0019   0.0023    0.000    0.030    0.000
LATT -1
SYMM 1/2+X, -Y, 1/2+Z
SFAC C H N O
UNIT 16 16 16 16
L.S. 10
BOND
LIST 6
FMAP 2
PLAN 20
N001  3  0.90216  0.89709  0.56211 11.00000  0.00010  12.35
C002  1  0.11943  0.41881  0.63077 11.00000  0.00010   8.90
O003  4  0.93359  0.79310  0.66267 11.00000  0.00684   8.67
O004  4  0.71193  0.98448  0.39266 11.00000  0.00010   7.54
O005  4  0.63638  0.74179  0.68801 11.00000  0.01626   6.81
N006  3  0.80822  1.17213  0.27179 11.00000  0.00010   6.52
C007  1  1.02704  1.07252  0.44506 11.00000  0.00656   6.31
O008  4  0.33695  0.75941  0.30561 11.00000  0.01912   6.19
C009  1  0.80593  0.73767  0.72779 11.00000  0.00264   5.97
C00A  1  1.05722  0.99721  0.54147 11.00000  0.00010   5.93
C00B  1  0.16077  0.76569  0.28793 11.00000  0.00773   5.84
C00C  1  0.07013  0.84826  0.17515 11.00000  0.00436   5.77
C00D  1  0.88926  0.64568  0.82485 11.00000  0.01132   5.59
C00E  1  0.73826  0.89730  0.48163 11.00000  0.01727   5.51
O00F  4  0.13320  0.31080  0.70900 11.00000  0.03616   4.50
C00G  1 -0.05722  0.52622  0.45931 11.00000  0.01891   3.73
C00H  1  0.04723  0.68390  0.34497 11.00000  0.02844   3.70
C00I  1 -0.05590  0.40272  0.56038 11.00000  0.04202   3.67
N00J  3  0.26268  0.61016  0.51690 11.00000  0.01615   3.58
HKLF 4
END
