TITL SP14R08_expF_1_5_expS_1_2_SP14R08_a.res in P2(1)/n
REM Old TITL SP14R08 in P2(1)/n
REM SHELXT solution in P2(1)/n: R1 0.353, Rweak 0.017, Alpha 0.034
REM <I/s>   1.803 for  107 systematic absences,  Orientation as input
REM Formula found by SHELXT:  C9 N O

CELL  0.71073   7.0200   9.2700  11.5600   90.000   97.670   90.000
ZERR   16.000   0.0014   0.0019   0.0023    0.000    0.030    0.000
LATT  1
SYMM 1/2-X, 1/2+Y, 1/2-Z
SFAC C H N O
UNIT 16 16 16 16
L.S. 10
BOND
LIST 6
FMAP 2
PLAN 20
N001  3  0.65954  0.07605  0.72108 11.00000  0.04048   6.52
C002  1  0.55140  0.44693  0.33972 11.00000  0.03614   6.37
C003  1  0.78039  0.26462  0.60705 11.00000  0.04394   6.17
C004  1  0.58772  0.35647  0.43798 11.00000  0.03830   6.11
C005  1  0.46162  0.17055  0.55610 11.00000  0.04483   6.07
C006  1  0.67766  0.51413  0.28006 11.00000  0.04297   5.91
O007  4  0.85429  0.50481  0.30894 11.00000  0.05737   5.90
C008  1  0.76002  0.35882  0.51416 11.00000  0.04258   5.82
C009  1  0.63309  0.16718  0.62954 11.00000  0.04244   5.82
C00A  1  0.44063  0.26484  0.46112 11.00000  0.04616   5.74
C00B  1  0.58950  0.59820  0.17610 11.00000  0.05060   5.31
HKLF 4
END
