TITL SP14R08_expF_1_2_expS_0_8_SP14R08_b.res in Pn
REM Old TITL SP14R08 in P2(1)/n
REM SHELXT solution in Pn: R1 0.252, Rweak 0.028, Alpha 0.015
REM <I/s>   1.490 for  101 systematic absences,  Orientation as input
REM Formula found by SHELXT:  C9 N7 O6

CELL  0.71073   7.0200   9.2700  11.5600   90.000   97.670   90.000
ZERR   16.000   0.0014   0.0019   0.0023    0.000    0.030    0.000
LATT -1
SYMM 1/2+X, -Y, 1/2+Z
SFAC C H N O
UNIT 16 16 16 16
L.S. 10
BOND
LIST 6
FMAP 2
PLAN 20
N001  3  0.58678  0.10289  0.44399 11.00000  0.03003   9.94
C002  1  0.67326  0.25357  0.28181 11.00000  0.03234   8.87
O003  4  0.46143 -0.07786  0.56421 11.00000  0.05916   8.74
N004  3  0.35723  0.58686  0.37297 11.00000  0.04060   8.17
O005  4  0.77902  0.01546  0.61665 11.00000  0.04656   7.88
O006  4  0.55100  0.48690  0.54530 11.00000  0.05305   7.67
O007  4  0.66438 -0.16982  0.72900 11.00000  0.03498   7.63
N008  3  0.55531  0.19862  0.34576 11.00000  0.03368   7.21
N009  3  0.45200  0.30205  0.66586 11.00000  0.03538   6.99
O00A  4  0.14893  0.24044  0.69276 11.00000  0.05274   6.86
N00B  3  0.34219  0.68038  0.28671 11.00000  0.04216   6.85
N00C  3  0.22435  0.39337  0.48408 11.00000  0.03695   6.80
O00D  4  0.85107  0.25327  0.31025 11.00000  0.04362   6.59
N00E  3  0.39456  0.14566  0.82375 11.00000  0.04053   6.58
C00F  1  0.21388  0.49084  0.39780 11.00000  0.03821   6.17
C00G  1  0.74448  0.10516  0.51303 11.00000  0.03250   5.79
C00H  1  0.57926  0.34249  0.17625 11.00000  0.04272   5.59
C00I  1  0.54000  0.57977  0.45244 11.00000  0.03351   5.10
C00J  1  0.43536  0.01486  0.46642 11.00000  0.03754   4.87
C00K  1  0.31751  0.22994  0.72248 11.00000  0.02790   4.73
C00L  1  0.62450 -0.07734  0.63299 11.00000  0.03300   4.50
C00M  1  0.41540  0.39156  0.56734 11.00000  0.03948   3.61
HKLF 4
END
