TITL SP14R08_expF_1_2_expS_1_3_SP14R08_c.res in P2(1)
REM Old TITL SP14R08 in P2(1)/n
REM SHELXT solution in P2(1): R1 0.261, Rweak 0.029, Alpha 0.105
REM <I/s>   1.864 for    6 systematic absences,  Orientation as input
REM Formula found by SHELXT:  C15 N4 O3

CELL  0.71073   7.0200   9.2700  11.5600   90.000   97.670   90.000
ZERR   16.000   0.0014   0.0019   0.0023    0.000    0.030    0.000
LATT -1
SYMM -X, 1/2+Y, -Z
SFAC C H N O
UNIT 16 16 16 16
L.S. 10
BOND
LIST 6
FMAP 2
PLAN 20
N001  3  0.69392  0.69542  0.41144 11.00000  0.03848   7.05
N002  3 -0.03072  0.47981  0.63988 11.00000  0.05416   6.77
N003  3  0.29385  0.57330  0.69542 11.00000  0.03941   6.75
N004  3  0.16459  0.38817  0.81049 11.00000  0.03116   6.69
O005  4  0.08894  0.66758  0.52914 11.00000  0.04637   6.50
C006  1  0.12166  0.57311  0.62179 11.00000  0.03647   6.40
C007  1  0.58594  0.32102  0.02711 11.00000  0.02857   6.27
C008  1  0.48790  0.59385  0.23777 11.00000  0.03133   6.24
C009  1  0.15318  0.14996  1.07281 11.00000  0.03724   6.22
C00A  1  0.57585  0.75715  0.47487 11.00000  0.03592   6.09
O00B  4 -0.10012  0.23155  0.94134 11.00000  0.04508   6.05
O00C  4  0.39564  0.74390  0.44117 11.00000  0.05180   5.93
C00D  1  0.30986  0.46925  0.78797 11.00000  0.03849   5.81
C00E  1  0.46810  0.50753  0.14005 11.00000  0.03018   5.81
C00F  1  0.06670  0.23377  0.96502 11.00000  0.02977   5.79
C00G  1  0.80681  0.49879  0.29234 11.00000  0.03296   5.63
C00H  1  0.20175  0.29897  0.90837 11.00000  0.02756   5.50
C00I  1  0.65966  0.59954  0.31346 11.00000  0.04779   5.38
C00J  1  0.78039  0.41454  0.19242 11.00000  0.05024   5.12
C00K  1 -0.00782  0.38219  0.73388 11.00000  0.03592   5.11
C00L  1  0.61328  0.41016  0.11936 11.00000  0.03323   5.08
C00M  1  0.66162  0.85004  0.57348 11.00000  0.04060   4.42
HKLF 4
END
