TITL SP14R08_expF_1_2_expS_0_6_SP14R08_b.res in Pn
REM Old TITL SP14R08 in P2(1)/n
REM SHELXT solution in Pn: R1 0.260, Rweak 0.015, Alpha 0.025
REM <I/s>   1.470 for  101 systematic absences,  Orientation as input
REM Formula found by SHELXT:  C14 N3 O5

CELL  0.71073   7.0200   9.2700  11.5600   90.000   97.670   90.000
ZERR   16.000   0.0014   0.0019   0.0023    0.000    0.030    0.000
LATT -1
SYMM 1/2+X, -Y, 1/2+Z
SFAC C H N O
UNIT 16 16 16 16
L.S. 10
BOND
LIST 6
FMAP 2
PLAN 20
O001  4  0.71656  0.98867  0.39650 11.00000  0.04592   8.76
O002  4  0.83107  1.16920  0.27971 11.00000  0.04072   8.20
O003  4  1.02835  1.08301  0.45216 11.00000  0.05245   7.81
N004  3  0.91143  0.89316  0.56511 11.00000  0.03561   7.50
O005  4  0.34457  0.75779  0.31549 11.00000  0.03939   7.48
C006  1  0.17261  0.76908  0.28461 11.00000  0.03118   7.41
N007  3  0.04603  0.70004  0.34534 11.00000  0.04003   6.96
N008  3  0.12066  0.41276  0.62935 11.00000  0.04129   6.73
C009  1  0.94191  0.80339  0.66544 11.00000  0.03021   6.50
C00A  1  1.05696  0.98542  0.54501 11.00000  0.03500   6.35
C00B  1  0.08284  0.84684  0.17670 11.00000  0.04568   5.95
C00C  1  0.72654  0.89463  0.48368 11.00000  0.03683   5.94
C00D  1  0.24446  0.60679  0.51221 11.00000  0.03467   5.82
C00E  1 -0.05696  0.51374  0.46595 11.00000  0.03886   5.72
C00F  1  0.15284  0.32128  0.72236 11.00000  0.03472   5.68
O00G  4  0.64076  0.74644  0.69907 11.00000  0.07234   5.64
C00H  1  0.89819  0.65056  0.82330 11.00000  0.03716   5.60
C00I  1  0.85289  1.07663  0.36907 11.00000  0.03756   5.41
C00J  1  0.08802  0.60405  0.44410 11.00000  0.03990   5.17
C00K  1 -0.04885  0.42640  0.56744 11.00000  0.05371   4.96
C00L  1  0.81845  0.74581  0.72430 11.00000  0.03734   4.90
C00M  1  0.28532  0.51555  0.61897 11.00000  0.05543   4.24
HKLF 4
END
