TITL SP14R08_expF_0_6_expS_1_4_SP14R08_a.res in Pn
REM Old TITL SP14R08 in P2(1)/n
REM SHELXT solution in Pn: R1 0.261, Rweak 0.284, Alpha 0.246
REM <I/s>   1.415 for   97 systematic absences,  Orientation as input
REM Formula found by SHELXT:  C10 N4 O8

CELL  0.71073   7.0200   9.2700  11.5600   90.000   97.670   90.000
ZERR   16.000   0.0014   0.0019   0.0023    0.000    0.030    0.000
LATT -1
SYMM 1/2+X, -Y, 1/2+Z
SFAC C H N O
UNIT 16 16 16 16
L.S. 10
BOND
LIST 6
FMAP 2
PLAN 20
C001  1  0.32168  0.26878  0.71648 11.00000  0.01016   9.84
O002  4  0.77734  0.48455  0.61015 11.00000  0.00010   9.38
O003  4  0.36184 -0.07029  0.37334 11.00000  0.00010   8.96
O004  4  0.23811  0.10506  0.49174 11.00000  0.01827   8.41
O005  4  0.14828  0.25683  0.68310 11.00000  0.00037   8.20
O006  4  0.56483  0.29930  0.34130 11.00000  0.00556   8.09
O007  4  0.40081  0.35770  0.82181 11.00000  0.00812   7.99
O008  4  0.32391 -0.16484  0.28124 11.00000  0.01039   7.84
N009  3  0.41295  0.11188  0.55347 11.00000  0.01509   7.36
N00A  3  0.47112  0.58820  0.55172 11.00000  0.01242   6.90
N00B  3  0.47170  0.20822  0.66289 11.00000  0.01325   6.83
N00C  3  0.58620  0.40105  0.43310 11.00000  0.00650   6.62
C00D  1  0.56030  0.00189  0.54809 11.00000  0.00084   6.42
O00E  4  0.65722  0.68634  0.72117 11.00000  0.01360   5.92
C00F  1  0.85172  0.24885  0.29977 11.00000  0.01203   5.86
C00G  1  0.42426  0.47514  0.46048 11.00000  0.01024   5.73
C00H  1  0.62265  0.58797  0.64192 11.00000  0.02576   4.68
C00I  1  0.75685  0.39679  0.52037 11.00000  0.00127   4.66
C00J  1  0.58264  0.15989  0.17819 11.00000  0.01149   4.36
C00K  1  0.69241  0.23603  0.28473 11.00000  0.00759   4.30
C00L  1  0.55367 -0.06829  0.44140 11.00000  0.00603   3.78
C00M  1  0.20707 -0.14562  0.38813 11.00000  0.05865   3.16
HKLF 4
END
