TITL SP14R08_expF_1_2_expS_1_2_SP14R08_b.res in Pn
REM Old TITL SP14R08 in P2(1)/n
REM SHELXT solution in Pn: R1 0.259, Rweak 0.030, Alpha 0.019
REM <I/s>   1.579 for  101 systematic absences,  Orientation as input
REM Formula found by SHELXT:  C15 N4 O3

CELL  0.71073   7.0200   9.2700  11.5600   90.000   97.670   90.000
ZERR   16.000   0.0014   0.0019   0.0023    0.000    0.030    0.000
LATT -1
SYMM 1/2+X, -Y, 1/2+Z
SFAC C H N O
UNIT 16 16 16 16
L.S. 10
BOND
LIST 6
FMAP 2
PLAN 20
N001  3  0.41992  0.89881  0.56496 11.00000  0.04762   8.05
O002  4  0.22769  0.98920  0.40033 11.00000  0.05206   7.64
C003  1  0.33282  0.74442  0.72305 11.00000  0.03583   7.14
N004  3  0.44962  0.80435  0.66122 11.00000  0.03554   6.79
N005  3  0.64323  0.41763  0.63644 11.00000  0.04239   6.63
N006  3  0.34135  1.17170  0.28123 11.00000  0.02287   6.57
C007  1  0.44862  0.51599  0.46519 11.00000  0.03694   6.39
O008  4  0.84962  0.76222  0.31134 11.00000  0.06321   6.37
C009  1  0.55161  1.08603  0.45299 11.00000  0.03632   5.99
C00A  1  0.42242  0.64479  0.82316 11.00000  0.03690   5.83
C00B  1  0.25521  0.89721  0.48885 11.00000  0.03883   5.69
C00C  1  0.66192  0.32345  0.72487 11.00000  0.04420   5.59
O00D  4  0.15038  0.74744  0.69457 11.00000  0.03898   5.52
C00E  1  0.55330  0.70124  0.34116 11.00000  0.03201   5.39
C00F  1  0.47765  0.42767  0.56502 11.00000  0.04147   5.25
C00G  1  0.77184  0.60779  0.51765 11.00000  0.03307   4.96
C00H  1  0.60647  0.84570  0.17684 11.00000  0.04249   4.63
C00I  1  0.68919  0.76841  0.28327 11.00000  0.03307   4.50
C00J  1  0.37930  1.08105  0.37732 11.00000  0.03712   4.36
C00K  1  0.56592  0.98768  0.54403 11.00000  0.03900   4.32
C00L  1  0.78985  0.51494  0.61968 11.00000  0.04146   4.00
C00M  1  0.59566  0.61111  0.44277 11.00000  0.03048   3.35
HKLF 4
END
