TITL SP14R08_expF_1_5_expS_1_5_SP14R08_b.res in Pn
REM Old TITL SP14R08 in P2(1)/n
REM SHELXT solution in Pn: R1 0.342, Rweak 0.016, Alpha 0.009
REM <I/s>   1.748 for  101 systematic absences,  Orientation as input
REM Formula found by SHELXT:  C17 N3 O3

CELL  0.71073   7.0200   9.2700  11.5600   90.000   97.670   90.000
ZERR   16.000   0.0014   0.0019   0.0023    0.000    0.030    0.000
LATT -1
SYMM 1/2+X, -Y, 1/2+Z
SFAC C H N O
UNIT 16 16 16 16
L.S. 10
BOND
LIST 6
FMAP 2
PLAN 20
C001  1  0.73940  0.10946  0.49063 11.00000  0.05053   7.42
N002  3 -0.04361  0.58150  0.56063 11.00000  0.06595   7.16
N003  3  0.94864  0.19649  0.66338 11.00000  0.04883   6.99
N004  3  0.83410 -0.16889  0.28248 11.00000  0.04028   6.52
C005  1  0.81527  0.26140  0.72150 11.00000  0.04384   6.47
C006  1  0.15960  0.67695  0.72627 11.00000  0.04054   6.39
C007  1  0.72158  0.01703  0.40088 11.00000  0.04816   6.20
C008  1  0.86049 -0.08319  0.37483 11.00000  0.04571   6.14
O009  4  0.65089  0.25728  0.69459 11.00000  0.06124   6.03
C00A  1  0.28424  0.49051  0.61612 11.00000  0.04516   5.99
C00B  1  0.91017  0.10985  0.56925 11.00000  0.04165   5.91
C00C  1  1.05829  0.01515  0.54786 11.00000  0.04736   5.90
C00D  1  0.08309  0.39755  0.44473 11.00000  0.04537   5.89
C00E  1 -0.05829  0.48442  0.46787 11.00000  0.05093   5.63
O00F  4  0.35691  0.24413  0.31213 11.00000  0.05418   5.62
C00G  1  0.90023  0.34746  0.82471 11.00000  0.04570   5.55
C00H  1  0.05236  0.29982  0.34302 11.00000  0.04187   5.40
C00I  1  0.12537  0.58394  0.63588 11.00000  0.05094   5.10
C00J  1  1.03190 -0.07816  0.44808 11.00000  0.04519   4.94
C00K  1  0.08102  0.14850  0.17529 11.00000  0.05841   4.88
C00L  1  0.17166  0.23262  0.28334 11.00000  0.04962   4.68
C00M  1  0.25898  0.39543  0.51988 11.00000  0.04416   3.92
O00N  4  0.64068  0.17376  0.51773 11.00000  0.37984   3.16
HKLF 4
END
