TITL SP14R08_expF_0_6_expS_0_8_SP14R08_a.res in Pn
REM Old TITL SP14R08 in P2(1)/n
REM SHELXT solution in Pn: R1 0.255, Rweak 0.271, Alpha 0.183
REM <I/s>   1.146 for   97 systematic absences,  Orientation as input
REM Formula found by SHELXT:  C11 N3 O5

CELL  0.71073   7.0200   9.2700  11.5600   90.000   97.670   90.000
ZERR   16.000   0.0014   0.0019   0.0023    0.000    0.030    0.000
LATT -1
SYMM 1/2+X, -Y, 1/2+Z
SFAC C H N O
UNIT 16 16 16 16
L.S. 10
BOND
LIST 6
FMAP 2
PLAN 20
O001  4  0.14775  0.74108  0.63734 11.00000  0.00832   8.28
O002  4  0.41003  0.64617  0.77327 11.00000  0.00010   8.26
O003  4  0.78063  0.51695  0.56340 11.00000  0.00010   7.89
O004  4  0.67081  0.32318  0.67320 11.00000  0.00010   7.72
N005  3  0.41803  0.88746  0.50918 11.00000  0.01789   7.35
N006  3  0.63875  0.42436  0.58902 11.00000  0.02542   7.15
N007  3  0.75882  0.60660  0.46730 11.00000  0.00397   7.15
C008  1  0.68708  0.76085  0.22673 11.00000  0.00010   6.81
C009  1  0.55813  0.70182  0.29168 11.00000  0.00254   6.44
C00A  1  0.56688  0.99756  0.50039 11.00000  0.00078   6.19
C00B  1  0.48064  0.41755  0.51101 11.00000  0.01193   6.03
C00C  1  0.45926  0.80138  0.61438 11.00000  0.01493   5.25
C00D  1  0.43893  0.52843  0.41625 11.00000  0.01428   4.50
C00E  1  0.56295  1.07818  0.39935 11.00000  0.01536   4.46
C00F  1  0.23189  0.89305  0.43835 11.00000  0.01508   4.27
C00G  1  0.37700  1.08062  0.32773 11.00000  0.00650   3.83
C00H  1  0.59163  0.60499  0.38894 11.00000  0.00819   3.67
C00I  1  0.32861  0.73228  0.65713 11.00000  0.01595   3.59
O00J  4  0.85225  0.74869  0.25547 11.00000  0.03555   3.16
HKLF 4
END
