TITL SP14R08_expF_0_5_expS_0_7_SP14R08_a.res in Pn
REM Old TITL SP14R08 in P2(1)/n
REM SHELXT solution in Pn: R1 0.264, Rweak 0.361, Alpha 0.185
REM <I/s>   1.091 for   97 systematic absences,  Orientation as input
REM Formula found by SHELXT:  C12 N2 O9

CELL  0.71073   7.0200   9.2700  11.5600   90.000   97.670   90.000
ZERR   16.000   0.0014   0.0019   0.0023    0.000    0.030    0.000
LATT -1
SYMM 1/2+X, -Y, 1/2+Z
SFAC C H N O
UNIT 16 16 16 16
L.S. 10
BOND
LIST 6
FMAP 2
PLAN 20
O001  4  0.37288  0.57948  0.83008 11.00000  0.00010  11.97
C002  1  0.55803  0.73164  0.43148 11.00000  0.00010  10.90
N003  3  0.66497  0.89181  0.26287 11.00000  0.00010  10.07
O004  4  0.33566  0.15063  0.37937 11.00000  0.00010   8.62
C005  1  0.50197  0.88988  0.18250 11.00000  0.00010   8.53
O006  4  0.39341  0.74953  0.39242 11.00000  0.00556   8.37
O007  4  0.68377  0.79605  0.35989 11.00000  0.00010   7.95
O008  4  0.19843  0.46850  0.66091 11.00000  0.08183   7.71
O009  4  0.45135  0.98199  0.08443 11.00000  0.00373   7.35
O00A  4  0.77747  1.07853  0.14486 11.00000  0.00010   7.33
O00B  4  0.57965  1.16771 -0.02580 11.00000  0.00179   6.97
N00C  3  0.52580  0.49607  0.80932 11.00000  0.02353   6.77
O00D  4  0.58593  0.24052  0.50711 11.00000  0.02327   6.39
C00E  1  0.26941  0.31463  0.53643 11.00000  0.00179   6.33
C00F  1  0.39843  0.69992  0.89850 11.00000  0.01869   5.40
C00G  1  0.80157  0.98924  0.24385 11.00000  0.00010   4.51
C00H  1  0.33227  0.37993  0.64112 11.00000  0.02925   4.36
C00I  1  0.42531  0.23266  0.49264 11.00000  0.00010   3.75
C00J  1  0.68098  0.63131  0.54239 11.00000  0.06567   3.35
C00K  1  0.53675  0.39043  0.71328 11.00000  0.00144   3.29
C00L  1  0.58970  0.52092  0.69965 11.00000  0.05267   3.08
C00M  1  0.60670  0.68473  0.79641 11.00000  0.08594   3.06
C00N  1  0.31320  0.60860  1.02580 11.00000  0.13432   3.01
HKLF 4
END
