TITL SP14R08_expF_1_2_expS_0_7_SP14R08_b.res in Pn
REM Old TITL SP14R08 in P2(1)/n
REM SHELXT solution in Pn: R1 0.252, Rweak 0.025, Alpha 0.019
REM <I/s>   1.478 for  101 systematic absences,  Orientation as input
REM Formula found by SHELXT:  C9 N4 O9

CELL  0.71073   7.0200   9.2700  11.5600   90.000   97.670   90.000
ZERR   16.000   0.0014   0.0019   0.0023    0.000    0.030    0.000
LATT -1
SYMM 1/2+X, -Y, 1/2+Z
SFAC C H N O
UNIT 16 16 16 16
L.S. 10
BOND
LIST 6
FMAP 2
PLAN 20
N001  3  0.86089  0.58716  0.37123 11.00000  0.04384   9.82
N002  3  0.08788  0.10409  0.44280 11.00000  0.03398   9.75
C003  1  0.17258  0.26044  0.28439 11.00000  0.03029   9.26
O004  4  0.72865  0.39316  0.48193 11.00000  0.04726   8.70
O005  4  1.05777  0.48958  0.54235 11.00000  0.05219   8.56
O006  4  0.95345  0.30195  0.66493 11.00000  0.04550   8.40
O007  4 -0.03616 -0.07443  0.56265 11.00000  0.05420   8.36
O008  4  0.85248  0.68374  0.28421 11.00000  0.06166   7.82
O009  4  0.71875  0.49314  0.39078 11.00000  0.07287   7.70
O00A  4  0.35490  0.25574  0.31070 11.00000  0.04083   7.63
O00B  4  0.16919 -0.16876  0.72653 11.00000  0.02951   7.30
O00C  4  0.65099  0.24431  0.69265 11.00000  0.05359   6.76
N00D  3  0.28355  0.01566  0.61188 11.00000  0.02860   6.74
N00E  3  0.08414  0.34163  0.17598 11.00000  0.05554   6.51
C00F  1  0.05746  0.19845  0.34451 11.00000  0.02473   6.49
C00G  1  0.90152  0.14589  0.82402 11.00000  0.02916   6.25
C00H  1  1.04378  0.58419  0.45151 11.00000  0.03394   5.67
C00I  1  0.81796  0.23651  0.72395 11.00000  0.03159   4.87
C00J  1  0.24992  0.10607  0.51062 11.00000  0.03255   4.72
C00K  1 -0.05777  0.01823  0.46247 11.00000  0.03572   4.65
C00L  1  0.91547  0.39363  0.56572 11.00000  0.03613   4.03
C00M  1  0.12830 -0.07916  0.63110 11.00000  0.02909   3.98
HKLF 4
END
