TITL SP14R08_expF_1_1_expS_0_9_SP14R08_b.res in Pn
REM Old TITL SP14R08 in P2(1)/n
REM SHELXT solution in Pn: R1 0.244, Rweak 0.030, Alpha 0.039
REM <I/s>   1.398 for  101 systematic absences,  Orientation as input
REM Formula found by SHELXT:  C16 N3 O3

CELL  0.71073   7.0200   9.2700  11.5600   90.000   97.670   90.000
ZERR   16.000   0.0014   0.0019   0.0023    0.000    0.030    0.000
LATT -1
SYMM 1/2+X, -Y, 1/2+Z
SFAC C H N O
UNIT 16 16 16 16
L.S. 10
BOND
LIST 6
FMAP 2
PLAN 20
O001  4  0.74826  0.39251  0.51458 11.00000  0.03722   8.11
C002  1  0.67409  0.23946  0.27375 11.00000  0.03094   7.82
N003  3  0.63565  0.58062  0.63507 11.00000  0.04114   6.66
N004  3  0.54085  0.29470  0.33731 11.00000  0.03144   6.65
N005  3  0.55564  0.00838  0.54716 11.00000  0.04187   6.50
C006  1  0.78305  0.49199  0.61047 11.00000  0.03968   6.42
C007  1  0.65766  0.67857  0.72213 11.00000  0.02666   6.30
O008  4  0.85186  0.24974  0.31021 11.00000  0.04066   6.26
C009  1  0.52436 -0.08705  0.44744 11.00000  0.02737   6.03
C00A  1  0.33052 -0.16983  0.27794 11.00000  0.02285   5.97
C00B  1  0.58072  0.39387  0.43567 11.00000  0.03310   5.95
C00C  1  0.40679  0.34742  0.82364 11.00000  0.03518   5.88
C00D  1  0.43718  0.19131  0.65856 11.00000  0.03134   5.79
C00E  1  0.40802  0.10631  0.55888 11.00000  0.02945   5.67
O00F  4  0.14814  0.26278  0.69274 11.00000  0.05885   5.62
C00G  1  0.44820  0.56973  0.55960 11.00000  0.03876   5.42
C00H  1  0.21628  0.01676  0.39096 11.00000  0.02818   5.36
C00I  1  0.37072 -0.07933  0.37396 11.00000  0.03470   4.69
C00J  1  0.59230  0.14484  0.17636 11.00000  0.03870   4.61
C00K  1  0.43876  0.47904  0.46497 11.00000  0.03553   4.57
C00L  1  0.31679  0.26595  0.71423 11.00000  0.02836   3.62
C00M  1  0.22419  0.10788  0.48427 11.00000  0.06032   3.24
HKLF 4
END
