TITL SP14R08_expF_0_9_expS_0_6_SP14R08_a.res in P2(1)/n
REM Old TITL SP14R08 in P2(1)/n
REM SHELXT solution in P2(1)/n: R1 0.275, Rweak 0.094, Alpha 0.142
REM <I/s>   1.291 for  107 systematic absences,  Orientation as input
REM Formula found by SHELXT:  C9 N O

CELL  0.71073   7.0200   9.2700  11.5600   90.000   97.670   90.000
ZERR   16.000   0.0014   0.0019   0.0023    0.000    0.030    0.000
LATT  1
SYMM 1/2-X, 1/2+Y, 1/2-Z
SFAC C H N O
UNIT 16 16 16 16
L.S. 10
BOND
LIST 6
FMAP 2
PLAN 20
N001  3  0.55085  0.44978  0.33887 11.00000  0.02820   6.64
O002  4  0.85074  0.50568  0.30882 11.00000  0.03904   6.38
C003  1  0.67907  0.51202  0.27907 11.00000  0.01998   6.33
C004  1  0.66364  0.07423  0.72189 11.00000  0.01730   6.23
C005  1  0.78290  0.26336  0.61059 11.00000  0.02417   6.11
C006  1  0.58808  0.35743  0.43836 11.00000  0.02163   5.78
C007  1  0.75845  0.35738  0.51497 11.00000  0.02373   5.77
C008  1  0.63376  0.17107  0.63028 11.00000  0.02359   5.76
C009  1  0.46042  0.17100  0.55490 11.00000  0.02811   5.60
C00A  1  0.59264  0.60076  0.17686 11.00000  0.02432   5.58
C00B  1  0.43963  0.26517  0.45925 11.00000  0.02546   5.50
HKLF 4
END
