TITL SP14R08_expF_1_3_expS_1_4_SP14R08_b.res in Pn
REM Old TITL SP14R08 in P2(1)/n
REM SHELXT solution in Pn: R1 0.277, Rweak 0.017, Alpha 0.019
REM <I/s>   1.761 for  101 systematic absences,  Orientation as input
REM Formula found by SHELXT:  C14 N4 O4

CELL  0.71073   7.0200   9.2700  11.5600   90.000   97.670   90.000
ZERR   16.000   0.0014   0.0019   0.0023    0.000    0.030    0.000
LATT -1
SYMM 1/2+X, -Y, 1/2+Z
SFAC C H N O
UNIT 16 16 16 16
L.S. 10
BOND
LIST 6
FMAP 2
PLAN 20
N001  3  0.91195  0.10600  0.56473 11.00000  0.03571   8.19
C002  1  0.81489  0.25761  0.72749 11.00000  0.03750   7.57
O003  4  1.03211 -0.08259  0.44964 11.00000  0.05282   7.53
O004  4  0.83452 -0.17013  0.27969 11.00000  0.04451   7.35
N005  3  0.12250  0.58283  0.63195 11.00000  0.04144   7.20
N006  3  0.94667  0.20109  0.66554 11.00000  0.03842   6.87
N007  3  0.71921  0.00898  0.39658 11.00000  0.04100   6.86
C008  1  0.25438  0.39721  0.51276 11.00000  0.03712   6.13
O009  4  0.34698  0.24063  0.31510 11.00000  0.04311   6.04
O00A  4  0.64235  0.25298  0.69920 11.00000  0.06010   5.96
C00B  1 -0.05742  0.48563  0.46571 11.00000  0.03701   5.96
C00C  1  0.05226  0.30307  0.34574 11.00000  0.03263   5.72
C00D  1  0.89174  0.34722  0.82266 11.00000  0.04173   5.70
C00E  1  0.15700  0.67706  0.72388 11.00000  0.03241   5.64
C00F  1  0.28263  0.48055  0.61449 11.00000  0.04548   5.64
C00G  1  1.05742  0.01522  0.54610 11.00000  0.04008   5.49
C00H  1  0.07572  0.14943  0.17734 11.00000  0.04139   5.32
C00I  1  0.73492  0.10953  0.48415 11.00000  0.03536   5.14
C00J  1 -0.04255  0.57438  0.56541 11.00000  0.05601   4.85
C00K  1  0.17193  0.23280  0.28849 11.00000  0.03686   4.29
C00L  1  0.85678 -0.07984  0.36972 11.00000  0.04356   4.12
C00M  1  0.08787  0.39351  0.44100 11.00000  0.04176   4.01
HKLF 4
END
