TITL SP14R08_expF_0_9_expS_0_8_SP14R08_a.res in P2(1)/n
REM Old TITL SP14R08 in P2(1)/n
REM SHELXT solution in P2(1)/n: R1 0.274, Rweak 0.093, Alpha 0.145
REM <I/s>   1.290 for  107 systematic absences,  Orientation as input
REM Formula found by SHELXT:  C9 N O

CELL  0.71073   7.0200   9.2700  11.5600   90.000   97.670   90.000
ZERR   16.000   0.0014   0.0019   0.0023    0.000    0.030    0.000
LATT  1
SYMM 1/2-X, 1/2+Y, 1/2-Z
SFAC C H N O
UNIT 16 16 16 16
L.S. 10
BOND
LIST 6
FMAP 2
PLAN 20
N001  3  0.44907  0.55041  0.66119 11.00000  0.02593   6.54
O002  4  0.14941  0.49379  0.69128 11.00000  0.03524   6.48
C003  1  0.32086  0.48798  0.72099 11.00000  0.01909   6.04
C004  1  0.33548  0.92589  0.27818 11.00000  0.01611   5.99
C005  1  0.41187  0.64276  0.56164 11.00000  0.02136   5.96
C006  1  0.21769  0.73616  0.38962 11.00000  0.02200   5.95
C007  1  0.36694  0.82889  0.36984 11.00000  0.02247   5.89
C008  1  0.40767  0.39918  0.82315 11.00000  0.02259   5.65
C009  1  0.56107  0.73532  0.54079 11.00000  0.02407   5.63
C00A  1  0.53933  0.82894  0.44483 11.00000  0.02642   5.58
C00B  1  0.24130  0.64274  0.48508 11.00000  0.02179   5.53
HKLF 4
END
