TITL SP14R08_expF_1_5_expS_1_3_SP14R08_c.res in P2(1)
REM Old TITL SP14R08 in P2(1)/n
REM SHELXT solution in P2(1): R1 0.338, Rweak 0.016, Alpha 0.040
REM <I/s>   4.607 for    6 systematic absences,  Orientation as input
REM Formula found by SHELXT:  C17 N3 O2

CELL  0.71073   7.0200   9.2700  11.5600   90.000   97.670   90.000
ZERR   16.000   0.0014   0.0019   0.0023    0.000    0.030    0.000
LATT -1
SYMM -X, 1/2+Y, -Z
SFAC C H N O
UNIT 16 16 16 16
L.S. 10
BOND
LIST 6
FMAP 2
PLAN 20
N001  3  0.71433  0.58163  0.30609 11.00000  0.06457   6.87
N002  3  0.41296  0.33473  0.97125 11.00000  0.04133   6.76
N003  3  0.52878  0.51908  0.85679 11.00000  0.05956   6.54
C004  1  0.80261  0.30808  0.08858 11.00000  0.04026   6.30
C005  1  0.91061  0.68120  0.47193 11.00000  0.03938   6.17
C006  1  0.30141  0.70369  0.59124 11.00000  0.04221   6.12
O007  4  1.10483  0.25119  0.05974 11.00000  0.05654   6.08
C008  1  0.37932  0.41897  0.87842 11.00000  0.04597   6.06
C009  1  0.83711  0.39370  0.18763 11.00000  0.04080   6.00
C00A  1  0.33595  0.60621  0.68837 11.00000  0.04672   5.99
C00B  1  0.93047  0.23474  0.03024 11.00000  0.04567   5.99
C00C  1  0.69611  0.48506  0.20955 11.00000  0.04948   5.98
C00D  1  1.03380  0.48977  0.35877 11.00000  0.04684   5.96
C00E  1  0.50896  0.61149  0.76219 11.00000  0.04683   5.78
O00F  4  0.60328  0.76417  0.55785 11.00000  0.06354   5.56
C00G  1  1.01110  0.39505  0.26662 11.00000  0.04780   5.56
C00H  1  0.18720  0.51571  0.71105 11.00000  0.05020   5.49
C00I  1  0.34672  0.84777  0.42562 11.00000  0.05570   5.43
C00J  1  0.42608  0.76270  0.53038 11.00000  0.04934   5.35
C00K  1  0.88585  0.58406  0.38201 11.00000  0.04999   5.30
C00L  1  0.20959  0.42356  0.80553 11.00000  0.04745   5.25
C00M  1  0.83624  0.15223 -0.07374 11.00000  0.05330   4.99
HKLF 4
END
