TITL SP14R08_expF_0_9_expS_1_5_SP14R08_b.res in Pn
REM Old TITL SP14R08 in P2(1)/n
REM SHELXT solution in Pn: R1 0.240, Rweak 0.073, Alpha 0.080
REM <I/s>   1.504 for  101 systematic absences,  Orientation as input
REM Formula found by SHELXT:  C14 N4 O3

CELL  0.71073   7.0200   9.2700  11.5600   90.000   97.670   90.000
ZERR   16.000   0.0014   0.0019   0.0023    0.000    0.030    0.000
LATT -1
SYMM 1/2+X, -Y, 1/2+Z
SFAC C H N O
UNIT 16 16 16 16
L.S. 10
BOND
LIST 6
FMAP 2
PLAN 20
N001  3  0.17492  0.26220  0.28571 11.00000  0.00280   9.17
O002  4  0.73435  0.39178  0.49221 11.00000  0.02954   8.30
O003  4  0.71399  0.49225  0.39320 11.00000  0.04605   8.21
O004  4  0.94786  0.30015  0.66690 11.00000  0.03094   7.91
N005  3  0.85776  0.57891  0.37447 11.00000  0.03442   7.44
N006  3 -0.04270 -0.08468  0.55546 11.00000  0.03960   7.23
N007  3  0.35088  0.26783  0.31544 11.00000  0.01845   7.16
C008  1  0.83755  0.67491  0.28421 11.00000  0.01551   6.34
C009  1  0.90409  0.15336  0.82433 11.00000  0.01452   6.22
C00A  1  0.08673  0.10466  0.44733 11.00000  0.03024   6.14
C00B  1  0.16931 -0.17438  0.72892 11.00000  0.02149   5.73
C00C  1  0.90954  0.39262  0.56893 11.00000  0.02295   5.55
C00D  1 -0.05938  0.01668  0.45871 11.00000  0.03638   5.52
C00E  1  0.64688  0.25305  0.69687 11.00000  0.02386   5.39
C00F  1  0.05300  0.19865  0.34888 11.00000  0.02366   5.17
C00G  1  1.05938  0.49055  0.54247 11.00000  0.01715   5.11
C00H  1  0.08690  0.35732  0.17567 11.00000  0.04170   4.41
C00I  1  1.03051  0.57481  0.44569 11.00000  0.02297   4.16
C00J  1  0.27316  0.01775  0.61316 11.00000  0.01812   4.01
C00K  1  0.12487 -0.08016  0.63654 11.00000  0.02353   3.81
C00L  1  0.25545  0.10333  0.52248 11.00000  0.03847   3.54
HKLF 4
END
