TITL SP14R08_expF_0_9_expS_0_5_SP14R08_a.res in P2(1)/n
REM Old TITL SP14R08 in P2(1)/n
REM SHELXT solution in P2(1)/n: R1 0.275, Rweak 0.092, Alpha 0.124
REM <I/s>   1.304 for  107 systematic absences,  Orientation as input
REM Formula found by SHELXT:  C9 N O

CELL  0.71073   7.0200   9.2700  11.5600   90.000   97.670   90.000
ZERR   16.000   0.0014   0.0019   0.0023    0.000    0.030    0.000
LATT  1
SYMM 1/2-X, 1/2+Y, 1/2-Z
SFAC C H N O
UNIT 16 16 16 16
L.S. 10
BOND
LIST 6
FMAP 2
PLAN 20
N001  3  0.55100  0.55012  0.33897 11.00000  0.02954   6.64
O002  4  0.85076  0.49460  0.30890 11.00000  0.04120   6.41
C003  1  0.66323  0.92567  0.72188 11.00000  0.01798   6.27
C004  1  0.67910  0.48790  0.27910 11.00000  0.02054   6.23
C005  1  0.58808  0.64253  0.43834 11.00000  0.02187   6.07
C006  1  0.63416  0.82895  0.63038 11.00000  0.02429   6.00
C007  1  0.78321  0.73690  0.61072 11.00000  0.02538   5.82
C008  1  0.75845  0.64256  0.51502 11.00000  0.02491   5.69
C009  1  0.44010  0.73461  0.45932 11.00000  0.02629   5.55
C00A  1  0.46028  0.82903  0.55476 11.00000  0.02897   5.54
C00B  1  0.59268  0.39928  0.17681 11.00000  0.02527   5.45
HKLF 4
END
