TITL SP14R08_expF_0_9_expS_0_9_SP14R08_c.res in P2(1)
REM Old TITL SP14R08 in P2(1)/n
REM SHELXT solution in P2(1): R1 0.241, Rweak 0.081, Alpha 0.138
REM <I/s>   2.113 for    6 systematic absences,  Orientation as input
REM Formula found by SHELXT:  C15 N4 O3

CELL  0.71073   7.0200   9.2700  11.5600   90.000   97.670   90.000
ZERR   16.000   0.0014   0.0019   0.0023    0.000    0.030    0.000
LATT -1
SYMM -X, 1/2+Y, -Z
SFAC C H N O
UNIT 16 16 16 16
L.S. 10
BOND
LIST 6
FMAP 2
PLAN 20
O001  4  0.41562  0.33611  0.97347 11.00000  0.02682   7.87
O002  4  1.10211  0.23654  0.05776 11.00000  0.02998   7.57
N003  3  0.42702  0.75614  0.52428 11.00000  0.03613   7.31
N004  3  0.79743  0.30401  0.08699 11.00000  0.01702   6.79
C005  1  0.38641  0.41498  0.87842 11.00000  0.01875   6.75
N006  3  0.53311  0.51978  0.86416 11.00000  0.02724   6.64
N007  3  0.33948  0.59911  0.69093 11.00000  0.02516   6.53
C008  1  0.30763  0.70753  0.59431 11.00000  0.02453   6.42
C009  1  0.18624  0.50630  0.71338 11.00000  0.01968   6.30
C00A  1  0.84941  0.14878 -0.06970 11.00000  0.01530   6.07
C00B  1  0.71819  0.57314  0.30892 11.00000  0.02073   5.98
C00C  1  0.20086  0.41193  0.79979 11.00000  0.03094   5.83
C00D  1  0.50686  0.61033  0.76661 11.00000  0.02249   5.74
C00E  1  0.83750  0.38553  0.18476 11.00000  0.02877   5.61
C00F  1  1.01106  0.39608  0.26256 11.00000  0.02391   5.56
C00G  1  1.02888  0.49532  0.35557 11.00000  0.02869   5.53
C00H  1  0.93069  0.23076  0.03317 11.00000  0.01527   5.43
C00I  1  0.87749  0.57413  0.38150 11.00000  0.02670   5.30
C00J  1  0.33209  0.85122  0.42186 11.00000  0.03246   4.83
O00K  4  0.60198  0.74808  0.55992 11.00000  0.03740   4.83
C00L  1  0.69511  0.47584  0.20437 11.00000  0.02683   4.76
C00M  1  0.91092  0.68706  0.46892 11.00000  0.02166   4.75
HKLF 4
END
