TITL SP14R08_expF_0_8_expS_0_5_SP14R08_c.res in P2(1)
REM Old TITL SP14R08 in P2(1)/n
REM SHELXT solution in P2(1): R1 0.243, Rweak 0.127, Alpha 0.182
REM <I/s>   3.067 for    6 systematic absences,  Orientation as input
REM Formula found by SHELXT:  C15 N3 O4

CELL  0.71073   7.0200   9.2700  11.5600   90.000   97.670   90.000
ZERR   16.000   0.0014   0.0019   0.0023    0.000    0.030    0.000
LATT -1
SYMM -X, 1/2+Y, -Z
SFAC C H N O
UNIT 16 16 16 16
L.S. 10
BOND
LIST 6
FMAP 2
PLAN 20
C001  1  0.06995  0.25944  0.96917 11.00000  0.01763   8.16
N002  3  0.16906  0.41430  0.81208 11.00000  0.01851   7.70
O003  4 -0.11070  0.25458  0.93644 11.00000  0.02736   7.69
O004  4  0.66002  0.85944  0.57361 11.00000  0.01494   7.26
N005  3  0.48910  0.63364  0.23424 11.00000  0.02537   7.09
C006  1  0.11921  0.59708  0.62319 11.00000  0.01582   6.72
N007  3  0.19891  0.30834  0.91018 11.00000  0.02006   6.54
C008  1  0.57883  0.33112  0.03360 11.00000  0.01348   6.34
C009  1  0.46543  0.53082  0.13838 11.00000  0.01553   6.32
C00A  1  0.69866  0.70517  0.41070 11.00000  0.01582   6.15
C00B  1  0.30014  0.59735  0.69368 11.00000  0.00894   5.94
C00C  1  0.30869  0.50058  0.78779 11.00000  0.01699   5.93
O00D  4  0.09280  0.67929  0.52379 11.00000  0.02874   5.81
C00E  1 -0.03020  0.50767  0.64018 11.00000  0.02966   5.78
C00F  1  0.80841  0.53418  0.29514 11.00000  0.02646   5.45
O00G  4  0.40953  0.76527  0.44516 11.00000  0.03237   5.04
C00H  1  0.77621  0.44067  0.19638 11.00000  0.04206   4.96
C00I  1  0.61335  0.43399  0.11478 11.00000  0.02219   4.75
C00J  1  0.64819  0.63071  0.31310 11.00000  0.02998   4.24
C00K  1  0.56912  0.78368  0.47167 11.00000  0.01882   3.68
C00L  1 -0.00566  0.42094  0.73567 11.00000  0.02044   3.64
C00M  1  0.14588  0.14056  1.07146 11.00000  0.06747   3.40
HKLF 4
END
