TITL SP14R08_expF_0_9_expS_1_4_SP14R08_a.res in P2(1)/n
REM Old TITL SP14R08 in P2(1)/n
REM SHELXT solution in P2(1)/n: R1 0.278, Rweak 0.084, Alpha 0.132
REM <I/s>   1.423 for  107 systematic absences,  Orientation as input
REM Formula found by SHELXT:  C10 O

CELL  0.71073   7.0200   9.2700  11.5600   90.000   97.670   90.000
ZERR   16.000   0.0014   0.0019   0.0023    0.000    0.030    0.000
LATT  1
SYMM 1/2-X, 1/2+Y, 1/2-Z
SFAC C H N O
UNIT 16 16 16 16
L.S. 10
BOND
LIST 6
FMAP 2
PLAN 20
C001  1  0.44896  0.44943  0.66049 11.00000  0.01750   6.43
O002  4  0.14904  0.50687  0.69061 11.00000  0.03109   6.37
C003  1  0.32009  0.51374  0.72087 11.00000  0.02128   6.31
C004  1  0.33380  0.07511  0.27862 11.00000  0.01789   6.07
C005  1  0.41186  0.35548  0.56166 11.00000  0.02686   6.04
C006  1  0.21919  0.26411  0.39036 11.00000  0.02076   5.99
C007  1  0.36846  0.17119  0.37086 11.00000  0.02496   5.94
C008  1  0.24009  0.35690  0.48653 11.00000  0.02098   5.67
C009  1  0.53915  0.17124  0.44547 11.00000  0.02451   5.61
C00A  1  0.40845  0.60099  0.82373 11.00000  0.02220   5.52
C00B  1  0.56171  0.26314  0.54138 11.00000  0.02552   5.50
HKLF 4
END
