TITL SP14R08_expF_1_1_expS_1_2_SP14R08_a.res in P2(1)/n
REM Old TITL SP14R08 in P2(1)/n
REM SHELXT solution in P2(1)/n: R1 0.274, Rweak 0.040, Alpha 0.073
REM <I/s>   1.498 for  107 systematic absences,  Orientation as input
REM Formula found by SHELXT:  C10 O

CELL  0.71073   7.0200   9.2700  11.5600   90.000   97.670   90.000
ZERR   16.000   0.0014   0.0019   0.0023    0.000    0.030    0.000
LATT  1
SYMM 1/2-X, 1/2+Y, 1/2-Z
SFAC C H N O
UNIT 16 16 16 16
L.S. 10
BOND
LIST 6
FMAP 2
PLAN 20
C001  1  0.55055  0.44942  0.33943 11.00000  0.02560   6.45
C002  1  0.66333  0.07511  0.72165 11.00000  0.02354   6.26
O003  4  0.85145  0.50532  0.30863 11.00000  0.04598   6.19
C004  1  0.78197  0.26364  0.60937 11.00000  0.03009   6.12
C005  1  0.67924  0.51271  0.27887 11.00000  0.02833   6.05
C006  1  0.58763  0.35582  0.43829 11.00000  0.02953   6.03
C007  1  0.46326  0.17080  0.55570 11.00000  0.03379   5.88
C008  1  0.63261  0.17091  0.62989 11.00000  0.03079   5.82
C009  1  0.75888  0.35724  0.51418 11.00000  0.02976   5.66
C00A  1  0.43931  0.26377  0.45924 11.00000  0.03283   5.62
C00B  1  0.59164  0.60101  0.17656 11.00000  0.03261   5.41
HKLF 4
END
