TITL SP14R08_expF_1_0_expS_1_4_SP14R08_b.res in Pn
REM Old TITL SP14R08 in P2(1)/n
REM SHELXT solution in Pn: R1 0.241, Rweak 0.062, Alpha 0.032
REM <I/s>   1.498 for  101 systematic absences,  Orientation as input
REM Formula found by SHELXT:  C13 N2 O6

CELL  0.71073   7.0200   9.2700  11.5600   90.000   97.670   90.000
ZERR   16.000   0.0014   0.0019   0.0023    0.000    0.030    0.000
LATT -1
SYMM 1/2+X, -Y, 1/2+Z
SFAC C H N O
UNIT 16 16 16 16
L.S. 10
BOND
LIST 6
FMAP 2
PLAN 20
O001  4  0.53617  0.42127  0.44420 11.00000  0.01176   9.41
O002  4  0.55391  0.51729  0.53842 11.00000  0.03728   8.21
O003  4  0.55153  0.79896  0.34160 11.00000  0.03226   8.02
O004  4  0.33152  0.32312  0.27923 11.00000  0.04124   7.85
O005  4  0.85217  0.74620  0.30983 11.00000  0.02917   7.46
N006  3  0.75910  0.89726  0.51104 11.00000  0.02943   7.24
N007  3  0.58962  0.65091  0.17702 11.00000  0.03239   7.17
C008  1  0.67080  0.73304  0.27351 11.00000  0.02835   6.67
C009  1  0.22198  0.51464  0.38893 11.00000  0.01723   6.35
C00A  1  0.62619  1.08588  0.62999 11.00000  0.02163   6.35
C00B  1  0.41365  0.61072  0.56025 11.00000  0.01098   6.21
C00C  1  0.59576  0.89954  0.43682 11.00000  0.03646   5.84
C00D  1  0.78919  0.98836  0.60697 11.00000  0.02760   5.70
C00E  1  0.31581  0.75929  0.71505 11.00000  0.01365   5.66
C00F  1  0.44758  0.69523  0.66423 11.00000  0.02017   5.49
O00G  4  0.14783  0.76037  0.69223 11.00000  0.03733   5.44
C00H  1  0.36377  0.42680  0.36814 11.00000  0.02522   5.38
C00I  1  0.66152  1.17299  0.72383 11.00000  0.00990   5.02
C00J  1  0.23847  0.60968  0.48111 11.00000  0.02256   4.50
C00K  1  0.40453  0.85330  0.82298 11.00000  0.02793   3.77
C00L  1  0.43558  0.99225  0.45968 11.00000  0.03026   3.17
HKLF 4
END
