TITL SP14R08_expF_1_1_expS_1_0_SP14R08_b.res in Pn
REM Old TITL SP14R08 in P2(1)/n
REM SHELXT solution in Pn: R1 0.241, Rweak 0.037, Alpha 0.028
REM <I/s>   1.424 for  101 systematic absences,  Orientation as input
REM Formula found by SHELXT:  C15 N5 O2

CELL  0.71073   7.0200   9.2700  11.5600   90.000   97.670   90.000
ZERR   16.000   0.0014   0.0019   0.0023    0.000    0.030    0.000
LATT -1
SYMM 1/2+X, -Y, 1/2+Z
SFAC C H N O
UNIT 16 16 16 16
L.S. 10
BOND
LIST 6
FMAP 2
PLAN 20
C001  1  0.31730  0.22855  0.71329 11.00000  0.03005   8.11
N002  3  0.78369  0.01711  0.60387 11.00000  0.03652   7.28
N003  3  0.58754  0.10877  0.43344 11.00000  0.03928   7.03
N004  3  0.66801 -0.17034  0.72169 11.00000  0.02359   6.98
N005  3  0.54989  0.20509  0.33847 11.00000  0.03015   6.91
N006  3  0.58560  0.35854  0.17680 11.00000  0.04105   6.84
C007  1  0.75763  0.10590  0.51386 11.00000  0.02730   6.50
C008  1  0.44996 -0.08174  0.55090 11.00000  0.04036   6.34
C009  1  0.55952  0.49361  0.54068 11.00000  0.02896   6.20
O00A  4  0.85168  0.24863  0.31026 11.00000  0.05234   6.15
C00B  1  0.63439 -0.07407  0.62955 11.00000  0.03322   6.09
C00C  1  0.44723  0.30730  0.65967 11.00000  0.03450   5.76
O00D  4  0.14832  0.23861  0.69244 11.00000  0.04547   5.73
C00E  1  0.34627  0.68111  0.27904 11.00000  0.03672   5.71
C00F  1  0.52682  0.57839  0.44036 11.00000  0.03055   5.46
C00G  1  0.36881  0.58579  0.36985 11.00000  0.03148   5.29
C00H  1  0.41336  0.39723  0.55663 11.00000  0.03179   5.03
C00I  1  0.21959  0.49129  0.38351 11.00000  0.03943   5.03
C00J  1  0.44095  0.02399  0.45985 11.00000  0.04069   4.97
C00K  1  0.24126  0.39198  0.48605 11.00000  0.04128   4.74
C00L  1  0.67373  0.25525  0.27305 11.00000  0.02663   4.07
C00M  1  0.40137  0.15680  0.82320 11.00000  0.03962   3.59
HKLF 4
END
