TITL SP14R08_expF_1_1_expS_0_6_SP14R08_a.res in P2(1)/n
REM Old TITL SP14R08 in P2(1)/n
REM SHELXT solution in P2(1)/n: R1 0.272, Rweak 0.043, Alpha 0.089
REM <I/s>   1.513 for  107 systematic absences,  Orientation as input
REM Formula found by SHELXT:  C10 O

CELL  0.71073   7.0200   9.2700  11.5600   90.000   97.670   90.000
ZERR   16.000   0.0014   0.0019   0.0023    0.000    0.030    0.000
LATT  1
SYMM 1/2-X, 1/2+Y, 1/2-Z
SFAC C H N O
UNIT 16 16 16 16
L.S. 10
BOND
LIST 6
FMAP 2
PLAN 20
C001  1  0.44968  0.55055  0.66086 11.00000  0.02976   6.42
C002  1  0.33871  0.92463  0.27864 11.00000  0.02737   6.25
C003  1  0.32201  0.48680  0.72095 11.00000  0.03122   6.17
O004  4  0.14851  0.49643  0.69129 11.00000  0.05863   6.11
C005  1  0.21735  0.73791  0.38966 11.00000  0.03527   6.06
C006  1  0.41299  0.64422  0.56182 11.00000  0.03219   6.03
C007  1  0.36575  0.82966  0.36945 11.00000  0.03402   5.86
C008  1  0.53722  0.82952  0.44474 11.00000  0.03750   5.76
C009  1  0.24185  0.64281  0.48553 11.00000  0.03537   5.70
C00A  1  0.55958  0.73574  0.54100 11.00000  0.03716   5.56
C00B  1  0.40684  0.39963  0.82366 11.00000  0.03775   5.38
HKLF 4
END
