TITL SP14R08_expF_0_9_expS_0_9_SP14R08_a.res in P2(1)/n
REM Old TITL SP14R08 in P2(1)/n
REM SHELXT solution in P2(1)/n: R1 0.274, Rweak 0.093, Alpha 0.130
REM <I/s>   1.299 for  107 systematic absences,  Orientation as input
REM Formula found by SHELXT:  C9 N O

CELL  0.71073   7.0200   9.2700  11.5600   90.000   97.670   90.000
ZERR   16.000   0.0014   0.0019   0.0023    0.000    0.030    0.000
LATT  1
SYMM 1/2-X, 1/2+Y, 1/2-Z
SFAC C H N O
UNIT 16 16 16 16
L.S. 10
BOND
LIST 6
FMAP 2
PLAN 20
N001  3  0.55110  0.44952  0.33885 11.00000  0.02507   6.66
O002  4  0.85048  0.50648  0.30871 11.00000  0.03364   6.31
C003  1  0.67920  0.51209  0.27900 11.00000  0.01886   6.29
C004  1  0.66496  0.07411  0.72176 11.00000  0.01561   6.22
C005  1  0.78202  0.26405  0.61026 11.00000  0.02115   5.95
C006  1  0.58819  0.35708  0.43835 11.00000  0.02142   5.92
C007  1  0.63276  0.17115  0.63008 11.00000  0.02212   5.85
C008  1  0.75891  0.35718  0.51487 11.00000  0.02114   5.71
C009  1  0.46076  0.17114  0.55527 11.00000  0.02563   5.63
C00A  1  0.43871  0.26444  0.45920 11.00000  0.02361   5.45
C00B  1  0.59212  0.60085  0.17679 11.00000  0.02190   5.42
HKLF 4
END
