TITL SP14R08_expF_1_0_expS_0_8_SP14R08_c.res in P2(1)
REM Old TITL SP14R08 in P2(1)/n
REM SHELXT solution in P2(1): R1 0.245, Rweak 0.056, Alpha 0.164
REM <I/s>   3.300 for    6 systematic absences,  Orientation as input
REM Formula found by SHELXT:  C15 N4 O3

CELL  0.71073   7.0200   9.2700  11.5600   90.000   97.670   90.000
ZERR   16.000   0.0014   0.0019   0.0023    0.000    0.030    0.000
LATT -1
SYMM -X, 1/2+Y, -Z
SFAC C H N O
UNIT 16 16 16 16
L.S. 10
BOND
LIST 6
FMAP 2
PLAN 20
O001  4  0.41595  0.66258  0.97691 11.00000  0.02809   8.22
C002  1  0.93062  0.76434  0.02841 11.00000  0.02669   7.12
N003  3  0.79854  0.69049  0.08594 11.00000  0.03477   6.88
N004  3  0.20895  0.58469  0.80527 11.00000  0.04264   6.87
N005  3  0.53485  0.48895  0.86380 11.00000  0.04310   6.69
N006  3  0.50463  0.39104  0.76427 11.00000  0.02845   6.66
O007  4  1.10184  0.75999  0.06087 11.00000  0.03593   6.63
C008  1  0.30509  0.29169  0.59275 11.00000  0.01739   6.06
C009  1  0.83629  0.61192  0.18999 11.00000  0.02101   6.00
C00A  1  0.83961  0.85093 -0.07211 11.00000  0.02292   5.99
C00B  1  0.37918  0.57073  0.88451 11.00000  0.02733   5.97
C00C  1  0.34037  0.40203  0.68668 11.00000  0.03118   5.92
O00D  4  0.60216  0.24921  0.55774 11.00000  0.04770   5.87
C00E  1  0.88721  0.41063  0.37749 11.00000  0.02463   5.69
C00F  1  0.68806  0.51410  0.20773 11.00000  0.03086   5.60
C00G  1  0.19324  0.48433  0.71086 11.00000  0.03058   5.50
C00H  1  0.42870  0.23874  0.53128 11.00000  0.02712   5.14
C00I  1  1.03066  0.51394  0.35741 11.00000  0.02677   5.08
C00J  1  0.34530  0.14907  0.42416 11.00000  0.04004   4.88
C00K  1  0.71378  0.42604  0.30612 11.00000  0.03328   4.79
C00L  1  1.01684  0.60482  0.26532 11.00000  0.03918   4.65
C00M  1  0.90783  0.31195  0.46426 11.00000  0.02951   4.46
HKLF 4
END
