TITL SP14R08_expF_0_6_expS_1_2_SP14R08_a.res in Pn
REM Old TITL SP14R08 in P2(1)/n
REM SHELXT solution in Pn: R1 0.255, Rweak 0.271, Alpha 0.170
REM <I/s>   1.314 for   97 systematic absences,  Orientation as input
REM Formula found by SHELXT:  C8 N2 O9

CELL  0.71073   7.0200   9.2700  11.5600   90.000   97.670   90.000
ZERR   16.000   0.0014   0.0019   0.0023    0.000    0.030    0.000
LATT -1
SYMM 1/2+X, -Y, 1/2+Z
SFAC C H N O
UNIT 16 16 16 16
L.S. 10
BOND
LIST 6
FMAP 2
PLAN 20
O001  4  0.08225  0.60679  0.44569 11.00000  0.00010   9.64
O002  4 -0.04758  0.42354  0.56041 11.00000  0.00010   9.43
O003  4  0.64531  0.73443  0.69815 11.00000  0.00384   9.11
O004  4  0.89820  0.65223  0.82650 11.00000  0.00451   8.51
O005  4  0.26821  0.51021  0.61679 11.00000  0.01022   8.35
O006  4  1.04758  0.98588  0.55292 11.00000  0.00401   8.32
C007  1  0.81142  0.73366  0.73499 11.00000  0.00749   8.27
O008  4  0.04274  0.70118  0.34325 11.00000  0.00277   8.05
O009  4  0.82330  1.16830  0.28195 11.00000  0.00824   7.39
N00A  3  0.84785  1.07945  0.37675 11.00000  0.00010   6.96
N00B  3  0.74676  0.89247  0.49691 11.00000  0.02139   6.88
C00C  1  0.15521  0.31504  0.72114 11.00000  0.00523   5.93
C00D  1  0.69789  0.98443  0.39075 11.00000  0.00804   5.26
C00E  1  0.94624  0.79622  0.66593 11.00000  0.02547   5.18
O00F  4  0.35672  0.75160  0.31879 11.00000  0.01564   5.13
C00G  1  0.11150  0.42546  0.63680 11.00000  0.02913   5.02
C00H  1  0.18144  0.76622  0.29858 11.00000  0.00010   4.34
C00I  1  0.25968  0.60508  0.52743 11.00000  0.00010   3.50
C00J  1  0.06620  0.85001  0.17350 11.00000  0.01140   3.34
HKLF 4
END
