TITL SP14R08_expF_1_1_expS_0_5_SP14R08_a.res in P2(1)/n
REM Old TITL SP14R08 in P2(1)/n
REM SHELXT solution in P2(1)/n: R1 0.273, Rweak 0.032, Alpha 0.080
REM <I/s>   1.549 for  107 systematic absences,  Orientation as input
REM Formula found by SHELXT:  C9 N O

CELL  0.71073   7.0200   9.2700  11.5600   90.000   97.670   90.000
ZERR   16.000   0.0014   0.0019   0.0023    0.000    0.030    0.000
LATT  1
SYMM 1/2-X, 1/2+Y, 1/2-Z
SFAC C H N O
UNIT 16 16 16 16
L.S. 10
BOND
LIST 6
FMAP 2
PLAN 20
N001  3  0.44890  0.44928  0.66069 11.00000  0.04205   6.58
C002  1  0.33834  0.07518  0.27836 11.00000  0.02538   6.35
O003  4  0.14948  0.50394  0.69105 11.00000  0.05806   6.23
C004  1  0.32180  0.51293  0.72079 11.00000  0.02927   6.10
C005  1  0.41266  0.35630  0.56170 11.00000  0.02978   6.02
C006  1  0.21685  0.26213  0.38951 11.00000  0.03399   5.94
C007  1  0.36545  0.17074  0.36922 11.00000  0.03333   5.92
C008  1  0.24152  0.35720  0.48538 11.00000  0.03466   5.74
C009  1  0.53764  0.17065  0.44500 11.00000  0.03627   5.71
C00A  1  0.55864  0.26494  0.54075 11.00000  0.03622   5.55
C00B  1  0.40731  0.60085  0.82354 11.00000  0.03685   5.43
HKLF 4
END
