TITL SP14R08_expF_1_0_expS_1_2_SP14R08_b.res in Pn
REM Old TITL SP14R08 in P2(1)/n
REM SHELXT solution in Pn: R1 0.238, Rweak 0.054, Alpha 0.061
REM <I/s>   1.415 for  101 systematic absences,  Orientation as input
REM Formula found by SHELXT:  C14 N2 O5

CELL  0.71073   7.0200   9.2700  11.5600   90.000   97.670   90.000
ZERR   16.000   0.0014   0.0019   0.0023    0.000    0.030    0.000
LATT -1
SYMM 1/2+X, -Y, 1/2+Z
SFAC C H N O
UNIT 16 16 16 16
L.S. 10
BOND
LIST 6
FMAP 2
PLAN 20
O001  4 -0.03381 -0.07978  0.54750 11.00000  0.01516   8.84
O002  4  0.74067  0.39620  0.47777 11.00000  0.03597   7.73
O003  4  0.65446  0.25363  0.67921 11.00000  0.03993   7.42
O004  4  0.17234 -0.17188  0.71447 11.00000  0.02813   7.38
N005  3  0.04806  0.19408  0.32779 11.00000  0.03231   6.94
N006  3 -0.05949  0.01131  0.44986 11.00000  0.02673   6.79
C007  1  0.92561  0.15379  0.82386 11.00000  0.02590   6.40
C008  1  0.28015  0.01127  0.60021 11.00000  0.02667   6.30
C009  1  0.87856  0.58372  0.36094 11.00000  0.03316   6.06
C00A  1  0.82185  0.23571  0.71296 11.00000  0.02203   5.97
C00B  1  0.91041  0.39373  0.55524 11.00000  0.03241   5.91
C00C  1  0.17733  0.26176  0.27234 11.00000  0.02276   5.79
C00D  1  0.94752  0.29681  0.64998 11.00000  0.01424   5.61
C00E  1  0.08797  0.10873  0.43177 11.00000  0.01760   5.58
C00F  1  0.71957  0.48491  0.38236 11.00000  0.02494   5.41
C00G  1  0.14151 -0.07818  0.62267 11.00000  0.02062   4.96
C00H  1  0.84425  0.67858  0.26772 11.00000  0.02504   4.59
O00I  4  0.35901  0.26406  0.29852 11.00000  0.02820   4.56
C00J  1  0.10695  0.35428  0.17614 11.00000  0.02126   4.43
C00K  1  1.05949  0.48447  0.53081 11.00000  0.03220   3.97
C00L  1  0.25883  0.11051  0.50777 11.00000  0.03386   3.57
HKLF 4
END
