TITL SP14R08_expF_0_7_expS_0_7_SP14R08_b.res in P2(1)
REM Old TITL SP14R08 in P2(1)/n
REM SHELXT solution in P2(1): R1 0.259, Rweak 0.183, Alpha 0.223
REM <I/s>   1.684 for    6 systematic absences,  Orientation as input
REM Formula found by SHELXT:  C13 N4 O5

CELL  0.71073   7.0200   9.2700  11.5600   90.000   97.670   90.000
ZERR   16.000   0.0014   0.0019   0.0023    0.000    0.030    0.000
LATT -1
SYMM -X, 1/2+Y, -Z
SFAC C H N O
UNIT 16 16 16 16
L.S. 10
BOND
LIST 6
FMAP 2
PLAN 20
O001  4  0.79822  0.69800  0.08968 11.00000  0.01300   8.93
N002  3  0.92704  0.76146  0.02839 11.00000  0.00664   8.81
N003  3  0.83932  0.60190  0.18990 11.00000  0.00396   8.21
C004  1  0.87449  0.43385  0.37875 11.00000  0.01033   7.60
N005  3  1.03629  0.50060  0.35701 11.00000  0.02464   7.26
O006  4  0.42254  0.68555  0.97088 11.00000  0.06098   7.26
N007  3  0.34643  0.15063  0.42273 11.00000  0.00595   7.08
O008  4  1.10741  0.76144  0.06583 11.00000  0.01357   6.70
O009  4  0.59225  0.25285  0.55281 11.00000  0.02592   6.52
C00A  1  0.69411  0.41648  0.30411 11.00000  0.00258   5.98
C00B  1  0.68793  0.51725  0.21231 11.00000  0.01149   5.94
C00C  1  0.51037  0.40381  0.76358 11.00000  0.00428   5.62
C00D  1  0.52823  0.47531  0.86541 11.00000  0.00833   5.59
C00E  1  0.22992  0.57335  0.80671 11.00000  0.02640   5.48
C00F  1  1.00145  0.62078  0.26546 11.00000  0.02038   5.35
O00G  4  0.90974  0.33148  0.47307 11.00000  0.00965   5.30
C00H  1  0.19154  0.48769  0.70477 11.00000  0.02016   5.04
C00I  1  0.83726  0.84937 -0.06372 11.00000  0.02516   4.46
C00J  1  0.34004  0.38085  0.68686 11.00000  0.03906   4.28
C00K  1  0.39064  0.59452  0.88140 11.00000  0.00617   3.90
C00L  1  0.43670  0.23014  0.53277 11.00000  0.02820   3.30
C00M  1  0.30543  0.29213  0.59153 11.00000  0.02333   3.28
HKLF 4
END
