TITL SP14R08_expF_1_0_expS_1_1_SP14R08_a.res in P2(1)/n
REM Old TITL SP14R08 in P2(1)/n
REM SHELXT solution in P2(1)/n: R1 0.270, Rweak 0.057, Alpha 0.085
REM <I/s>   1.412 for  107 systematic absences,  Orientation as input
REM Formula found by SHELXT:  C10 O

CELL  0.71073   7.0200   9.2700  11.5600   90.000   97.670   90.000
ZERR   16.000   0.0014   0.0019   0.0023    0.000    0.030    0.000
LATT  1
SYMM 1/2-X, 1/2+Y, 1/2-Z
SFAC C H N O
UNIT 16 16 16 16
L.S. 10
BOND
LIST 6
FMAP 2
PLAN 20
C001  1  0.55073  0.55065  0.33928 11.00000  0.02133   6.47
O002  4  0.85132  0.49419  0.30845 11.00000  0.04005   6.34
C003  1  0.66413  0.92493  0.72185 11.00000  0.02086   6.17
C004  1  0.78217  0.73625  0.60974 11.00000  0.02650   6.12
C005  1  0.67914  0.48732  0.27867 11.00000  0.02479   6.10
C006  1  0.58783  0.64383  0.43819 11.00000  0.02681   6.08
C007  1  0.63276  0.82916  0.62994 11.00000  0.02685   5.81
C008  1  0.46177  0.82924  0.55555 11.00000  0.03067   5.75
C009  1  0.75899  0.64312  0.51449 11.00000  0.02592   5.68
C00A  1  0.43870  0.73586  0.45924 11.00000  0.02911   5.57
C00B  1  0.59192  0.39909  0.17675 11.00000  0.02813   5.51
HKLF 4
END
