TITL SP14R08_expF_1_3_expS_0_7_SP14R08_a.res in P2(1)/n
REM Old TITL SP14R08 in P2(1)/n
REM SHELXT solution in P2(1)/n: R1 0.291, Rweak 0.024, Alpha 0.043
REM <I/s>   1.946 for  107 systematic absences,  Orientation as input
REM Formula found by SHELXT:  C10 O

CELL  0.71073   7.0200   9.2700  11.5600   90.000   97.670   90.000
ZERR   16.000   0.0014   0.0019   0.0023    0.000    0.030    0.000
LATT  1
SYMM 1/2-X, 1/2+Y, 1/2-Z
SFAC C H N O
UNIT 16 16 16 16
L.S. 10
BOND
LIST 6
FMAP 2
PLAN 20
C001  1  0.66032  0.07640  0.72198 11.00000  0.03388   6.46
C002  1  0.55102  0.44831  0.33891 11.00000  0.03752   6.41
C003  1  0.78255  0.26075  0.60985 11.00000  0.04424   6.09
O004  4  0.85273  0.50475  0.30794 11.00000  0.06741   6.04
C005  1  0.67702  0.51372  0.27946 11.00000  0.04301   6.04
C006  1  0.58758  0.35665  0.43856 11.00000  0.03966   6.02
C007  1  0.46226  0.16982  0.55635 11.00000  0.04617   5.92
C008  1  0.63423  0.16887  0.63040 11.00000  0.04107   5.79
C009  1  0.75930  0.35665  0.51399 11.00000  0.04492   5.73
C00A  1  0.44160  0.26537  0.45956 11.00000  0.04623   5.66
C00B  1  0.59463  0.59801  0.17692 11.00000  0.04765   5.36
HKLF 4
END
