TITL SP14R08_expF_0_9_expS_1_4_SP14R08_b.res in Pn
REM Old TITL SP14R08 in P2(1)/n
REM SHELXT solution in Pn: R1 0.227, Rweak 0.069, Alpha 0.060
REM <I/s>   1.451 for  101 systematic absences,  Orientation as input
REM Formula found by SHELXT:  C12 N6 O4

CELL  0.71073   7.0200   9.2700  11.5600   90.000   97.670   90.000
ZERR   16.000   0.0014   0.0019   0.0023    0.000    0.030    0.000
LATT -1
SYMM 1/2+X, -Y, 1/2+Z
SFAC C H N O
UNIT 16 16 16 16
L.S. 10
BOND
LIST 6
FMAP 2
PLAN 20
O001  4  0.82266 -0.16535  0.27686 11.00000  0.01813   8.14
N002  3  0.90850  0.10831  0.56796 11.00000  0.01964   8.08
N003  3  0.11113  0.58166  0.63357 11.00000  0.02131   7.75
N004  3  0.80713  0.26241  0.73286 11.00000  0.02358   7.74
O005  4  0.94466  0.20431  0.66674 11.00000  0.02357   7.66
N006  3  1.02569 -0.07906  0.44949 11.00000  0.02030   6.98
N007  3  1.05910  0.00838  0.54661 11.00000  0.01864   6.86
O008  4  0.33814  0.24515  0.31268 11.00000  0.02941   6.76
N009  3  0.71484  0.01148  0.39835 11.00000  0.02941   6.54
C00A  1  0.25169  0.40154  0.51849 11.00000  0.01611   6.41
C00B  1  0.06551  0.15179  0.17567 11.00000  0.02246   5.83
C00C  1  0.88686  0.35157  0.82433 11.00000  0.01695   5.54
O00D  4  0.63561  0.25980  0.69511 11.00000  0.03361   5.44
C00E  1  0.27606  0.48401  0.61677 11.00000  0.02227   5.39
C00F  1  0.05019  0.30714  0.34714 11.00000  0.02120   5.11
C00G  1 -0.05176  0.57711  0.56018 11.00000  0.04002   4.74
C00H  1  0.73098  0.11417  0.48908 11.00000  0.02641   4.50
C00I  1  0.16711  0.23617  0.29339 11.00000  0.01587   4.05
C00J  1 -0.05910  0.48035  0.46340 11.00000  0.02968   3.76
C00K  1  0.08572  0.39850  0.44588 11.00000  0.03183   3.65
C00L  1  0.15204  0.68736  0.71725 11.00000  0.02050   3.37
C00M  1  0.84390 -0.07823  0.37408 11.00000  0.03620   3.13
HKLF 4
END
