TITL SP14R08_expF_1_5_expS_1_5_SP14R08_c.res in P2(1)
REM Old TITL SP14R08 in P2(1)/n
REM SHELXT solution in P2(1): R1 0.343, Rweak 0.016, Alpha 0.049
REM <I/s>   3.365 for    6 systematic absences,  Orientation as input
REM Formula found by SHELXT:  C18 N2 O2

CELL  0.71073   7.0200   9.2700  11.5600   90.000   97.670   90.000
ZERR   16.000   0.0014   0.0019   0.0023    0.000    0.030    0.000
LATT -1
SYMM -X, 1/2+Y, -Z
SFAC C H N O
UNIT 16 16 16 16
L.S. 10
BOND
LIST 6
FMAP 2
PLAN 20
N001  3  0.66336  0.38636  0.31310 11.00000  0.04547   6.73
N002  3  0.09063  0.32647  0.52797 11.00000  0.04508   6.57
C003  1  0.58584  0.67373  0.02831 11.00000  0.03538   6.34
C004  1  0.70134  0.30201  0.41143 11.00000  0.03872   6.33
C005  1  0.28651  0.41294  0.69566 11.00000  0.05147   6.24
C006  1 -0.03098  0.51138  0.64256 11.00000  0.04438   6.23
C007  1  0.46794  0.48224  0.14174 11.00000  0.05141   6.13
C008  1  0.19522  0.69734  0.90800 11.00000  0.04259   6.04
C009  1 -0.01086  0.60427  0.73591 11.00000  0.04479   6.03
C00A  1  0.79008  0.57214  0.19228 11.00000  0.04688   5.99
C00B  1  0.56991  0.22900  0.46829 11.00000  0.04560   5.90
O00C  4 -0.10759  0.75643  0.94080 11.00000  0.06339   5.86
C00D  1  0.30641  0.50667  0.79188 11.00000  0.04963   5.86
O00E  4  0.39797  0.24486  0.44089 11.00000  0.05499   5.79
C00F  1  0.61857  0.57718  0.11923 11.00000  0.05283   5.78
C00G  1  0.66083  0.15050  0.57322 11.00000  0.05098   5.72
C00H  1  0.81095  0.47538  0.28761 11.00000  0.04831   5.66
C00I  1  0.11614  0.41256  0.62073 11.00000  0.04264   5.54
C00J  1  0.07265  0.75612  0.97113 11.00000  0.04734   5.54
C00K  1  0.49096  0.38853  0.23563 11.00000  0.04885   5.39
C00L  1  0.16147  0.59838  0.81011 11.00000  0.05159   5.32
C00M  1  0.15677  0.84950  1.07326 11.00000  0.05763   4.76
HKLF 4
END
