TITL SP14R08_expF_0_8_expS_1_0_SP14R08_a.res in Pn
REM Old TITL SP14R08 in P2(1)/n
REM SHELXT solution in Pn: R1 0.245, Rweak 0.127, Alpha 0.068
REM <I/s>   1.239 for  101 systematic absences,  Orientation as input
REM Formula found by SHELXT:  C12 N4 O4

CELL  0.71073   7.0200   9.2700  11.5600   90.000   97.670   90.000
ZERR   16.000   0.0014   0.0019   0.0023    0.000    0.030    0.000
LATT -1
SYMM 1/2+X, -Y, 1/2+Z
SFAC C H N O
UNIT 16 16 16 16
L.S. 10
BOND
LIST 6
FMAP 2
PLAN 20
N001  3  0.90680  0.89088  0.56593 11.00000  0.00010  10.74
N002  3  0.12450  0.41918  0.63139 11.00000  0.00010   9.63
O003  4  0.95150  0.79721  0.67237 11.00000  0.02502   9.47
O004  4  0.34660  0.75408  0.31253 11.00000  0.02756   9.28
O005  4  0.69718  0.98896  0.39297 11.00000  0.03687   8.13
N006  3  0.81868  0.74194  0.72911 11.00000  0.01744   7.72
N007  3  0.25719  0.60099  0.51766 11.00000  0.02510   6.81
C008  1  0.82476  1.16687  0.27909 11.00000  0.01661   6.46
C009  1  1.02468  1.07449  0.44460 11.00000  0.02180   6.40
C00A  1  1.05804  0.98955  0.53885 11.00000  0.01471   6.33
C00B  1  0.15797  0.31902  0.72358 11.00000  0.00639   6.29
C00C  1  0.89429  0.64857  0.82329 11.00000  0.01798   6.25
C00D  1  0.07400  0.84858  0.17671 11.00000  0.01902   6.11
C00E  1  0.17617  0.76918  0.28958 11.00000  0.02295   5.41
C00F  1 -0.05804  0.51541  0.45848 11.00000  0.01855   5.09
C00G  1  0.26579  0.51742  0.61271 11.00000  0.01941   5.03
C00H  1 -0.05717  0.41325  0.55295 11.00000  0.03417   4.74
C00I  1  0.73721  0.88583  0.48666 11.00000  0.02138   4.70
O00J  4  0.64272  0.74061  0.69593 11.00000  0.02728   4.52
C00K  1  0.05606  0.69505  0.35043 11.00000  0.01457   3.89
HKLF 4
END
