TITL SP14R08_expF_1_5_expS_1_0_SP14R08_a.res in P2(1)/n
REM Old TITL SP14R08 in P2(1)/n
REM SHELXT solution in P2(1)/n: R1 0.342, Rweak 0.017, Alpha 0.032
REM <I/s>   1.838 for  107 systematic absences,  Orientation as input
REM Formula found by SHELXT:  C9 N O

CELL  0.71073   7.0200   9.2700  11.5600   90.000   97.670   90.000
ZERR   16.000   0.0014   0.0019   0.0023    0.000    0.030    0.000
LATT  1
SYMM 1/2-X, 1/2+Y, 1/2-Z
SFAC C H N O
UNIT 16 16 16 16
L.S. 10
BOND
LIST 6
FMAP 2
PLAN 20
N001  3  0.65888  0.07600  0.72080 11.00000  0.04298   6.58
C002  1  0.55128  0.44647  0.33951 11.00000  0.03837   6.38
C003  1  0.77945  0.26438  0.60678 11.00000  0.04657   6.18
C004  1  0.58710  0.35657  0.43787 11.00000  0.04021   6.03
C005  1  0.46165  0.16976  0.55620 11.00000  0.04682   6.00
O006  4  0.85387  0.50448  0.30898 11.00000  0.06210   5.93
C007  1  0.67708  0.51435  0.27994 11.00000  0.04598   5.92
C008  1  0.63379  0.16694  0.62955 11.00000  0.04441   5.76
C009  1  0.44099  0.26469  0.46106 11.00000  0.04907   5.73
C00A  1  0.75920  0.35872  0.51373 11.00000  0.04524   5.71
C00B  1  0.59058  0.59771  0.17585 11.00000  0.05340   5.29
HKLF 4
END
