TITL SP14R08_expF_0_6_expS_1_4_SP14R08_b.res in P2(1)
REM Old TITL SP14R08 in P2(1)/n
REM SHELXT solution in P2(1): R1 0.277, Rweak 0.286, Alpha 0.194
REM <I/s>   0.419 for    6 systematic absences,  Orientation as input
REM Formula found by SHELXT:  C12 N O7

CELL  0.71073   7.0200   9.2700  11.5600   90.000   97.670   90.000
ZERR   16.000   0.0014   0.0019   0.0023    0.000    0.030    0.000
LATT -1
SYMM -X, 1/2+Y, -Z
SFAC C H N O
UNIT 16 16 16 16
L.S. 10
BOND
LIST 6
FMAP 2
PLAN 20
O001  4  0.33228  0.62980  0.19132 11.00000  0.00010   9.32
O002  4  0.19939  0.80962  0.30680 11.00000  0.00010   8.71
O003  4  0.60368  0.47047  0.06157 11.00000  0.01116   8.25
O004  4  0.30398  0.25583  0.29327 11.00000  0.01055   8.01
O005  4 -0.01348  0.33450  0.23723 11.00000  0.00218   7.66
N006  3  0.37742  0.80292  0.37990 11.00000  0.01036   7.49
O007  4  0.07584  0.06888  0.03024 11.00000  0.00278   6.99
C008  1  0.07604  0.50749  0.47533 11.00000  0.01703   6.40
C009  1  0.30170  0.54185  0.08863 11.00000  0.00010   6.36
C00A  1  0.34938  0.39677 -0.06402 11.00000  0.00010   6.26
C00B  1  0.20277  0.44504  0.41190 11.00000  0.01434   6.22
C00C  1  0.11062  0.15876  0.12299 11.00000  0.00010   6.14
C00D  1  0.44144  0.47284  0.03654 11.00000  0.00010   6.07
C00E  1 -0.02799  0.25509  0.13844 11.00000  0.00870   6.03
C00F  1  0.41683  0.93112  0.46898 11.00000  0.01240   5.61
C00G  1  0.16183  0.60398  0.57391 11.00000  0.01565   5.54
C00H  1  0.53496  0.71241  0.35215 11.00000  0.00735   5.37
C00I  1  0.50702  0.61748  0.25966 11.00000  0.00567   4.53
O00J  4 -0.09923  0.48881  0.43831 11.00000  0.01199   4.38
C00K  1  0.56329  0.40326  0.26604 11.00000  0.05577   3.09
HKLF 4
END
