TITL SP14R08_expF_1_1_expS_1_1_SP14R08_b.res in Pn
REM Old TITL SP14R08 in P2(1)/n
REM SHELXT solution in Pn: R1 0.243, Rweak 0.038, Alpha 0.018
REM <I/s>   1.453 for  101 systematic absences,  Orientation as input
REM Formula found by SHELXT:  C14 N2 O6

CELL  0.71073   7.0200   9.2700  11.5600   90.000   97.670   90.000
ZERR   16.000   0.0014   0.0019   0.0023    0.000    0.030    0.000
LATT -1
SYMM 1/2+X, -Y, 1/2+Z
SFAC C H N O
UNIT 16 16 16 16
L.S. 10
BOND
LIST 6
FMAP 2
PLAN 20
O001  4  0.54101 -0.08168  0.45026 11.00000  0.04456   8.70
O002  4  0.33350 -0.17125  0.28006 11.00000  0.01528   8.63
O003  4  0.85329  0.23925  0.31230 11.00000  0.03635   8.01
N004  3  0.76554  0.39682  0.51693 11.00000  0.03389   7.37
O005  4  0.59124  0.14220  0.17628 11.00000  0.05805   7.32
N006  3  0.22148  0.01268  0.39720 11.00000  0.02956   7.09
C007  1  0.44629  0.20211  0.66249 11.00000  0.02258   6.46
C008  1  0.54782  0.30320  0.34162 11.00000  0.02847   6.42
C009  1  0.32391  0.25609  0.72438 11.00000  0.02889   6.39
C00A  1  0.41923  0.10496  0.56382 11.00000  0.02619   6.26
C00B  1  0.63138  0.58141  0.63301 11.00000  0.02969   6.14
C00C  1  0.55881  0.01326  0.54375 11.00000  0.03320   6.02
C00D  1  0.59225  0.39204  0.43992 11.00000  0.03181   5.71
C00E  1  0.68052  0.22995  0.28420 11.00000  0.02715   5.67
C00F  1  0.78579  0.48542  0.61886 11.00000  0.04272   5.48
C00G  1  0.43962  0.48664  0.46236 11.00000  0.03118   5.44
C00H  1  0.36864 -0.07993  0.37368 11.00000  0.03058   5.24
C00I  1  0.24793  0.11119  0.48851 11.00000  0.03344   4.37
O00J  4  0.14671  0.24695  0.69461 11.00000  0.05094   4.31
O00K  4  0.62800  0.69192  0.72107 11.00000  0.11162   4.09
C00L  1  0.40866  0.34685  0.82372 11.00000  0.03452   3.55
C00M  1  0.46399  0.57685  0.56072 11.00000  0.04293   3.03
HKLF 4
END
