TITL SP14R08_expF_0_9_expS_1_3_SP14R08_a.res in P2(1)/n
REM Old TITL SP14R08 in P2(1)/n
REM SHELXT solution in P2(1)/n: R1 0.277, Rweak 0.083, Alpha 0.161
REM <I/s>   1.390 for  107 systematic absences,  Orientation as input
REM Formula found by SHELXT:  C9 N O

CELL  0.71073   7.0200   9.2700  11.5600   90.000   97.670   90.000
ZERR   16.000   0.0014   0.0019   0.0023    0.000    0.030    0.000
LATT  1
SYMM 1/2-X, 1/2+Y, 1/2-Z
SFAC C H N O
UNIT 16 16 16 16
L.S. 10
BOND
LIST 6
FMAP 2
PLAN 20
N001  3  0.55198  0.55063  0.33888 11.00000  0.02379   6.54
C002  1  0.67953  0.48744  0.27904 11.00000  0.01946   6.36
O003  4  0.84981  0.49259  0.30878 11.00000  0.03029   6.14
C004  1  0.63176  0.82852  0.62970 11.00000  0.02256   6.03
C005  1  0.66630  0.92563  0.72167 11.00000  0.01487   5.98
C006  1  0.58865  0.64377  0.43824 11.00000  0.02349   5.91
C007  1  0.78106  0.73544  0.60975 11.00000  0.01965   5.90
C008  1  0.76005  0.64326  0.51450 11.00000  0.02081   5.64
C009  1  0.43839  0.73635  0.45915 11.00000  0.02335   5.62
C00A  1  0.59152  0.39885  0.17643 11.00000  0.02071   5.58
C00B  1  0.46077  0.82853  0.55542 11.00000  0.02364   5.52
HKLF 4
END
