TITL SP14R08_expF_1_0_expS_0_5_SP14R08_b.res in Pn
REM Old TITL SP14R08 in P2(1)/n
REM SHELXT solution in Pn: R1 0.233, Rweak 0.044, Alpha 0.036
REM <I/s>   1.223 for  101 systematic absences,  Orientation as input
REM Formula found by SHELXT:  C11 N4 O7

CELL  0.71073   7.0200   9.2700  11.5600   90.000   97.670   90.000
ZERR   16.000   0.0014   0.0019   0.0023    0.000    0.030    0.000
LATT -1
SYMM 1/2+X, -Y, 1/2+Z
SFAC C H N O
UNIT 16 16 16 16
L.S. 10
BOND
LIST 6
FMAP 2
PLAN 20
N001  3  0.90979  0.89261  0.56306 11.00000  0.02300   9.68
C002  1  0.81537  0.74568  0.72345 11.00000  0.02862   9.51
O003  4  0.04422  0.70222  0.34285 11.00000  0.04035   9.47
O004  4  0.71502  0.98886  0.39465 11.00000  0.02665   9.33
O005  4  0.24372  0.61220  0.51132 11.00000  0.04511   8.67
O006  4  1.02416  1.08302  0.45099 11.00000  0.03286   8.49
O007  4  0.82845  1.17012  0.27678 11.00000  0.02491   8.48
N008  3  0.11934  0.41534  0.62854 11.00000  0.02910   7.77
O009  4  0.64051  0.74612  0.69440 11.00000  0.06153   7.75
N00A  3  1.05853  0.98306  0.54486 11.00000  0.03362   7.19
N00B  3  0.89435  0.64678  0.82281 11.00000  0.03689   6.90
O00C  4  0.34433  0.75658  0.31347 11.00000  0.02362   6.55
C00D  1  0.15289  0.32038  0.71982 11.00000  0.03217   6.30
C00E  1  0.07956  0.84687  0.17719 11.00000  0.03088   6.22
C00F  1 -0.05853  0.51261  0.46217 11.00000  0.03261   6.21
C00G  1 -0.05841  0.42462  0.56806 11.00000  0.05019   5.61
C00H  1  0.94005  0.80198  0.66304 11.00000  0.01942   5.60
C00I  1  0.85229  1.07518  0.36554 11.00000  0.03007   5.58
C00J  1  0.29271  0.51810  0.61876 11.00000  0.05561   4.94
C00K  1  0.17058  0.77067  0.28330 11.00000  0.01895   4.78
C00L  1  0.08921  0.60587  0.44163 11.00000  0.03337   3.98
C00M  1  0.72484  0.89755  0.48161 11.00000  0.02777   3.98
HKLF 4
END
