TITL SP14R08_expF_0_9_expS_1_2_SP14R08_a.res in Pn
REM Old TITL SP14R08 in P2(1)/n
REM SHELXT solution in Pn: R1 0.242, Rweak 0.073, Alpha 0.041
REM <I/s>   1.362 for  101 systematic absences,  Orientation as input
REM Formula found by SHELXT:  C12 N6 O3

CELL  0.71073   7.0200   9.2700  11.5600   90.000   97.670   90.000
ZERR   16.000   0.0014   0.0019   0.0023    0.000    0.030    0.000
LATT -1
SYMM 1/2+X, -Y, 1/2+Z
SFAC C H N O
UNIT 16 16 16 16
L.S. 10
BOND
LIST 6
FMAP 2
PLAN 20
N001  3  0.67886  0.26368  0.28410 11.00000  0.00235  10.27
O002  4  0.46666 -0.08113  0.55550 11.00000  0.04540   7.54
N003  3  0.58251  0.10094  0.43967 11.00000  0.03439   7.31
N004  3  0.36634  0.58171  0.37798 11.00000  0.02545   7.30
O005  4  0.66683 -0.17126  0.72568 11.00000  0.03807   6.95
N006  3  0.45309  0.29976  0.66356 11.00000  0.01947   6.93
N007  3  0.23267  0.39113  0.48703 11.00000  0.02065   6.91
N008  3  0.41251  0.15358  0.82343 11.00000  0.02117   6.56
C009  1  0.43507  0.02199  0.46107 11.00000  0.03619   6.37
O00A  4  0.85139  0.25479  0.31441 11.00000  0.03046   6.27
C00B  1  0.78108  0.01858  0.61047 11.00000  0.01350   6.22
C00C  1  0.22295  0.49303  0.38933 11.00000  0.03169   5.88
C00D  1  0.56051  0.19919  0.34393 11.00000  0.02474   5.71
C00E  1  0.14861  0.23955  0.69611 11.00000  0.02000   5.59
C00F  1  0.33992  0.67618  0.28091 11.00000  0.01564   4.59
C00G  1  0.59275  0.36187  0.17657 11.00000  0.03871   4.45
C00H  1  0.55672  0.49181  0.54329 11.00000  0.01576   4.45
C00I  1  0.74580  0.10372  0.51669 11.00000  0.03406   4.26
C00J  1  0.40889  0.38842  0.56412 11.00000  0.02125   4.21
C00K  1  0.54239  0.57555  0.44464 11.00000  0.03188   4.08
C00L  1  0.62882 -0.07925  0.64047 11.00000  0.02535   3.54
HKLF 4
END
