TITL SP14R08_expF_0_9_expS_0_6_SP14R08_b.res in Pn
REM Old TITL SP14R08 in P2(1)/n
REM SHELXT solution in Pn: R1 0.240, Rweak 0.071, Alpha 0.049
REM <I/s>   1.163 for  101 systematic absences,  Orientation as input
REM Formula found by SHELXT:  C14 N2 O5

CELL  0.71073   7.0200   9.2700  11.5600   90.000   97.670   90.000
ZERR   16.000   0.0014   0.0019   0.0023    0.000    0.030    0.000
LATT -1
SYMM 1/2+X, -Y, 1/2+Z
SFAC C H N O
UNIT 16 16 16 16
L.S. 10
BOND
LIST 6
FMAP 2
PLAN 20
O001  4  0.45614  0.20158  0.66105 11.00000  0.00779   9.19
O002  4  0.25648  0.10333  0.48539 11.00000  0.02906   7.57
N003  3  0.47336  0.58206  0.55547 11.00000  0.02751   7.08
N004  3  0.22480  0.01472  0.39260 11.00000  0.02484   6.79
C005  1  0.41478  0.35056  0.82287 11.00000  0.02759   6.40
C006  1  0.56713  0.01464  0.53897 11.00000  0.01737   6.33
O007  4  0.85441  0.24035  0.30805 11.00000  0.02550   6.32
C008  1  0.68382  0.23567  0.28366 11.00000  0.01910   6.11
C009  1  0.67000  0.67880  0.71709 11.00000  0.02824   6.09
C00A  1  0.41623  0.09914  0.56710 11.00000  0.01834   5.84
O00B  4  0.14559  0.24717  0.68921 11.00000  0.04976   5.51
C00C  1  0.63766  0.57451  0.63181 11.00000  0.02405   5.48
C00D  1  0.32644  0.26342  0.72428 11.00000  0.02342   5.24
C00E  1  0.37101 -0.08347  0.37134 11.00000  0.02096   5.12
O00F  4  0.34523 -0.16957  0.27584 11.00000  0.02828   4.75
C00G  1  0.59097  0.38579  0.44482 11.00000  0.02302   4.49
C00H  1  0.79235  0.48819  0.61308 11.00000  0.03596   4.27
C00I  1  0.59993  0.15016  0.17713 11.00000  0.02699   3.70
C00J  1  0.44731  0.48804  0.45601 11.00000  0.03835   3.57
C00K  1  0.55998 -0.07414  0.44495 11.00000  0.04101   3.11
C00L  1  0.77906  0.38810  0.51561 11.00000  0.04044   3.10
HKLF 4
END
