TITL SP14R08_expF_1_0_expS_1_2_SP14R08_c.res in P2(1)
REM Old TITL SP14R08 in P2(1)/n
REM SHELXT solution in P2(1): R1 0.249, Rweak 0.057, Alpha 0.102
REM <I/s>   1.716 for    6 systematic absences,  Orientation as input
REM Formula found by SHELXT:  C16 N O5

CELL  0.71073   7.0200   9.2700  11.5600   90.000   97.670   90.000
ZERR   16.000   0.0014   0.0019   0.0023    0.000    0.030    0.000
LATT -1
SYMM -X, 1/2+Y, -Z
SFAC C H N O
UNIT 16 16 16 16
L.S. 10
BOND
LIST 6
FMAP 2
PLAN 20
O001  4  0.09013  0.68053  0.52789 11.00000  0.03389   8.75
O002  4 -0.03398  0.48391  0.64537 11.00000  0.05263   7.62
O003  4  0.39386  0.75357  0.43486 11.00000  0.03767   7.26
N004  3  0.20321  0.29275  0.91072 11.00000  0.02435   6.92
C005  1  0.07238  0.22644  0.96765 11.00000  0.02311   6.75
C006  1  0.69343  0.69161  0.40965 11.00000  0.02030   6.44
C007  1  0.81312  0.49705  0.29237 11.00000  0.01931   6.41
C008  1  0.67119  0.60119  0.31182 11.00000  0.02101   6.39
C009  1  0.61534  0.40714  0.12142 11.00000  0.02445   6.37
C00A  1  0.66307  0.85353  0.56959 11.00000  0.03645   6.31
C00B  1 -0.01007  0.38690  0.73651 11.00000  0.02086   6.24
C00C  1  0.57124  0.75064  0.47319 11.00000  0.02343   6.17
C00D  1  0.29362  0.56819  0.69939 11.00000  0.03463   5.91
C00E  1  0.15238  0.38946  0.81127 11.00000  0.02554   5.90
C00F  1  0.78650  0.41010  0.19155 11.00000  0.02379   5.80
O00G  4 -0.09916  0.24075  0.94667 11.00000  0.03150   5.26
C00H  1  0.11879  0.56822  0.61790 11.00000  0.02459   5.02
C00I  1  0.49218  0.60047  0.23368 11.00000  0.02860   5.01
C00J  1  0.30642  0.46780  0.78789 11.00000  0.02957   4.97
C00K  1  0.15157  0.14647  1.07534 11.00000  0.01907   4.90
C00L  1  0.47117  0.51172  0.13705 11.00000  0.01991   4.86
O00M  4  0.58377  0.33128  0.02824 11.00000  0.03660   3.77
HKLF 4
END
