TITL SP14R08_expF_1_0_expS_0_8_SP14R08_a.res in P2(1)/n
REM Old TITL SP14R08 in P2(1)/n
REM SHELXT solution in P2(1)/n: R1 0.268, Rweak 0.062, Alpha 0.123
REM <I/s>   1.399 for  107 systematic absences,  Orientation as input
REM Formula found by SHELXT:  C9 N O

CELL  0.71073   7.0200   9.2700  11.5600   90.000   97.670   90.000
ZERR   16.000   0.0014   0.0019   0.0023    0.000    0.030    0.000
LATT  1
SYMM 1/2-X, 1/2+Y, 1/2-Z
SFAC C H N O
UNIT 16 16 16 16
L.S. 10
BOND
LIST 6
FMAP 2
PLAN 20
N001  3  0.55058  0.44945  0.33891 11.00000  0.03165   6.56
O002  4  0.85057  0.50592  0.30862 11.00000  0.04335   6.28
C003  1  0.66352  0.07447  0.72194 11.00000  0.02012   6.25
C004  1  0.67884  0.51182  0.27895 11.00000  0.02353   6.21
C005  1  0.58790  0.35696  0.43847 11.00000  0.02530   6.00
C006  1  0.63354  0.17097  0.63042 11.00000  0.02702   5.96
C007  1  0.78273  0.26344  0.60998 11.00000  0.02727   5.92
C008  1  0.75856  0.35683  0.51470 11.00000  0.02667   5.75
C009  1  0.46143  0.17087  0.55529 11.00000  0.03115   5.60
C00A  1  0.59248  0.60084  0.17673 11.00000  0.02876   5.44
C00B  1  0.43946  0.26484  0.45915 11.00000  0.02915   5.42
HKLF 4
END
