TITL SP14R08_expF_0_8_expS_1_5_SP14R08_a.res in Pn
REM Old TITL SP14R08 in P2(1)/n
REM SHELXT solution in Pn: R1 0.264, Rweak 0.133, Alpha 0.060
REM <I/s>   1.467 for  101 systematic absences,  Orientation as input
REM Formula found by SHELXT:  C10 N6 O4

CELL  0.71073   7.0200   9.2700  11.5600   90.000   97.670   90.000
ZERR   16.000   0.0014   0.0019   0.0023    0.000    0.030    0.000
LATT -1
SYMM 1/2+X, -Y, 1/2+Z
SFAC C H N O
UNIT 16 16 16 16
L.S. 10
BOND
LIST 6
FMAP 2
PLAN 20
C001  1  0.63407 -0.07827  0.62496 11.00000  0.00010  10.95
C002  1  0.32598  0.23340  0.71752 11.00000  0.00010  10.44
O003  4  0.54685  0.19855  0.33329 11.00000  0.02192   8.72
O004  4  0.77523  0.10862  0.50795 11.00000  0.02743   8.38
N005  3  0.42640  0.39357  0.56068 11.00000  0.03344   8.01
N006  3  0.77973  0.01207  0.60287 11.00000  0.02749   7.29
N007  3  0.59021  0.34897  0.17462 11.00000  0.01118   7.12
O008  4  0.66852 -0.16636  0.72330 11.00000  0.02589   6.94
N009  3  0.44372  0.00084  0.45404 11.00000  0.01568   6.88
N00A  3  0.54511  0.57085  0.44073 11.00000  0.02132   6.76
N00B  3  0.84825  0.26365  0.30542 11.00000  0.02671   6.71
O00C  4  0.15175  0.24712  0.68612 11.00000  0.01463   6.70
C00D  1  0.33336  0.68051  0.27908 11.00000  0.01532   6.06
C00E  1  0.22097  0.48420  0.38359 11.00000  0.01132   5.52
C00F  1  0.56433  0.47068  0.53696 11.00000  0.03417   5.25
C00G  1  0.44174  0.29781  0.65153 11.00000  0.02126   4.72
C00H  1  0.47635 -0.08425  0.54828 11.00000  0.02764   4.66
C00I  1  0.40649  0.14541  0.82538 11.00000  0.04636   4.59
C00J  1  0.25565  0.39778  0.47990 11.00000  0.02575   4.16
C00K  1  0.59472  0.10727  0.43521 11.00000  0.02170   4.03
HKLF 4
END
