TITL SP14R08_expF_0_8_expS_1_2_SP14R08_c.res in P2(1)
REM Old TITL SP14R08 in P2(1)/n
REM SHELXT solution in P2(1): R1 0.264, Rweak 0.122, Alpha 0.176
REM <I/s>   0.986 for    6 systematic absences,  Orientation as input
REM Formula found by SHELXT:  C14 N2 O4

CELL  0.71073   7.0200   9.2700  11.5600   90.000   97.670   90.000
ZERR   16.000   0.0014   0.0019   0.0023    0.000    0.030    0.000
LATT -1
SYMM -X, 1/2+Y, -Z
SFAC C H N O
UNIT 16 16 16 16
L.S. 10
BOND
LIST 6
FMAP 2
PLAN 20
O001  4  1.00848  0.39045  0.26374 11.00000  0.00478   8.00
N002  3  0.20760  0.42135  0.80442 11.00000  0.00381   7.24
C003  1  0.43496  0.76441  0.53169 11.00000  0.00955   6.68
N004  3  0.32987  0.60339  0.69036 11.00000  0.01090   6.64
O005  4  0.60166  0.75931  0.56073 11.00000  0.02261   6.47
C006  1  0.80076  0.30088  0.08468 11.00000  0.01106   6.16
O007  4  1.10040  0.24554  0.05750 11.00000  0.02144   5.99
O008  4  0.91260  0.66534  0.47873 11.00000  0.02279   5.71
C009  1  0.38037  0.41763  0.87866 11.00000  0.00953   5.66
C00A  1  0.53372  0.51096  0.86045 11.00000  0.01114   5.66
C00B  1  0.30084  0.70356  0.59237 11.00000  0.00954   5.60
C00C  1  0.34546  0.85346  0.43067 11.00000  0.00946   5.56
C00D  1  0.41583  0.31325  0.96704 11.00000  0.00679   5.43
C00E  1  0.88126  0.57367  0.37996 11.00000  0.02032   5.42
C00F  1  1.03125  0.47882  0.35869 11.00000  0.02280   5.21
C00G  1  0.18959  0.51329  0.71002 11.00000  0.01314   5.18
C00H  1  0.68762  0.48757  0.20529 11.00000  0.01886   5.00
C00I  1  0.84227  0.14654 -0.07793 11.00000  0.01654   4.79
C00J  1  0.85285  0.38429  0.18669 11.00000  0.02707   4.19
C00K  1  0.92124  0.23896  0.02509 11.00000  0.01730   3.74
HKLF 4
END
