TITL SP14R08_expF_0_7_expS_0_6_SP14R08_b.res in P2(1)
REM Old TITL SP14R08 in P2(1)/n
REM SHELXT solution in P2(1): R1 0.255, Rweak 0.176, Alpha 0.214
REM <I/s>   1.979 for    6 systematic absences,  Orientation as input
REM Formula found by SHELXT:  C14 N3 O5

CELL  0.71073   7.0200   9.2700  11.5600   90.000   97.670   90.000
ZERR   16.000   0.0014   0.0019   0.0023    0.000    0.030    0.000
LATT -1
SYMM -X, 1/2+Y, -Z
SFAC C H N O
UNIT 16 16 16 16
L.S. 10
BOND
LIST 6
FMAP 2
PLAN 20
O001  4  0.41475  0.67487  0.97488 11.00000  0.00010   9.61
O002  4  0.19167  0.48797  0.71042 11.00000  0.03144   7.82
O003  4  0.53765  0.50320  0.85774 11.00000  0.02942   7.52
N004  3  1.00139  0.61993  0.26477 11.00000  0.03017   7.50
O005  4  0.59913  0.26035  0.55621 11.00000  0.01724   7.36
N006  3  0.69486  0.42628  0.30056 11.00000  0.01187   7.16
N007  3  0.29749  0.30611  0.59018 11.00000  0.01729   7.00
C008  1  0.38191  0.59090  0.88149 11.00000  0.02516   6.60
C009  1  0.83180  0.61330  0.19455 11.00000  0.00010   6.43
O00A  4  1.10052  0.77127  0.05958 11.00000  0.02809   6.31
C00B  1  0.93298  0.75945  0.02793 11.00000  0.01472   6.24
C00C  1  0.80662  0.70638  0.08753 11.00000  0.01373   6.09
C00D  1  0.84525  0.85101 -0.07335 11.00000  0.00847   6.01
C00E  1  0.42371  0.23195  0.53111 11.00000  0.01133   5.99
C00F  1  0.34913  0.39877  0.67755 11.00000  0.02441   5.67
C00G  1  0.34408  0.14899  0.42614 11.00000  0.01957   5.64
C00H  1  1.03015  0.53072  0.36547 11.00000  0.02038   5.60
C00I  1  0.88647  0.42982  0.37878 11.00000  0.00667   5.30
C00J  1  0.23377  0.58842  0.81262 11.00000  0.03161   4.52
C00K  1  0.51481  0.40331  0.76683 11.00000  0.00959   3.80
C00L  1  0.68623  0.51499  0.20808 11.00000  0.01787   3.74
C00M  1  0.91673  0.30247  0.45942 11.00000  0.06792   3.43
HKLF 4
END
