TITL SP14R08_expF_0_8_expS_1_3_SP14R08_a.res in Pn
REM Old TITL SP14R08 in P2(1)/n
REM SHELXT solution in Pn: R1 0.243, Rweak 0.120, Alpha 0.055
REM <I/s>   1.367 for  101 systematic absences,  Orientation as input
REM Formula found by SHELXT:  C8 N3 O9

CELL  0.71073   7.0200   9.2700  11.5600   90.000   97.670   90.000
ZERR   16.000   0.0014   0.0019   0.0023    0.000    0.030    0.000
LATT -1
SYMM 1/2+X, -Y, 1/2+Z
SFAC C H N O
UNIT 16 16 16 16
L.S. 10
BOND
LIST 6
FMAP 2
PLAN 20
O001  4  0.83219  0.32798  0.28425 11.00000  0.00010  10.73
O002  4  0.35577  0.73939  0.31727 11.00000  0.01085  10.10
N003  3  0.91686  0.60448  0.56748 11.00000  0.00010   9.85
O004  4  0.05368  0.80257  0.34889 11.00000  0.01489   9.16
O005  4  0.72505  0.51739  0.40170 11.00000  0.03119   8.97
C006  1  0.81657  0.75831  0.72680 11.00000  0.01586   8.19
O007  4  0.74548  0.60806  0.49376 11.00000  0.02654   7.84
O008  4 -0.06152  0.98533  0.46610 11.00000  0.02395   7.66
O009  4  0.09064  0.64019  0.17703 11.00000  0.02302   7.46
N00A  3  1.03901  0.42708  0.44840 11.00000  0.00532   7.39
N00B  3  0.12143  1.08394  0.64074 11.00000  0.02445   6.75
C00C  1  0.95419  0.70038  0.67109 11.00000  0.02258   5.45
C00D  1  0.86249  0.42401  0.37942 11.00000  0.00857   5.37
C00E  1 -0.03831  1.09143  0.55508 11.00000  0.03332   5.31
C00F  1  0.28834  0.98928  0.61807 11.00000  0.00791   5.20
C00G  1  0.90703  0.84389  0.82297 11.00000  0.01628   5.16
C00H  1  0.17606  0.73336  0.28653 11.00000  0.00505   4.96
C00I  1  1.06152  0.50660  0.55083 11.00000  0.02122   4.51
O00J  4  0.26920  0.89683  0.52505 11.00000  0.03354   4.48
O00K  4  0.65733  0.75153  0.69755 11.00000  0.03074   3.75
HKLF 4
END
