TITL SP14R08_expF_1_2_expS_1_0_SP14R08_b.res in Pn
REM Old TITL SP14R08 in P2(1)/n
REM SHELXT solution in Pn: R1 0.252, Rweak 0.029, Alpha 0.016
REM <I/s>   1.526 for  101 systematic absences,  Orientation as input
REM Formula found by SHELXT:  C11 N4 O7

CELL  0.71073   7.0200   9.2700  11.5600   90.000   97.670   90.000
ZERR   16.000   0.0014   0.0019   0.0023    0.000    0.030    0.000
LATT -1
SYMM 1/2+X, -Y, 1/2+Z
SFAC C H N O
UNIT 16 16 16 16
L.S. 10
BOND
LIST 6
FMAP 2
PLAN 20
O001  4  0.22425  0.60474  0.48263 11.00000  0.04912   9.75
O002  4  0.44758  0.69721  0.66291 11.00000  0.04833   8.88
O003  4  0.45771  1.07112  0.56356 11.00000  0.05265   8.59
N004  3  0.35773  0.41955  0.36718 11.00000  0.04250   7.96
O005  4  0.66141  1.17185  0.72314 11.00000  0.04022   7.78
O006  4  0.21909  0.51265  0.39367 11.00000  0.05533   7.62
N007  3  0.58381  0.89264  0.44133 11.00000  0.03398   7.37
N008  3  0.55273  0.51502  0.54342 11.00000  0.04645   7.35
O009  4  0.14851  0.75893  0.69260 11.00000  0.05119   7.31
C00A  1  0.66832  0.72909  0.28185 11.00000  0.02984   7.28
N00B  3  0.39885  0.85207  0.82377 11.00000  0.03724   6.92
O00C  4  0.85149  0.74654  0.31003 11.00000  0.04307   6.47
C00D  1  0.33680  0.32514  0.27910 11.00000  0.02843   6.40
C00E  1  0.78392  0.98689  0.61324 11.00000  0.03014   5.98
C00F  1  0.31235  0.75389  0.72173 11.00000  0.02932   5.85
C00G  1  0.41115  0.60381  0.56477 11.00000  0.03613   5.58
C00H  1  0.55116  0.80109  0.34292 11.00000  0.02380   5.42
C00I  1  0.58069  0.65445  0.17623 11.00000  0.04746   5.27
C00J  1  0.62577  1.08315  0.62864 11.00000  0.02941   5.20
C00K  1  0.43785  0.98646  0.46211 11.00000  0.03223   5.00
C00L  1  0.53356  0.41201  0.45230 11.00000  0.03583   4.57
C00M  1  0.74372  0.89422  0.51077 11.00000  0.03048   3.11
HKLF 4
END
