TITL SP14R08_expF_0_5_expS_0_9_SP14R08_a.res in Pn
REM Old TITL SP14R08 in P2(1)/n
REM SHELXT solution in Pn: R1 0.279, Rweak 0.379, Alpha 0.243
REM <I/s>   1.169 for   97 systematic absences,  Orientation as input
REM Formula found by SHELXT:  C9 N3 O7

CELL  0.71073   7.0200   9.2700  11.5600   90.000   97.670   90.000
ZERR   16.000   0.0014   0.0019   0.0023    0.000    0.030    0.000
LATT -1
SYMM 1/2+X, -Y, 1/2+Z
SFAC C H N O
UNIT 16 16 16 16
L.S. 10
BOND
LIST 6
FMAP 2
PLAN 20
O001  4  0.80748  0.24203  0.31071 11.00000  0.00010  11.14
O002  4  0.50098  0.92321  0.44619 11.00000  0.00010   9.83
O003  4  0.29414  0.82474  0.27638 11.00000  0.00010   9.69
N004  3  0.37172  1.10886  0.56172 11.00000  0.00234   7.85
O005  4  0.55456  0.14698  0.17448 11.00000  0.01483   7.64
N006  3  0.40579  1.20171  0.65948 11.00000  0.00107   7.31
O007  4  0.73203  0.40540  0.51909 11.00000  0.04246   7.23
N008  3  0.19252  1.01939  0.40313 11.00000  0.00798   6.83
C009  1  0.74577  0.48651  0.62068 11.00000  0.00010   6.45
C00A  1  0.64342  0.21812  0.28405 11.00000  0.00010   5.95
C00B  1  0.30681  0.93583  0.37518 11.00000  0.01610   5.85
C00C  1  0.40044  0.49466  0.45805 11.00000  0.00010   5.77
C00D  1  0.52830  1.00990  0.54865 11.00000  0.01805   5.48
C00E  1  0.50045  0.29802  0.33587 11.00000  0.01575   5.39
C00F  1  0.58231  0.58586  0.64614 11.00000  0.00010   5.13
C00G  1  0.27147  1.25205  0.72033 11.00000  0.00010   4.79
O00H  4  0.36916  1.34581  0.82552 11.00000  0.04424   4.47
C00I  1  0.20831  1.11015  0.48610 11.00000  0.00325   4.15
O00J  4  0.58925  0.70912  0.63190 11.00000  0.21054   3.25
HKLF 4
END
