TITL SP14R08_expF_0_9_expS_0_8_SP14R08_b.res in P2(1)
REM Old TITL SP14R08 in P2(1)/n
REM SHELXT solution in P2(1): R1 0.242, Rweak 0.080, Alpha 0.152
REM <I/s>   2.489 for    6 systematic absences,  Orientation as input
REM Formula found by SHELXT:  C14 N4 O4

CELL  0.71073   7.0200   9.2700  11.5600   90.000   97.670   90.000
ZERR   16.000   0.0014   0.0019   0.0023    0.000    0.030    0.000
LATT -1
SYMM -X, 1/2+Y, -Z
SFAC C H N O
UNIT 16 16 16 16
L.S. 10
BOND
LIST 6
FMAP 2
PLAN 20
O001  4  0.69989  0.69754  0.41167 11.00000  0.03846   8.16
O002  4  0.08476  0.68475  0.53090 11.00000  0.02778   7.63
O003  4  0.39393  0.75681  0.43898 11.00000  0.02764   7.54
N004  3  0.65924  0.62054  0.30976 11.00000  0.01897   7.10
N005  3  0.30761  0.49561  0.79351 11.00000  0.02836   7.07
N006  3 -0.03501  0.48805  0.63534 11.00000  0.02891   7.01
N007  3  0.27875  0.59071  0.69623 11.00000  0.02419   6.95
C008  1  0.60558  0.41658  0.11909 11.00000  0.02244   6.40
C009  1  0.56987  0.76634  0.47388 11.00000  0.02412   6.33
C00A  1  0.66544  0.85069  0.57758 11.00000  0.02291   5.91
C00B  1 -0.00402  0.38814  0.73525 11.00000  0.02703   5.85
C00C  1  0.07129  0.24186  0.96778 11.00000  0.01915   5.76
C00D  1  0.48702  0.60257  0.23508 11.00000  0.01467   5.57
C00E  1  0.14948  0.14931  1.06853 11.00000  0.02252   5.54
C00F  1  0.12544  0.57788  0.62051 11.00000  0.01823   5.38
C00G  1  0.16594  0.41049  0.81527 11.00000  0.02822   5.18
O00H  4 -0.09442  0.24550  0.94401 11.00000  0.04339   5.07
C00I  1  0.47002  0.51462  0.14242 11.00000  0.02666   4.93
C00J  1  0.58862  0.33788  0.02357 11.00000  0.02331   4.80
C00K  1  0.19634  0.29827  0.90890 11.00000  0.01457   4.78
C00L  1  0.80293  0.43721  0.19288 11.00000  0.03189   4.37
C00M  1  0.81223  0.52848  0.28672 11.00000  0.02973   4.31
HKLF 4
END
