TITL SP14R08_expF_0_6_expS_0_8_SP14R08_b.res in P2(1)
REM Old TITL SP14R08 in P2(1)/n
REM SHELXT solution in P2(1): R1 0.263, Rweak 0.269, Alpha 0.276
REM <I/s>   1.094 for    6 systematic absences,  Orientation as input
REM Formula found by SHELXT:  C12 N6 O4

CELL  0.71073   7.0200   9.2700  11.5600   90.000   97.670   90.000
ZERR   16.000   0.0014   0.0019   0.0023    0.000    0.030    0.000
LATT -1
SYMM -X, 1/2+Y, -Z
SFAC C H N O
UNIT 16 16 16 16
L.S. 10
BOND
LIST 6
FMAP 2
PLAN 20
O001  4  0.68668  0.70869  0.41217 11.00000  0.01785   9.47
O002  4 -0.09693  0.24462  0.94205 11.00000  0.01532   8.85
N003  3  0.16770  0.38702  0.81043 11.00000  0.00010   8.43
N004  3  0.56896  0.76315  0.47475 11.00000  0.00719   8.07
O005  4  0.81383  0.49491  0.29422 11.00000  0.02033   7.78
N006  3  0.12327  0.58186  0.61763 11.00000  0.01776   7.54
O007  4  0.58619  0.31802  0.03284 11.00000  0.00955   7.22
N008  3  0.29317  0.57263  0.69321 11.00000  0.00010   6.91
N009  3  0.47286  0.52281  0.13598 11.00000  0.01994   6.79
N00A  3  0.64993  0.85089  0.56021 11.00000  0.02495   6.51
C00B  1  0.15272  0.14911  1.08005 11.00000  0.00010   6.20
C00C  1 -0.00933  0.39432  0.73688 11.00000  0.01081   6.19
C00D  1  0.48744  0.60794  0.23301 11.00000  0.00628   6.17
C00E  1  0.20631  0.30938  0.90753 11.00000  0.00010   6.09
C00F  1  0.77411  0.40000  0.20231 11.00000  0.06683   5.88
C00G  1 -0.03186  0.49126  0.64342 11.00000  0.01476   5.74
C00H  1  0.39064  0.75624  0.43930 11.00000  0.00273   5.50
C00I  1  0.07072  0.66434  0.51701 11.00000  0.02024   5.43
C00J  1  0.61127  0.42267  0.12132 11.00000  0.00953   5.23
C00K  1  0.31070  0.46385  0.78902 11.00000  0.00628   5.00
C00L  1  0.62503  0.58960  0.31648 11.00000  0.04569   4.92
C00M  1  0.07198  0.23267  0.96324 11.00000  0.01184   4.08
HKLF 4
END
