TITL SP14R08_expF_1_4_expS_1_4_SP14R08_a.res in P2(1)/n
REM Old TITL SP14R08 in P2(1)/n
REM SHELXT solution in P2(1)/n: R1 0.327, Rweak 0.019, Alpha 0.044
REM <I/s>   1.590 for  107 systematic absences,  Orientation as input
REM Formula found by SHELXT:  C10 O

CELL  0.71073   7.0200   9.2700  11.5600   90.000   97.670   90.000
ZERR   16.000   0.0014   0.0019   0.0023    0.000    0.030    0.000
LATT  1
SYMM 1/2-X, 1/2+Y, 1/2-Z
SFAC C H N O
UNIT 16 16 16 16
L.S. 10
BOND
LIST 6
FMAP 2
PLAN 20
C001  1  0.66142  0.07540  0.72241 11.00000  0.03307   6.43
C002  1  0.55240  0.44875  0.34042 11.00000  0.03795   6.31
C003  1  0.78296  0.26195  0.60906 11.00000  0.04199   6.25
C004  1  0.46445  0.16927  0.55644 11.00000  0.04585   6.10
C005  1  0.58935  0.35549  0.43865 11.00000  0.04044   6.08
O006  4  0.85131  0.50573  0.30936 11.00000  0.05797   6.02
C007  1  0.67977  0.51317  0.27932 11.00000  0.04203   5.82
C008  1  0.44122  0.26570  0.45996 11.00000  0.04729   5.78
C009  1  0.63236  0.16906  0.62958 11.00000  0.04251   5.67
C00A  1  0.76041  0.35711  0.51413 11.00000  0.04174   5.65
C00B  1  0.58927  0.59921  0.17684 11.00000  0.04972   5.40
HKLF 4
END
