TITL SP14R08_expF_0_6_expS_1_0_SP14R08_a.res in Pn
REM Old TITL SP14R08 in P2(1)/n
REM SHELXT solution in Pn: R1 0.256, Rweak 0.268, Alpha 0.163
REM <I/s>   1.224 for   97 systematic absences,  Orientation as input
REM Formula found by SHELXT:  C8 N3 O8

CELL  0.71073   7.0200   9.2700  11.5600   90.000   97.670   90.000
ZERR   16.000   0.0014   0.0019   0.0023    0.000    0.030    0.000
LATT -1
SYMM 1/2+X, -Y, 1/2+Z
SFAC C H N O
UNIT 16 16 16 16
L.S. 10
BOND
LIST 6
FMAP 2
PLAN 20
O001  4  0.37281  0.42214  0.36794 11.00000  0.00681  11.19
N002  3  0.59303  0.89879  0.43658 11.00000  0.00010   9.31
O003  4  0.77830  0.98335  0.60679 11.00000  0.00010   9.15
N004  3  0.68092  0.73847  0.27110 11.00000  0.00546   8.39
O005  4  0.85086  0.73831  0.31101 11.00000  0.00412   7.66
O006  4  0.42294  0.85513  0.82494 11.00000  0.02398   7.65
O007  4  0.55685  0.80161  0.33629 11.00000  0.00798   7.51
C008  1  0.36132  0.31597  0.28849 11.00000  0.00843   6.44
O009  4  0.14914  0.75022  0.69443 11.00000  0.01913   6.24
C00A  1  0.54884  0.52495  0.53457 11.00000  0.01055   6.18
C00B  1  0.23103  0.60584  0.48188 11.00000  0.00062   5.80
O00C  4  0.46127  1.08212  0.55239 11.00000  0.01302   5.75
C00D  1  0.44585  0.69522  0.65597 11.00000  0.01979   5.63
N00E  3  0.68576  1.17198  0.72627 11.00000  0.00010   5.13
C00F  1  0.75261  0.89771  0.51822 11.00000  0.01864   5.09
C00G  1  0.43153  0.99908  0.45585 11.00000  0.00010   4.98
C00H  1  0.32479  0.77084  0.71196 11.00000  0.00041   4.89
O00I  4  0.60222  0.65223  0.17506 11.00000  0.02105   4.75
C00J  1  0.43418  0.61694  0.56340 11.00000  0.05148   3.20
HKLF 4
END
