TITL SP14R08_expF_0_9_expS_1_3_SP14R08_c.res in P2(1)
REM Old TITL SP14R08 in P2(1)/n
REM SHELXT solution in P2(1): R1 0.241, Rweak 0.072, Alpha 0.196
REM <I/s>   1.105 for    6 systematic absences,  Orientation as input
REM Formula found by SHELXT:  C13 N5 O4

CELL  0.71073   7.0200   9.2700  11.5600   90.000   97.670   90.000
ZERR   16.000   0.0014   0.0019   0.0023    0.000    0.030    0.000
LATT -1
SYMM -X, 1/2+Y, -Z
SFAC C H N O
UNIT 16 16 16 16
L.S. 10
BOND
LIST 6
FMAP 2
PLAN 20
O001  4  0.20297  0.69267  0.90973 11.00000  0.02289   9.33
N002  3  0.65706  0.39107  0.30838 11.00000  0.02527   7.36
O003  4 -0.09645  0.76218  0.94161 11.00000  0.02564   6.95
N004  3  0.47037  0.47551  0.13713 11.00000  0.02523   6.84
N005  3  0.09051  0.31118  0.53101 11.00000  0.02312   6.71
N006  3  0.15537  0.85088  1.06786 11.00000  0.01557   6.65
N007  3  0.28108  0.41911  0.69246 11.00000  0.02539   6.54
C008  1  0.12268  0.42762  0.61857 11.00000  0.02052   6.50
C009  1  0.57099  0.23705  0.47654 11.00000  0.03483   6.48
C00A  1  0.07034  0.76270  0.96720 11.00000  0.00879   6.28
C00B  1  0.48942  0.39302  0.23584 11.00000  0.01701   6.11
O00C  4  0.58196  0.66192  0.02588 11.00000  0.02578   5.88
C00D  1  0.30842  0.51541  0.79669 11.00000  0.02010   5.82
O00E  4  0.39255  0.24940  0.44033 11.00000  0.03036   5.70
C00F  1  0.81087  0.48837  0.28398 11.00000  0.02216   5.66
C00G  1 -0.03404  0.50430  0.64240 11.00000  0.02221   5.64
C00H  1  0.61420  0.58554  0.12189 11.00000  0.01768   5.47
C00I  1 -0.00805  0.60640  0.73748 11.00000  0.02302   5.37
C00J  1  0.80414  0.57652  0.19806 11.00000  0.02833   5.24
C00K  1  0.16665  0.60365  0.81627 11.00000  0.02534   5.14
C00L  1  0.66295  0.14912  0.58150 11.00000  0.03396   4.86
C00M  1  0.69017  0.28986  0.40924 11.00000  0.02258   3.57
HKLF 4
END
