TITL SP14R08_expF_1_5_expS_0_9_SP14R08_a.res in P2(1)/n
REM Old TITL SP14R08 in P2(1)/n
REM SHELXT solution in P2(1)/n: R1 0.337, Rweak 0.017, Alpha 0.031
REM <I/s>   1.877 for  107 systematic absences,  Orientation as input
REM Formula found by SHELXT:  C9 N O

CELL  0.71073   7.0200   9.2700  11.5600   90.000   97.670   90.000
ZERR   16.000   0.0014   0.0019   0.0023    0.000    0.030    0.000
LATT  1
SYMM 1/2-X, 1/2+Y, 1/2-Z
SFAC C H N O
UNIT 16 16 16 16
L.S. 10
BOND
LIST 6
FMAP 2
PLAN 20
N001  3  0.65856  0.92362  0.72061 11.00000  0.04501   6.52
C002  1  0.55132  0.55356  0.33946 11.00000  0.04012   6.35
C003  1  0.77890  0.73566  0.60665 11.00000  0.04883   6.17
C004  1  0.58683  0.64368  0.43776 11.00000  0.04192   6.10
C005  1  0.46174  0.83004  0.55631 11.00000  0.04888   6.09
C006  1  0.67677  0.48554  0.27972 11.00000  0.04832   5.91
O007  4  0.85357  0.49574  0.30872 11.00000  0.06573   5.91
C008  1  0.75903  0.64131  0.51352 11.00000  0.04762   5.82
C009  1  0.63418  0.83314  0.62942 11.00000  0.04610   5.80
C00A  1  0.44141  0.73539  0.46096 11.00000  0.05139   5.76
C00B  1  0.59086  0.40281  0.17587 11.00000  0.05596   5.32
HKLF 4
END
