TITL SP14R08_expF_0_5_expS_1_3_SP14R08_a.res in Pn
REM Old TITL SP14R08 in P2(1)/n
REM SHELXT solution in Pn: R1 0.290, Rweak 0.387, Alpha 0.224
REM <I/s>   1.357 for   97 systematic absences,  Orientation as input
REM Formula found by SHELXT:  C9 N3 O7

CELL  0.71073   7.0200   9.2700  11.5600   90.000   97.670   90.000
ZERR   16.000   0.0014   0.0019   0.0023    0.000    0.030    0.000
LATT -1
SYMM 1/2+X, -Y, 1/2+Z
SFAC C H N O
UNIT 16 16 16 16
L.S. 10
BOND
LIST 6
FMAP 2
PLAN 20
C001  1  0.42645  0.76739  0.53407 11.00000  0.00010  10.94
O002  4  0.50018  0.11345  0.23525 11.00000  0.00010   9.53
O003  4  0.69603  0.19724  0.41846 11.00000  0.00010   9.31
O004  4  0.66806  0.34027  0.58408 11.00000  0.00010   9.27
O005  4  0.46958  0.01216  0.14862 11.00000  0.01273   9.03
N006  3  0.61433 -0.08318  0.13109 11.00000  0.00010   7.84
N007  3  0.66393  0.11853  0.32769 11.00000  0.00010   7.58
O008  4  0.42484  0.25856  0.44763 11.00000  0.01729   7.21
N009  3  0.19533  0.50323  0.73053 11.00000  0.01623   6.93
O00A  4  0.60359  0.76076  0.55919 11.00000  0.00256   6.87
O00B  4  0.41278  0.31991  0.97478 11.00000  0.01558   5.65
C00C  1  0.33992  0.59706  0.69483 11.00000  0.00494   5.55
C00D  1  0.33758  0.70396  0.59156 11.00000  0.04385   5.06
C00E  1  0.80433 -0.07894  0.20912 11.00000  0.01549   5.06
C00F  1  0.58184 -0.15910  0.02522 11.00000  0.00010   4.81
C00G  1  0.21737  0.43995  0.82924 11.00000  0.00010   4.41
C00H  1  0.80467  0.01929  0.29721 11.00000  0.00010   4.06
C00I  1  0.35357  0.42604  0.88359 11.00000  0.00337   3.52
C00J  1  0.47640  0.49624  0.51784 11.00000  0.01304   3.19
HKLF 4
END
