TITL SP14R08_expF_1_3_expS_0_9_SP14R08_a.res in P2(1)/n
REM Old TITL SP14R08 in P2(1)/n
REM SHELXT solution in P2(1)/n: R1 0.292, Rweak 0.023, Alpha 0.043
REM <I/s>   1.842 for  107 systematic absences,  Orientation as input
REM Formula found by SHELXT:  C10 O

CELL  0.71073   7.0200   9.2700  11.5600   90.000   97.670   90.000
ZERR   16.000   0.0014   0.0019   0.0023    0.000    0.030    0.000
LATT  1
SYMM 1/2-X, 1/2+Y, 1/2-Z
SFAC C H N O
UNIT 16 16 16 16
L.S. 10
BOND
LIST 6
FMAP 2
PLAN 20
C001  1  0.66069  0.07614  0.72200 11.00000  0.03304   6.46
C002  1  0.55080  0.44837  0.33905 11.00000  0.03707   6.41
C003  1  0.78222  0.26106  0.60963 11.00000  0.04266   6.09
O004  4  0.85245  0.50488  0.30821 11.00000  0.06480   6.04
C005  1  0.67754  0.51332  0.27938 11.00000  0.04205   6.04
C006  1  0.58732  0.35635  0.43867 11.00000  0.03898   6.02
C007  1  0.46277  0.16998  0.55641 11.00000  0.04527   5.92
C008  1  0.63429  0.16896  0.63036 11.00000  0.04053   5.79
C009  1  0.75949  0.35672  0.51406 11.00000  0.04249   5.73
C00A  1  0.44195  0.26551  0.45965 11.00000  0.04515   5.66
C00B  1  0.59358  0.59815  0.17706 11.00000  0.04697   5.36
HKLF 4
END
