TITL SP14R08_expF_1_3_expS_1_2_SP14R08_b.res in Pn
REM Old TITL SP14R08 in P2(1)/n
REM SHELXT solution in Pn: R1 0.277, Rweak 0.023, Alpha 0.022
REM <I/s>   1.702 for  101 systematic absences,  Orientation as input
REM Formula found by SHELXT:  C15 N4 O3

CELL  0.71073   7.0200   9.2700  11.5600   90.000   97.670   90.000
ZERR   16.000   0.0014   0.0019   0.0023    0.000    0.030    0.000
LATT -1
SYMM 1/2+X, -Y, 1/2+Z
SFAC C H N O
UNIT 16 16 16 16
L.S. 10
BOND
LIST 6
FMAP 2
PLAN 20
O001  4  0.22280  0.98821  0.39169 11.00000  0.06838   7.89
C002  1  0.68493  0.76821  0.28662 11.00000  0.03821   7.49
N003  3  0.54338  1.08402  0.45098 11.00000  0.04129   7.27
N004  3  0.44970  0.80160  0.66240 11.00000  0.04182   7.17
N005  3  0.42493  0.89459  0.56439 11.00000  0.04777   7.07
N006  3  0.66266  0.32326  0.72056 11.00000  0.04477   6.87
O007  4  0.14752  0.74246  0.69300 11.00000  0.05301   6.41
C008  1  0.24711  0.88992  0.48249 11.00000  0.04158   6.40
C009  1  0.41661  0.64514  0.82280 11.00000  0.04202   6.32
C00A  1  0.33957  1.17005  0.27655 11.00000  0.02847   6.28
C00B  1  0.37674  1.07604  0.36789 11.00000  0.04183   6.16
C00C  1  0.55765  0.98645  0.53920 11.00000  0.03937   5.92
O00D  4  0.85248  0.75446  0.30949 11.00000  0.06044   5.83
C00E  1  0.55426  0.69957  0.34211 11.00000  0.03776   5.62
C00F  1  0.44143  0.51688  0.45862 11.00000  0.04612   5.59
C00G  1  0.64206  0.41367  0.62949 11.00000  0.03642   5.49
C00H  1  0.59792  0.60879  0.44175 11.00000  0.03830   5.36
C00I  1  0.76525  0.60322  0.51063 11.00000  0.03934   5.34
C00J  1  0.46762  0.42877  0.56672 11.00000  0.05702   5.13
C00K  1  0.78791  0.51370  0.61000 11.00000  0.04138   4.74
C00L  1  0.32903  0.74153  0.72516 11.00000  0.04101   4.51
C00M  1  0.60289  0.84332  0.17720 11.00000  0.05160   4.46
HKLF 4
END
