TITL SP14R08_expF_1_3_expS_1_5_SP14R08_c.res in P2(1)
REM Old TITL SP14R08 in P2(1)/n
REM SHELXT solution in P2(1): R1 0.284, Rweak 0.022, Alpha 0.058
REM <I/s>   1.805 for    6 systematic absences,  Orientation as input
REM Formula found by SHELXT:  C15 N5 O2

CELL  0.71073   7.0200   9.2700  11.5600   90.000   97.670   90.000
ZERR   16.000   0.0014   0.0019   0.0023    0.000    0.030    0.000
LATT -1
SYMM -X, 1/2+Y, -Z
SFAC C H N O
UNIT 16 16 16 16
L.S. 10
BOND
LIST 6
FMAP 2
PLAN 20
N001  3  0.83806  0.39438  0.19017 11.00000  0.04216   7.22
N002  3  0.79901  0.30639  0.08748 11.00000  0.04223   7.12
N003  3  0.41411  0.32679  0.97472 11.00000  0.03635   6.85
N004  3  0.51531  0.59943  0.76289 11.00000  0.05176   6.63
N005  3  0.53151  0.51083  0.86280 11.00000  0.05455   6.50
O006  4  0.60235  0.74899  0.55784 11.00000  0.04320   6.41
C007  1  0.68973  0.48310  0.20910 11.00000  0.03713   6.27
C008  1  0.21668  0.42651  0.80749 11.00000  0.04005   6.27
C009  1  0.92757  0.23611  0.03001 11.00000  0.03727   6.19
C00A  1  0.91150  0.67294  0.46989 11.00000  0.03230   6.17
C00B  1  0.84858  0.14982 -0.07153 11.00000  0.04183   6.06
C00C  1  1.03341  0.48526  0.35636 11.00000  0.03453   5.98
C00D  1  0.88333  0.57928  0.38138 11.00000  0.03914   5.94
C00E  1  0.70836  0.58493  0.30440 11.00000  0.04151   5.92
O00F  4  1.10517  0.23394  0.06040 11.00000  0.05757   5.70
C00G  1  0.43004  0.76236  0.53100 11.00000  0.04126   5.57
C00H  1  0.38257  0.41618  0.87890 11.00000  0.03817   5.55
C00I  1  0.30457  0.70386  0.59260 11.00000  0.03093   5.50
C00J  1  0.19533  0.51492  0.71041 11.00000  0.04552   5.07
C00K  1  0.33655  0.60793  0.68577 11.00000  0.04122   4.90
C00L  1  1.00565  0.38697  0.26522 11.00000  0.03453   4.88
C00M  1  0.33347  0.85018  0.42548 11.00000  0.04486   4.49
HKLF 4
END
