TITL SP14R08_expF_1_3_expS_1_3_SP14R08_a.res in P2(1)/n
REM Old TITL SP14R08 in P2(1)/n
REM SHELXT solution in P2(1)/n: R1 0.301, Rweak 0.023, Alpha 0.043
REM <I/s>   1.781 for  107 systematic absences,  Orientation as input
REM Formula found by SHELXT:  C10 O

CELL  0.71073   7.0200   9.2700  11.5600   90.000   97.670   90.000
ZERR   16.000   0.0014   0.0019   0.0023    0.000    0.030    0.000
LATT  1
SYMM 1/2-X, 1/2+Y, 1/2-Z
SFAC C H N O
UNIT 16 16 16 16
L.S. 10
BOND
LIST 6
FMAP 2
PLAN 20
C001  1  0.66178  0.07603  0.72211 11.00000  0.02972   6.46
C002  1  0.55148  0.44860  0.33993 11.00000  0.03380   6.41
C003  1  0.78223  0.26195  0.60923 11.00000  0.03848   6.09
O004  4  0.85212  0.50555  0.30887 11.00000  0.05532   6.04
C005  1  0.67915  0.51273  0.27940 11.00000  0.03874   6.04
C006  1  0.58760  0.35576  0.43863 11.00000  0.03633   6.02
C007  1  0.46298  0.17013  0.55623 11.00000  0.04194   5.92
C008  1  0.63341  0.16934  0.63026 11.00000  0.03808   5.79
C009  1  0.76024  0.35708  0.51426 11.00000  0.03744   5.73
C00A  1  0.44205  0.26613  0.46029 11.00000  0.04158   5.66
C00B  1  0.59129  0.59917  0.17709 11.00000  0.04357   5.36
HKLF 4
END
