TITL SP14R08_expF_1_1_expS_1_3_SP14R08_c.res in P2(1)
REM Old TITL SP14R08 in P2(1)/n
REM SHELXT solution in P2(1): R1 0.248, Rweak 0.038, Alpha 0.080
REM <I/s>   1.394 for    6 systematic absences,  Orientation as input
REM Formula found by SHELXT:  C14 N6 O2

CELL  0.71073   7.0200   9.2700  11.5600   90.000   97.670   90.000
ZERR   16.000   0.0014   0.0019   0.0023    0.000    0.030    0.000
LATT -1
SYMM -X, 1/2+Y, -Z
SFAC C H N O
UNIT 16 16 16 16
L.S. 10
BOND
LIST 6
FMAP 2
PLAN 20
N001  3  0.83366  0.61247  0.18934 11.00000  0.02331   8.04
N002  3  0.70813  0.42826  0.30722 11.00000  0.03042   7.32
O003  4  1.10483  0.76990  0.06117 11.00000  0.03804   7.29
N004  3  0.41335  0.67562  0.97398 11.00000  0.03093   6.88
N005  3  0.52964  0.49059  0.85886 11.00000  0.03275   6.81
N006  3  0.30082  0.29676  0.58926 11.00000  0.03741   6.61
N007  3  0.51434  0.40419  0.76194 11.00000  0.03387   6.59
C008  1  0.38140  0.58890  0.87852 11.00000  0.02860   6.15
C009  1  0.69102  0.52684  0.21078 11.00000  0.02967   6.09
C00A  1  0.80122  0.69765  0.09077 11.00000  0.02076   6.09
C00B  1  0.84371  0.85135 -0.07168 11.00000  0.03260   6.07
C00C  1  0.93185  0.76824  0.03335 11.00000  0.02118   6.00
C00D  1  0.42596  0.24287  0.52532 11.00000  0.03693   5.92
C00E  1  0.91497  0.32798  0.47015 11.00000  0.02437   5.79
C00F  1  0.88340  0.42881  0.38149 11.00000  0.03214   5.54
C00G  1  1.03418  0.51770  0.36108 11.00000  0.04032   5.41
C00H  1  0.18964  0.49887  0.70670 11.00000  0.03371   5.32
O00I  4  0.59967  0.25955  0.55629 11.00000  0.04569   5.00
C00J  1  1.00344  0.61869  0.26559 11.00000  0.03025   4.90
C00K  1  0.34000  0.14865  0.42554 11.00000  0.03412   4.62
C00L  1  0.22029  0.58986  0.80270 11.00000  0.04910   4.57
C00M  1  0.34415  0.40099  0.68629 11.00000  0.04959   4.00
HKLF 4
END
