TITL SP14R08_expF_0_7_expS_0_5_SP14R08_a.res in Pn
REM Old TITL SP14R08 in P2(1)/n
REM SHELXT solution in Pn: R1 0.255, Rweak 0.172, Alpha 0.093
REM <I/s>   1.039 for  101 systematic absences,  Orientation as input
REM Formula found by SHELXT:  C9 N3 O7

CELL  0.71073   7.0200   9.2700  11.5600   90.000   97.670   90.000
ZERR   16.000   0.0014   0.0019   0.0023    0.000    0.030    0.000
LATT -1
SYMM 1/2+X, -Y, 1/2+Z
SFAC C H N O
UNIT 16 16 16 16
L.S. 10
BOND
LIST 6
FMAP 2
PLAN 20
O001  4  0.91812  0.39307  0.56103 11.00000  0.00075  10.90
N002  3  0.13917 -0.08197  0.62915 11.00000  0.00010   9.70
C003  1  0.81089  0.24763  0.72199 11.00000  0.00967   9.27
O004  4  0.35384  0.26520  0.30523 11.00000  0.00957   8.65
O005  4  0.84555  0.68116  0.27831 11.00000  0.01955   8.09
O006  4  0.72937  0.48343  0.38877 11.00000  0.02948   7.86
O007  4  0.94917  0.29541  0.65750 11.00000  0.02808   7.67
O008  4 -0.04797  0.01618  0.45970 11.00000  0.00718   7.31
N009  3  0.91710  0.14654  0.82216 11.00000  0.02595   6.53
N00A  3  1.04797  0.57657  0.44618 11.00000  0.02548   6.53
C00B  1  0.25541  0.10518  0.51420 11.00000  0.00975   5.70
C00C  1  0.05273  0.19400  0.33603 11.00000  0.00854   5.55
C00D  1  0.10004  0.35057  0.17784 11.00000  0.00974   5.38
C00E  1  0.29666  0.00872  0.60919 11.00000  0.01715   5.34
O00F  4  0.65353  0.25352  0.68431 11.00000  0.03566   4.75
C00G  1  0.73401  0.38545  0.48169 11.00000  0.02349   4.69
C00H  1 -0.03723 -0.07910  0.55198 11.00000  0.02892   4.21
C00I  1  0.18129 -0.16631  0.72652 11.00000  0.01305   3.89
C00J  1  0.17514  0.27114  0.28109 11.00000  0.00379   3.51
HKLF 4
END
