TITL SP14R08_expF_0_8_expS_0_9_SP14R08_a.res in P2(1)/n
REM Old TITL SP14R08 in P2(1)/n
REM SHELXT solution in P2(1)/n: R1 0.289, Rweak 0.133, Alpha 0.155
REM <I/s>   1.225 for  107 systematic absences,  Orientation as input
REM Formula found by SHELXT:  C9 N O

CELL  0.71073   7.0200   9.2700  11.5600   90.000   97.670   90.000
ZERR   16.000   0.0014   0.0019   0.0023    0.000    0.030    0.000
LATT  1
SYMM 1/2-X, 1/2+Y, 1/2-Z
SFAC C H N O
UNIT 16 16 16 16
L.S. 10
BOND
LIST 6
FMAP 2
PLAN 20
N001  3  0.44824  0.44968  0.66130 11.00000  0.01965   6.67
O002  4  0.14963  0.50688  0.69105 11.00000  0.02543   6.64
C003  1  0.32026  0.51262  0.72085 11.00000  0.01511   6.06
C004  1  0.33356  0.07363  0.27849 11.00000  0.01180   6.02
C005  1  0.21871  0.26446  0.38930 11.00000  0.01577   5.99
C006  1  0.41153  0.35715  0.56189 11.00000  0.01822   5.92
C007  1  0.36802  0.17129  0.37046 11.00000  0.01779   5.81
C008  1  0.54056  0.17138  0.44506 11.00000  0.02056   5.79
C009  1  0.24085  0.35751  0.48504 11.00000  0.01643   5.77
C00A  1  0.40787  0.60070  0.82306 11.00000  0.01597   5.77
C00B  1  0.56178  0.26407  0.54080 11.00000  0.01910   5.44
HKLF 4
END
