TITL SP14R08_expF_1_0_expS_1_1_SP14R08_b.res in Pn
REM Old TITL SP14R08 in P2(1)/n
REM SHELXT solution in Pn: R1 0.235, Rweak 0.052, Alpha 0.051
REM <I/s>   1.376 for  101 systematic absences,  Orientation as input
REM Formula found by SHELXT:  C14 N4 O4

CELL  0.71073   7.0200   9.2700  11.5600   90.000   97.670   90.000
ZERR   16.000   0.0014   0.0019   0.0023    0.000    0.030    0.000
LATT -1
SYMM 1/2+X, -Y, 1/2+Z
SFAC C H N O
UNIT 16 16 16 16
L.S. 10
BOND
LIST 6
FMAP 2
PLAN 20
N001  3  0.64328  0.57744  0.62927 11.00000  0.02988   8.28
O002  4  0.46176  0.19691  0.65927 11.00000  0.03899   7.80
O003  4  0.77283  0.38855  0.50892 11.00000  0.05224   7.61
C004  1  0.33205  0.26821  0.71796 11.00000  0.01886   7.51
O005  4  0.84842  0.24928  0.30854 11.00000  0.06708   7.45
N006  3  0.21807  0.00705  0.38211 11.00000  0.04103   7.05
N007  3  0.42170  0.35070  0.82310 11.00000  0.02969   6.87
N008  3  0.67731  0.67392  0.71802 11.00000  0.01711   6.79
C009  1  0.41957  0.10289  0.56306 11.00000  0.02628   6.55
C00A  1  0.47392  0.57357  0.56001 11.00000  0.02720   6.09
C00B  1  0.44490  0.48979  0.45236 11.00000  0.03034   5.83
C00C  1  0.35128 -0.17374  0.27222 11.00000  0.03102   5.78
C00D  1  0.56602  0.01748  0.53559 11.00000  0.02493   5.55
C00E  1  0.54673 -0.08498  0.44912 11.00000  0.03052   5.41
C00F  1  0.59510  0.39009  0.43992 11.00000  0.02469   5.24
C00G  1  0.78386  0.48081  0.60243 11.00000  0.01856   5.21
O00H  4  0.15158  0.25798  0.68900 11.00000  0.02031   4.97
C00I  1  0.56419  0.29830  0.33837 11.00000  0.02117   4.85
C00J  1  0.68883  0.24596  0.27673 11.00000  0.03216   4.59
C00K  1  0.25392  0.10168  0.48069 11.00000  0.01903   4.16
C00L  1  0.60698  0.14662  0.17690 11.00000  0.03954   3.99
C00M  1  0.37811 -0.08493  0.36688 11.00000  0.03585   3.41
HKLF 4
END
