TITL SP14R08_expF_1_4_expS_1_1_SP14R08_a.res in P2(1)/n
REM Old TITL SP14R08 in P2(1)/n
REM SHELXT solution in P2(1)/n: R1 0.316, Rweak 0.020, Alpha 0.042
REM <I/s>   1.510 for  107 systematic absences,  Orientation as input
REM Formula found by SHELXT:  C10 O

CELL  0.71073   7.0200   9.2700  11.5600   90.000   97.670   90.000
ZERR   16.000   0.0014   0.0019   0.0023    0.000    0.030    0.000
LATT  1
SYMM 1/2-X, 1/2+Y, 1/2-Z
SFAC C H N O
UNIT 16 16 16 16
L.S. 10
BOND
LIST 6
FMAP 2
PLAN 20
C001  1  0.33955  0.07511  0.27776 11.00000  0.03604   6.49
C002  1  0.44779  0.44837  0.66013 11.00000  0.04137   6.42
C003  1  0.21752  0.26167  0.39071 11.00000  0.04590   6.22
O004  4  0.14893  0.50535  0.69094 11.00000  0.06558   6.05
C005  1  0.41089  0.35581  0.56122 11.00000  0.04361   6.04
C006  1  0.53513  0.16869  0.44324 11.00000  0.04960   6.03
C007  1  0.32107  0.51338  0.72109 11.00000  0.04437   5.83
C008  1  0.55850  0.26496  0.54058 11.00000  0.05080   5.76
C009  1  0.36732  0.16872  0.37085 11.00000  0.04505   5.69
C00A  1  0.24002  0.35734  0.48604 11.00000  0.04550   5.67
C00B  1  0.41007  0.59818  0.82339 11.00000  0.05302   5.38
HKLF 4
END
