TITL SP14R08_expF_1_1_expS_1_1_SP14R08_c.res in P2(1)
REM Old TITL SP14R08 in P2(1)/n
REM SHELXT solution in P2(1): R1 0.252, Rweak 0.038, Alpha 0.124
REM <I/s>   1.939 for    6 systematic absences,  Orientation as input
REM Formula found by SHELXT:  C17 N2 O3

CELL  0.71073   7.0200   9.2700  11.5600   90.000   97.670   90.000
ZERR   16.000   0.0014   0.0019   0.0023    0.000    0.030    0.000
LATT -1
SYMM -X, 1/2+Y, -Z
SFAC C H N O
UNIT 16 16 16 16
L.S. 10
BOND
LIST 6
FMAP 2
PLAN 20
O001  4  0.79262  0.70673  0.09080 11.00000  0.05442   7.82
N002  3  0.21495  0.59225  0.79937 11.00000  0.04878   7.01
N003  3  0.53705  0.49018  0.86159 11.00000  0.05000   6.99
C004  1  0.41817  0.67274  0.97555 11.00000  0.02704   6.48
C005  1  0.84492  0.85178 -0.07343 11.00000  0.03047   6.37
C006  1  0.83846  0.60760  0.18523 11.00000  0.02604   6.33
O007  4  0.60522  0.25576  0.56135 11.00000  0.04145   6.07
C008  1  0.90965  0.32593  0.46960 11.00000  0.02205   6.06
C009  1  0.88242  0.41884  0.37747 11.00000  0.03092   5.96
C00A  1  0.92833  0.77025  0.03340 11.00000  0.03170   5.93
O00B  4  1.09837  0.76884  0.05607 11.00000  0.05296   5.92
C00C  1  0.42931  0.24463  0.52727 11.00000  0.02889   5.89
C00D  1  0.38365  0.57710  0.88365 11.00000  0.03442   5.75
C00E  1  0.33628  0.39360  0.69221 11.00000  0.03510   5.74
C00F  1  0.19879  0.49781  0.70859 11.00000  0.03095   5.72
C00G  1  0.50974  0.39399  0.76593 11.00000  0.02907   5.68
C00H  1  1.00688  0.60536  0.26269 11.00000  0.03498   5.53
C00I  1  0.68170  0.52682  0.20979 11.00000  0.03362   5.36
C00J  1  1.02887  0.51627  0.35828 11.00000  0.02939   5.21
C00K  1  0.30862  0.30781  0.58920 11.00000  0.02206   4.91
C00L  1  0.70966  0.43289  0.31109 11.00000  0.03370   4.68
C00M  1  0.34015  0.14822  0.42795 11.00000  0.04196   4.38
HKLF 4
END
