TITL SP14R08_expF_0_9_expS_0_8_SP14R08_c.res in Pn
REM Old TITL SP14R08 in P2(1)/n
REM SHELXT solution in Pn: R1 0.243, Rweak 0.077, Alpha 0.078
REM <I/s>   1.218 for  101 systematic absences,  Orientation as input
REM Formula found by SHELXT:  C16 N2 O2

CELL  0.71073   7.0200   9.2700  11.5600   90.000   97.670   90.000
ZERR   16.000   0.0014   0.0019   0.0023    0.000    0.030    0.000
LATT -1
SYMM 1/2+X, -Y, 1/2+Z
SFAC C H N O
UNIT 16 16 16 16
L.S. 10
BOND
LIST 6
FMAP 2
PLAN 20
O001  4  0.23905  0.10743  0.48700 11.00000  0.01866   7.69
C002  1  0.67889  0.23564  0.28313 11.00000  0.00330   7.30
N003  3  0.20751  0.00786  0.39259 11.00000  0.04270   7.09
N004  3  0.35571 -0.07512  0.36862 11.00000  0.02982   6.99
O005  4  0.85151  0.24305  0.31300 11.00000  0.03788   6.68
C006  1  0.45046  0.19352  0.66378 11.00000  0.01853   6.19
C007  1  0.46127  0.57451  0.55740 11.00000  0.03194   6.05
C008  1  0.55144  0.00894  0.54368 11.00000  0.03050   5.91
C009  1  0.34325 -0.17460  0.28021 11.00000  0.02205   5.82
C00A  1  0.40707  0.34603  0.82275 11.00000  0.02096   5.29
C00B  1  0.55601  0.29574  0.34490 11.00000  0.02885   5.12
C00C  1  0.66728  0.67575  0.72513 11.00000  0.02033   5.07
C00D  1  0.59183  0.38613  0.44334 11.00000  0.02808   5.04
C00E  1  0.41332  0.10060  0.56673 11.00000  0.02953   4.80
C00F  1  0.14849  0.25479  0.69411 11.00000  0.02089   4.46
C00G  1  0.59262  0.14359  0.17725 11.00000  0.04709   4.28
C00H  1  0.43349  0.48028  0.46210 11.00000  0.02449   3.72
C00I  1  0.54110 -0.08307  0.44559 11.00000  0.03361   3.30
C00J  1  0.77358  0.48189  0.61175 11.00000  0.02441   3.24
C00K  1  0.61732  0.58513  0.63039 11.00000  0.03091   3.00
HKLF 4
END
