TITL SP14R08_expF_1_0_expS_1_5_SP14R08_a.res in P2(1)/n
REM Old TITL SP14R08 in P2(1)/n
REM SHELXT solution in P2(1)/n: R1 0.272, Rweak 0.064, Alpha 0.113
REM <I/s>   1.520 for  107 systematic absences,  Orientation as input
REM Formula found by SHELXT:  C9 N O

CELL  0.71073   7.0200   9.2700  11.5600   90.000   97.670   90.000
ZERR   16.000   0.0014   0.0019   0.0023    0.000    0.030    0.000
LATT  1
SYMM 1/2-X, 1/2+Y, 1/2-Z
SFAC C H N O
UNIT 16 16 16 16
L.S. 10
BOND
LIST 6
FMAP 2
PLAN 20
N001  3  0.55205  0.44931  0.33910 11.00000  0.02735   6.54
O002  4  0.84979  0.50743  0.30854 11.00000  0.03517   6.34
C003  1  0.66554  0.07478  0.72200 11.00000  0.01759   6.17
C004  1  0.78141  0.26438  0.60939 11.00000  0.02371   6.17
C005  1  0.67932  0.51226  0.27919 11.00000  0.02290   6.12
C006  1  0.58872  0.35591  0.43834 11.00000  0.02589   5.96
C007  1  0.46178  0.17138  0.55593 11.00000  0.02739   5.77
C008  1  0.63214  0.17144  0.63000 11.00000  0.02617   5.76
C009  1  0.76040  0.35633  0.51441 11.00000  0.02481   5.68
C00A  1  0.43891  0.26399  0.45935 11.00000  0.02681   5.66
C00B  1  0.59115  0.60153  0.17645 11.00000  0.02535   5.65
HKLF 4
END
