TITL SP14R08_expF_1_1_expS_0_8_SP14R08_b.res in Pn
REM Old TITL SP14R08 in P2(1)/n
REM SHELXT solution in Pn: R1 0.245, Rweak 0.036, Alpha 0.027
REM <I/s>   1.374 for  101 systematic absences,  Orientation as input
REM Formula found by SHELXT:  C15 N2 O5

CELL  0.71073   7.0200   9.2700  11.5600   90.000   97.670   90.000
ZERR   16.000   0.0014   0.0019   0.0023    0.000    0.030    0.000
LATT -1
SYMM 1/2+X, -Y, 1/2+Z
SFAC C H N O
UNIT 16 16 16 16
L.S. 10
BOND
LIST 6
FMAP 2
PLAN 20
O001  4  0.54107  0.20282  0.33631 11.00000  0.04397   8.53
O002  4  0.76033  0.11170  0.51472 11.00000  0.04593   7.74
N003  3  0.53563  0.58978  0.44921 11.00000  0.03980   7.00
O004  4  0.65849 -0.17315  0.71965 11.00000  0.04242   6.97
N005  3  0.43269  0.01750  0.45952 11.00000  0.03556   6.51
C006  1  0.77605  0.01224  0.61002 11.00000  0.03647   6.36
C007  1  0.58630  0.11080  0.43655 11.00000  0.02766   6.34
O008  4  0.14746  0.23954  0.69333 11.00000  0.03020   6.34
C009  1  0.67901  0.26444  0.27583 11.00000  0.03069   6.31
C00A  1  0.64078 -0.08214  0.63290 11.00000  0.02981   5.87
C00B  1  0.60078  0.35454  0.17668 11.00000  0.03096   5.71
O00C  4  0.85254  0.24798  0.31360 11.00000  0.07630   5.65
C00D  1  0.21469  0.48764  0.39040 11.00000  0.03023   5.63
C00E  1  0.37490  0.58038  0.37177 11.00000  0.03530   5.49
C00F  1  0.32246  0.23940  0.71577 11.00000  0.02955   5.38
C00G  1  0.33348  0.67356  0.27586 11.00000  0.02546   5.34
C00H  1  0.41046  0.40089  0.55910 11.00000  0.03166   5.07
C00I  1  0.41852  0.15308  0.82332 11.00000  0.03826   5.05
C00J  1  0.54849  0.48843  0.54205 11.00000  0.04345   4.70
C00K  1  0.46091 -0.06607  0.56143 11.00000  0.03787   4.33
C00L  1  0.43553  0.30417  0.65678 11.00000  0.02544   3.90
C00M  1  0.24123  0.39742  0.48375 11.00000  0.04438   3.50
HKLF 4
END
