TITL SP14R08_expF_1_1_expS_1_2_SP14R08_c.res in P2(1)
REM Old TITL SP14R08 in P2(1)/n
REM SHELXT solution in P2(1): R1 0.250, Rweak 0.041, Alpha 0.073
REM <I/s>   1.642 for    6 systematic absences,  Orientation as input
REM Formula found by SHELXT:  C13 N6 O3

CELL  0.71073   7.0200   9.2700  11.5600   90.000   97.670   90.000
ZERR   16.000   0.0014   0.0019   0.0023    0.000    0.030    0.000
LATT -1
SYMM -X, 1/2+Y, -Z
SFAC C H N O
UNIT 16 16 16 16
L.S. 10
BOND
LIST 6
FMAP 2
PLAN 20
N001  3  0.20487  0.70589  0.91075 11.00000  0.03006   7.42
N002  3  0.16527  0.60947  0.81080 11.00000  0.02810   7.23
N003  3  0.29416  0.43306  0.69284 11.00000  0.03670   7.13
N004  3  0.48749  0.39538  0.23362 11.00000  0.03395   7.01
O005  4 -0.09923  0.76903  0.94135 11.00000  0.04902   6.86
N006  3  0.15181  0.85284  1.07153 11.00000  0.03056   6.71
N007  3  0.08814  0.32066  0.53243 11.00000  0.03000   6.62
O008  4  0.58643  0.66965  0.02399 11.00000  0.03765   6.27
C009  1 -0.02953  0.51659  0.64430 11.00000  0.02989   6.25
C00A  1  0.46701  0.48861  0.13770 11.00000  0.03004   6.15
C00B  1  0.12045  0.42492  0.61709 11.00000  0.02676   6.14
C00C  1  0.57016  0.24282  0.47169 11.00000  0.03108   6.12
C00D  1  0.07114  0.76876  0.96851 11.00000  0.02512   5.94
C00E  1  0.80550  0.49271  0.29055 11.00000  0.03356   5.91
C00F  1  0.61543  0.58654  0.12250 11.00000  0.03146   5.66
O00G  4  0.39400  0.25455  0.44072 11.00000  0.03450   5.44
C00H  1  0.69206  0.30775  0.40883 11.00000  0.02282   5.42
C00I  1  0.31252  0.52040  0.79050 11.00000  0.02823   5.36
C00J  1  0.65793  0.39709  0.31358 11.00000  0.04076   5.21
C00K  1  0.78136  0.59335  0.19614 11.00000  0.03495   4.94
C00L  1 -0.00651  0.60910  0.73869 11.00000  0.03151   4.29
C00M  1  0.66742  0.14716  0.57674 11.00000  0.04456   4.07
HKLF 4
END
