TITL SP14R08_expF_1_3_expS_1_1_SP14R08_a.res in P2(1)/n
REM Old TITL SP14R08 in P2(1)/n
REM SHELXT solution in P2(1)/n: R1 0.295, Rweak 0.023, Alpha 0.043
REM <I/s>   1.788 for  107 systematic absences,  Orientation as input
REM Formula found by SHELXT:  C10 O

CELL  0.71073   7.0200   9.2700  11.5600   90.000   97.670   90.000
ZERR   16.000   0.0014   0.0019   0.0023    0.000    0.030    0.000
LATT  1
SYMM 1/2-X, 1/2+Y, 1/2-Z
SFAC C H N O
UNIT 16 16 16 16
L.S. 10
BOND
LIST 6
FMAP 2
PLAN 20
C001  1  0.66122  0.07602  0.72203 11.00000  0.03155   6.46
C002  1  0.55104  0.44846  0.33945 11.00000  0.03569   6.41
C003  1  0.78224  0.26152  0.60937 11.00000  0.04059   6.09
O004  4  0.85219  0.50517  0.30848 11.00000  0.06046   6.04
C005  1  0.67834  0.51300  0.27933 11.00000  0.04054   6.04
C006  1  0.58736  0.35609  0.43864 11.00000  0.03789   6.02
C007  1  0.46299  0.16997  0.55637 11.00000  0.04377   5.92
C008  1  0.63389  0.16910  0.63039 11.00000  0.03945   5.79
C009  1  0.75985  0.35694  0.51422 11.00000  0.03991   5.73
C00A  1  0.44200  0.26577  0.45998 11.00000  0.04340   5.66
C00B  1  0.59230  0.59856  0.17709 11.00000  0.04545   5.36
HKLF 4
END
