TITL SP14R08_expF_0_6_expS_1_3_SP14R08_a.res in Pn
REM Old TITL SP14R08 in P2(1)/n
REM SHELXT solution in Pn: R1 0.271, Rweak 0.284, Alpha 0.106
REM <I/s>   1.365 for   97 systematic absences,  Orientation as input
REM Formula found by SHELXT:  C6 N3 O8

CELL  0.71073   7.0200   9.2700  11.5600   90.000   97.670   90.000
ZERR   16.000   0.0014   0.0019   0.0023    0.000    0.030    0.000
LATT -1
SYMM 1/2+X, -Y, 1/2+Z
SFAC C H N O
UNIT 16 16 16 16
L.S. 10
BOND
LIST 6
FMAP 2
PLAN 20
O001  4  0.13754  0.58138  0.61920 11.00000  0.00010  10.03
O002  4  0.16803  0.67574  0.71109 11.00000  0.00010   9.61
O003  4  0.91415  0.10693  0.54786 11.00000  0.00247   9.12
O004  4  0.65125  0.26179  0.67656 11.00000  0.01561   9.12
O005  4  0.93497  0.20018  0.64543 11.00000  0.01271   7.69
N006  3 -0.04727  0.48506  0.44733 11.00000  0.00010   6.99
N007  3  0.28949  0.49838  0.59678 11.00000  0.01464   6.78
N008  3  0.91750  0.35009  0.81803 11.00000  0.00253   6.62
C009  1  0.82930  0.26829  0.70844 11.00000  0.00010   6.45
C00A  1  1.04727 -0.07764  0.43922 11.00000  0.00010   6.35
C00B  1  0.19044  0.23515  0.26943 11.00000  0.00711   6.34
C00C  1  0.73569  0.09421  0.46515 11.00000  0.01684   6.03
O00D  4  0.03331  0.29869  0.32839 11.00000  0.02457   5.44
C00E  1  0.26265  0.39157  0.49799 11.00000  0.00010   4.51
O00F  4  0.11027  0.15360  0.18197 11.00000  0.01322   4.07
O00G  4  0.35950  0.24429  0.30274 11.00000  0.01015   3.90
C00H  1  0.72160  0.02285  0.37278 11.00000  0.00403   3.80
HKLF 4
END
