TITL SP14R08_expF_0_7_expS_0_8_SP14R08_a.res in P2(1)
REM Old TITL SP14R08 in P2(1)/n
REM SHELXT solution in P2(1): R1 0.256, Rweak 0.187, Alpha 0.221
REM <I/s>   1.433 for    6 systematic absences,  Orientation as input
REM Formula found by SHELXT:  C15 N4 O2

CELL  0.71073   7.0200   9.2700  11.5600   90.000   97.670   90.000
ZERR   16.000   0.0014   0.0019   0.0023    0.000    0.030    0.000
LATT -1
SYMM -X, 1/2+Y, -Z
SFAC C H N O
UNIT 16 16 16 16
L.S. 10
BOND
LIST 6
FMAP 2
PLAN 20
N001  3  0.83912  0.38840  0.18864 11.00000  0.00010   9.97
O002  4  1.10327  0.23476  0.06188 11.00000  0.02154   7.90
C003  1  0.52193  0.51493  0.86079 11.00000  0.01341   6.96
N004  3  0.41768  0.33138  0.97660 11.00000  0.00350   6.78
N005  3  0.38979  0.41674  0.87883 11.00000  0.02709   6.77
N006  3  0.79279  0.30167  0.08746 11.00000  0.00790   6.52
O007  4  0.51341  0.59680  0.76488 11.00000  0.03574   6.50
C008  1  0.92772  0.22633  0.03235 11.00000  0.01750   6.45
C009  1  0.31133  0.70385  0.59189 11.00000  0.01826   6.34
C00A  1  0.18763  0.49975  0.70521 11.00000  0.02139   6.26
C00B  1  0.70068  0.57147  0.30748 11.00000  0.00029   6.25
C00C  1  0.34244  0.85122  0.42855 11.00000  0.01555   6.23
C00D  1  0.43020  0.75581  0.52840 11.00000  0.01191   5.74
C00E  1  0.22549  0.40477  0.79758 11.00000  0.03924   5.49
C00F  1  1.03654  0.49018  0.35848 11.00000  0.02141   5.18
C00G  1  0.87318  0.57292  0.38228 11.00000  0.01327   5.17
C00H  1  0.84163  0.14878 -0.07597 11.00000  0.01995   5.05
C00I  1  0.68971  0.47194  0.21148 11.00000  0.01016   4.97
C00J  1  0.60268  0.74671  0.55690 11.00000  0.00529   4.93
C00K  1  1.00599  0.38311  0.26398 11.00000  0.01446   4.73
C00L  1  0.91507  0.69094  0.46666 11.00000  0.02149   4.72
HKLF 4
END
