TITL SP14R08_expF_0_9_expS_1_5_SP14R08_c.res in P2(1)
REM Old TITL SP14R08 in P2(1)/n
REM SHELXT solution in P2(1): R1 0.244, Rweak 0.083, Alpha 0.135
REM <I/s>   0.803 for    6 systematic absences,  Orientation as input
REM Formula found by SHELXT:  C13 N7 O2

CELL  0.71073   7.0200   9.2700  11.5600   90.000   97.670   90.000
ZERR   16.000   0.0014   0.0019   0.0023    0.000    0.030    0.000
LATT -1
SYMM -X, 1/2+Y, -Z
SFAC C H N O
UNIT 16 16 16 16
L.S. 10
BOND
LIST 6
FMAP 2
PLAN 20
N001  3  0.82858  0.60334  0.19009 11.00000  0.01768   9.09
C002  1  0.93090  0.76313  0.03233 11.00000  0.01514   7.89
O003  4  1.10426  0.76293  0.05900 11.00000  0.03318   7.11
N004  3  0.51487  0.40076  0.76783 11.00000  0.01846   7.08
N005  3  0.70375  0.41320  0.30204 11.00000  0.02065   7.01
N006  3  0.41992  0.66739  0.97354 11.00000  0.01101   6.66
N007  3  0.80219  0.69297  0.09242 11.00000  0.02858   6.59
N008  3  0.68774  0.50658  0.21064 11.00000  0.02502   6.56
N009  3  0.30005  0.29452  0.58778 11.00000  0.01928   6.53
C00A  1  0.37389  0.58509  0.87686 11.00000  0.03600   6.46
C00B  1  0.52974  0.49237  0.86037 11.00000  0.02200   6.38
C00C  1  1.03305  0.52083  0.35796 11.00000  0.02194   6.25
C00D  1  0.34169  0.14783  0.43092 11.00000  0.03506   6.06
C00E  1  0.91370  0.31392  0.46940 11.00000  0.02941   5.91
O00F  4  0.59958  0.24728  0.55998 11.00000  0.03116   5.90
C00G  1  0.21854  0.56735  0.80935 11.00000  0.04134   5.71
C00H  1  0.84505  0.85217 -0.07576 11.00000  0.01559   5.30
C00I  1  0.88562  0.42245  0.38146 11.00000  0.01587   5.28
C00J  1  1.00433  0.61793  0.25746 11.00000  0.02200   5.06
C00K  1  0.42850  0.23780  0.52625 11.00000  0.02961   4.78
C00L  1  0.19081  0.47642  0.70558 11.00000  0.03129   4.75
C00M  1  0.35448  0.39053  0.68427 11.00000  0.04026   3.50
HKLF 4
END
