TITL SP14R08_expF_1_5_expS_1_1_SP14R08_a.res in P2(1)/n
REM Old TITL SP14R08 in P2(1)/n
REM SHELXT solution in P2(1)/n: R1 0.347, Rweak 0.017, Alpha 0.034
REM <I/s>   1.812 for  107 systematic absences,  Orientation as input
REM Formula found by SHELXT:  C9 N O

CELL  0.71073   7.0200   9.2700  11.5600   90.000   97.670   90.000
ZERR   16.000   0.0014   0.0019   0.0023    0.000    0.030    0.000
LATT  1
SYMM 1/2-X, 1/2+Y, 1/2-Z
SFAC C H N O
UNIT 16 16 16 16
L.S. 10
BOND
LIST 6
FMAP 2
PLAN 20
N001  3  0.65920  0.07607  0.72094 11.00000  0.04189   6.50
C002  1  0.55135  0.44681  0.33959 11.00000  0.03732   6.34
C003  1  0.78003  0.26461  0.60693 11.00000  0.04522   6.18
C004  1  0.58738  0.35644  0.43789 11.00000  0.03924   6.11
C005  1  0.46171  0.17017  0.55615 11.00000  0.04582   6.08
C006  1  0.67737  0.51425  0.27995 11.00000  0.04434   5.91
O007  4  0.85409  0.50462  0.30902 11.00000  0.05986   5.88
C008  1  0.75970  0.35884  0.51400 11.00000  0.04385   5.81
C009  1  0.63343  0.16691  0.62957 11.00000  0.04336   5.80
C00A  1  0.44072  0.26458  0.46107 11.00000  0.04752   5.76
C00B  1  0.59005  0.59788  0.17597 11.00000  0.05200   5.32
HKLF 4
END
