TITL SP14R08_expF_0_6_expS_0_5_SP14R08_a.res in Pn
REM Old TITL SP14R08 in P2(1)/n
REM SHELXT solution in Pn: R1 0.271, Rweak 0.244, Alpha 0.152
REM <I/s>   1.012 for  101 systematic absences,  Orientation as input
REM Formula found by SHELXT:  C12 N3 O4

CELL  0.71073   7.0200   9.2700  11.5600   90.000   97.670   90.000
ZERR   16.000   0.0014   0.0019   0.0023    0.000    0.030    0.000
LATT -1
SYMM 1/2+X, -Y, 1/2+Z
SFAC C H N O
UNIT 16 16 16 16
L.S. 10
BOND
LIST 6
FMAP 2
PLAN 20
O001  4  0.51324  0.80000  0.60387 11.00000  0.00010   7.81
N002  3  0.38057  0.73574  0.66437 11.00000  0.00010   7.39
C003  1  0.48271  0.90249  0.51558 11.00000  0.01356   6.79
N004  3  0.31064  0.89402  0.42776 11.00000  0.00010   6.77
N005  3  0.15607  0.15658  0.62458 11.00000  0.01260   6.58
C006  1  0.40802  0.23770  0.74693 11.00000  0.00323   6.32
C007  1  0.69586  0.42054  0.57720 11.00000  0.00766   6.28
C008  1  0.72406  0.33499  0.67715 11.00000  0.00708   5.58
C009  1  0.63006  0.98128  0.48415 11.00000  0.01511   5.42
C00A  1  0.84393  0.51174  0.55889 11.00000  0.00240   5.09
C00B  1  0.62624  1.06542  0.38847 11.00000  0.02278   5.08
C00C  1  0.26969  0.98602  0.33698 11.00000  0.02691   4.71
O00D  4  0.20792  0.74882  0.62891 11.00000  0.01665   4.61
O00E  4  0.39460  1.17516  0.22913 11.00000  0.02112   4.03
C00F  1  0.65488  0.61302  0.39114 11.00000  0.01077   3.85
C00G  1  0.50875  0.50943  0.39951 11.00000  0.01437   3.69
O00H  4  0.46717  0.63414  0.77087 11.00000  0.04143   3.57
C00I  1  0.53933  0.41497  0.49809 11.00000  0.00901   3.40
C00J  1  0.42514  1.08045  0.31786 11.00000  0.02425   3.33
HKLF 4
END
