TITL SP14R08_expF_1_4_expS_1_4_SP14R08_b.res in Pn
REM Old TITL SP14R08 in P2(1)/n
REM SHELXT solution in Pn: R1 0.305, Rweak 0.018, Alpha 0.011
REM <I/s>   1.638 for  101 systematic absences,  Orientation as input
REM Formula found by SHELXT:  C15 N5 O2

CELL  0.71073   7.0200   9.2700  11.5600   90.000   97.670   90.000
ZERR   16.000   0.0014   0.0019   0.0023    0.000    0.030    0.000
LATT -1
SYMM 1/2+X, -Y, 1/2+Z
SFAC C H N O
UNIT 16 16 16 16
L.S. 10
BOND
LIST 6
FMAP 2
PLAN 20
N001  3  0.40954  0.10363  0.56086 11.00000  0.05073   7.89
N002  3  0.44538  0.48557  0.46251 11.00000  0.05852   7.38
N003  3  0.63897  0.57974  0.63233 11.00000  0.04789   7.24
N004  3  0.65733  0.67940  0.72163 11.00000  0.05085   6.95
N005  3  0.22290  0.01460  0.39468 11.00000  0.04885   6.70
C006  1  0.32172  0.25890  0.72005 11.00000  0.03975   6.65
C007  1  0.54842  0.30111  0.33940 11.00000  0.03891   6.34
O008  4  0.85205  0.24097  0.31465 11.00000  0.06372   6.10
C009  1  0.76193  0.39256  0.51613 11.00000  0.03588   6.09
C00A  1  0.46495  0.57463  0.56160 11.00000  0.05064   6.02
C00B  1  0.53714 -0.08603  0.44845 11.00000  0.04421   5.95
C00C  1  0.41307  0.34718  0.82308 11.00000  0.05235   5.91
C00D  1  0.44168  0.19791  0.65905 11.00000  0.03953   5.89
C00E  1  0.33447 -0.16958  0.27756 11.00000  0.02972   5.81
O00F  4  0.14795  0.25153  0.69584 11.00000  0.05414   5.65
C00G  1  0.78740  0.48942  0.61226 11.00000  0.05085   5.35
C00H  1  0.24251  0.10674  0.48707 11.00000  0.05573   5.04
C00I  1  0.68064  0.23290  0.27954 11.00000  0.05012   4.85
C00J  1  0.59411  0.14996  0.17692 11.00000  0.05259   4.45
C00K  1  0.37661 -0.08442  0.37340 11.00000  0.05212   4.14
C00L  1  0.56240  0.01551  0.54202 11.00000  0.05164   3.83
C00M  1  0.58655  0.39245  0.43850 11.00000  0.04328   3.77
HKLF 4
END
