TITL SP14R08_expF_0_6_expS_0_7_SP14R08_a.res in Pn
REM Old TITL SP14R08 in P2(1)/n
REM SHELXT solution in Pn: R1 0.263, Rweak 0.261, Alpha 0.140
REM <I/s>   1.110 for   97 systematic absences,  Orientation as input
REM Formula found by SHELXT:  C11 N2 O6

CELL  0.71073   7.0200   9.2700  11.5600   90.000   97.670   90.000
ZERR   16.000   0.0014   0.0019   0.0023    0.000    0.030    0.000
LATT -1
SYMM 1/2+X, -Y, 1/2+Z
SFAC C H N O
UNIT 16 16 16 16
L.S. 10
BOND
LIST 6
FMAP 2
PLAN 20
N001  3  0.86280  0.41295  0.42712 11.00000  0.00010   9.02
O002  4  0.83053  0.32441  0.33165 11.00000  0.00010   8.99
O003  4  0.33200  0.73613  0.35785 11.00000  0.02096   8.98
O004  4  0.07899  0.89338  0.49280 11.00000  0.00116   8.55
O005  4  0.08357  0.64961  0.22810 11.00000  0.00010   8.01
N006  3  1.04851  0.51503  0.59316 11.00000  0.00010   7.00
C007  1  0.73396  0.60346  0.54810 11.00000  0.00010   6.35
C008  1  0.94785  0.69378  0.71447 11.00000  0.00010   6.30
C009  1  0.80632  0.76775  0.77190 11.00000  0.00540   6.22
C00A  1  0.16341  0.73591  0.33561 11.00000  0.00544   5.87
C00B  1  0.05209  0.79592  0.39436 11.00000  0.00505   5.85
C00C  1  0.27781  0.99485  0.66578 11.00000  0.01890   5.78
C00D  1 -0.04851  1.07952  0.60868 11.00000  0.00010   5.74
C00E  1  0.71505  0.51708  0.44304 11.00000  0.00291   5.60
C00F  1  0.25758  0.88493  0.57987 11.00000  0.00422   4.65
C00G  1  1.02091  0.41362  0.50425 11.00000  0.04580   4.55
O00H  4  0.62485  0.75260  0.73807 11.00000  0.00619   3.26
O00I  4  0.56904  0.56346  0.36605 11.00000  0.11844   3.23
C00J  1  0.12897  1.06854  0.67961 11.00000  0.03033   3.16
HKLF 4
END
