TITL SP14R08_expF_1_0_expS_0_5_SP14R08_a.res in P2(1)/n
REM Old TITL SP14R08 in P2(1)/n
REM SHELXT solution in P2(1)/n: R1 0.271, Rweak 0.060, Alpha 0.102
REM <I/s>   1.457 for  107 systematic absences,  Orientation as input
REM Formula found by SHELXT:  C10 O

CELL  0.71073   7.0200   9.2700  11.5600   90.000   97.670   90.000
ZERR   16.000   0.0014   0.0019   0.0023    0.000    0.030    0.000
LATT  1
SYMM 1/2-X, 1/2+Y, 1/2-Z
SFAC C H N O
UNIT 16 16 16 16
L.S. 10
BOND
LIST 6
FMAP 2
PLAN 20
C001  1  0.55065  0.55033  0.33915 11.00000  0.02482   6.49
C002  1  0.66221  0.92458  0.72162 11.00000  0.02487   6.25
C003  1  0.67893  0.48722  0.27891 11.00000  0.02747   6.25
O004  4  0.85130  0.49534  0.30874 11.00000  0.05194   6.24
C005  1  0.78347  0.73757  0.61042 11.00000  0.03239   6.13
C006  1  0.58765  0.64341  0.43819 11.00000  0.02891   5.92
C007  1  0.63448  0.82943  0.63054 11.00000  0.03046   5.88
C008  1  0.46098  0.82922  0.55493 11.00000  0.03521   5.67
C009  1  0.75805  0.64302  0.51480 11.00000  0.03170   5.65
C00A  1  0.44045  0.73479  0.45917 11.00000  0.03353   5.55
C00B  1  0.59324  0.39972  0.17653 11.00000  0.03330   5.47
HKLF 4
END
