TITL SP14R08_expF_1_2_expS_0_8_SP14R08_a.res in P2(1)/n
REM Old TITL SP14R08 in P2(1)/n
REM SHELXT solution in P2(1)/n: R1 0.279, Rweak 0.030, Alpha 0.064
REM <I/s>   1.650 for  107 systematic absences,  Orientation as input
REM Formula found by SHELXT:  C10 O

CELL  0.71073   7.0200   9.2700  11.5600   90.000   97.670   90.000
ZERR   16.000   0.0014   0.0019   0.0023    0.000    0.030    0.000
LATT  1
SYMM 1/2-X, 1/2+Y, 1/2-Z
SFAC C H N O
UNIT 16 16 16 16
L.S. 10
BOND
LIST 6
FMAP 2
PLAN 20
C001  1  0.44953  0.44760  0.66021 11.00000  0.03380   6.39
C002  1  0.33899  0.07573  0.27866 11.00000  0.03101   6.36
C003  1  0.21759  0.26201  0.39014 11.00000  0.03915   6.18
O004  4  0.14912  0.50492  0.69146 11.00000  0.06404   6.16
C005  1  0.41328  0.35567  0.56141 11.00000  0.03592   6.10
C006  1  0.32176  0.51248  0.72087 11.00000  0.03616   5.96
C007  1  0.53791  0.17075  0.44400 11.00000  0.04197   5.91
C008  1  0.36583  0.16933  0.37033 11.00000  0.03759   5.79
C009  1  0.24077  0.35583  0.48579 11.00000  0.03942   5.68
C00A  1  0.55869  0.26413  0.53990 11.00000  0.04117   5.64
C00B  1  0.40672  0.59854  0.82366 11.00000  0.04235   5.41
HKLF 4
END
