TITL SP14R08_expF_0_8_expS_0_6_SP14R08_b.res in Pn
REM Old TITL SP14R08 in P2(1)/n
REM SHELXT solution in Pn: R1 0.257, Rweak 0.111, Alpha 0.104
REM <I/s>   1.108 for  101 systematic absences,  Orientation as input
REM Formula found by SHELXT:  C12 N4 O4

CELL  0.71073   7.0200   9.2700  11.5600   90.000   97.670   90.000
ZERR   16.000   0.0014   0.0019   0.0023    0.000    0.030    0.000
LATT -1
SYMM 1/2+X, -Y, 1/2+Z
SFAC C H N O
UNIT 16 16 16 16
L.S. 10
BOND
LIST 6
FMAP 2
PLAN 20
N001  3  0.36195  0.41947  0.37181 11.00000  0.00355  10.75
C002  1  0.67576  0.73585  0.28373 11.00000  0.00010  10.17
N003  3  0.58655  0.89577  0.44100 11.00000  0.02710   8.50
O004  4  0.44789  0.69845  0.66712 11.00000  0.03787   7.67
O005  4  0.22095  0.51547  0.39209 11.00000  0.02894   7.64
O006  4  0.85019  0.74660  0.31449 11.00000  0.02229   6.96
N007  3  0.55761  0.50587  0.54789 11.00000  0.02340   6.83
N008  3  0.22967  0.60829  0.48593 11.00000  0.02632   6.80
C009  1  0.65911  1.17244  0.71943 11.00000  0.01554   6.32
C00A  1  0.14981  0.75826  0.69782 11.00000  0.02242   6.02
C00B  1  0.45414  1.07275  0.56345 11.00000  0.03443   5.96
C00C  1  0.33070  0.32531  0.27514 11.00000  0.01230   5.95
C00D  1  0.40269  0.85313  0.82409 11.00000  0.01526   5.88
C00E  1  0.54943  0.80050  0.34533 11.00000  0.01900   5.56
C00F  1  0.58570  0.65350  0.17591 11.00000  0.03828   5.53
C00G  1  0.52986  0.41218  0.45337 11.00000  0.02357   5.06
C00H  1  0.74372  0.89157  0.51467 11.00000  0.02926   4.93
O00I  4  0.80546  0.99810  0.61091 11.00000  0.06451   4.74
C00J  1  0.43416  0.97000  0.46690 11.00000  0.02328   4.51
C00K  1  0.41430  0.61269  0.56174 11.00000  0.02876   3.28
HKLF 4
END
