TITL SP14R08_expF_0_7_expS_1_3_SP14R08_a.res in Pn
REM Old TITL SP14R08 in P2(1)/n
REM SHELXT solution in Pn: R1 0.248, Rweak 0.169, Alpha 0.139
REM <I/s>   1.389 for   97 systematic absences,  Orientation as input
REM Formula found by SHELXT:  C13 N4 O3

CELL  0.71073   7.0200   9.2700  11.5600   90.000   97.670   90.000
ZERR   16.000   0.0014   0.0019   0.0023    0.000    0.030    0.000
LATT -1
SYMM 1/2+X, -Y, 1/2+Z
SFAC C H N O
UNIT 16 16 16 16
L.S. 10
BOND
LIST 6
FMAP 2
PLAN 20
O001  4  0.85343  0.26377  0.29935 11.00000  0.01653   8.13
O002  4  0.46175  0.01360  0.46036 11.00000  0.00736   7.70
N003  3  0.47270 -0.07853  0.55280 11.00000  0.00225   7.37
N004  3  0.35695  0.67884  0.28034 11.00000  0.01930   6.91
N005  3  0.42508  0.39026  0.55709 11.00000  0.02470   6.86
N006  3  0.24389  0.47660  0.38871 11.00000  0.01519   6.82
C007  1  0.42230  0.14534  0.82011 11.00000  0.01794   6.19
C008  1  0.45865  0.29750  0.65210 11.00000  0.00739   6.07
C009  1  0.32795  0.23939  0.70834 11.00000  0.01292   5.98
C00A  1  0.65165 -0.08008  0.63198 11.00000  0.00180   5.93
C00B  1  0.56707  0.19630  0.33203 11.00000  0.01434   5.77
C00C  1  0.76217  0.11418  0.52060 11.00000  0.00774   5.48
C00D  1  0.38493  0.57910  0.37703 11.00000  0.03488   4.72
C00E  1  0.69376  0.26831  0.27244 11.00000  0.01437   4.58
C00F  1  0.24382  0.39784  0.49213 11.00000  0.00039   4.55
C00G  1  0.60794  0.34556  0.17989 11.00000  0.00926   4.27
C00H  1  0.69194 -0.17633  0.72363 11.00000  0.00378   4.00
C00I  1  0.80022  0.00883  0.60822 11.00000  0.01595   3.94
O00J  4  0.14657  0.24967  0.68047 11.00000  0.01830   3.83
C00K  1  0.60920  0.10665  0.43403 11.00000  0.03096   3.40
HKLF 4
END
