TITL SP14R08_expF_1_1_expS_1_5_SP14R08_a.res in P2(1)/n
REM Old TITL SP14R08 in P2(1)/n
REM SHELXT solution in P2(1)/n: R1 0.279, Rweak 0.040, Alpha 0.079
REM <I/s>   1.580 for  107 systematic absences,  Orientation as input
REM Formula found by SHELXT:  C10 O

CELL  0.71073   7.0200   9.2700  11.5600   90.000   97.670   90.000
ZERR   16.000   0.0014   0.0019   0.0023    0.000    0.030    0.000
LATT  1
SYMM 1/2-X, 1/2+Y, 1/2-Z
SFAC C H N O
UNIT 16 16 16 16
L.S. 10
BOND
LIST 6
FMAP 2
PLAN 20
C001  1  0.44879  0.55054  0.66050 11.00000  0.02448   6.47
C002  1  0.33607  0.92479  0.27823 11.00000  0.02229   6.39
O003  4  0.14838  0.49403  0.69111 11.00000  0.04230   6.19
C004  1  0.32013  0.48704  0.72084 11.00000  0.02803   6.14
C005  1  0.41189  0.64444  0.56175 11.00000  0.02916   6.03
C006  1  0.21836  0.73588  0.39094 11.00000  0.02874   6.00
C007  1  0.36800  0.82855  0.37055 11.00000  0.03020   5.94
C008  1  0.53695  0.82871  0.44423 11.00000  0.03220   5.72
C009  1  0.24040  0.64285  0.48613 11.00000  0.02891   5.70
C00A  1  0.56068  0.73623  0.54048 11.00000  0.03220   5.52
C00B  1  0.40912  0.39843  0.82333 11.00000  0.03150   5.36
HKLF 4
END
