TITL SP14R08_expF_1_2_expS_0_9_SP14R08_a.res in P2(1)/n
REM Old TITL SP14R08 in P2(1)/n
REM SHELXT solution in P2(1)/n: R1 0.278, Rweak 0.030, Alpha 0.073
REM <I/s>   1.628 for  107 systematic absences,  Orientation as input
REM Formula found by SHELXT:  C10 O

CELL  0.71073   7.0200   9.2700  11.5600   90.000   97.670   90.000
ZERR   16.000   0.0014   0.0019   0.0023    0.000    0.030    0.000
LATT  1
SYMM 1/2-X, 1/2+Y, 1/2-Z
SFAC C H N O
UNIT 16 16 16 16
L.S. 10
BOND
LIST 6
FMAP 2
PLAN 20
C001  1  0.66139  0.92427  0.72142 11.00000  0.03013   6.41
C002  1  0.55050  0.55238  0.33983 11.00000  0.03302   6.41
C003  1  0.67849  0.48760  0.27904 11.00000  0.03561   6.11
O004  4  0.85088  0.49488  0.30857 11.00000  0.06139   6.07
C005  1  0.78242  0.73780  0.60977 11.00000  0.03822   6.04
C006  1  0.58692  0.64432  0.43860 11.00000  0.03543   6.02
C007  1  0.46239  0.82927  0.55609 11.00000  0.04140   5.85
C008  1  0.63389  0.83060  0.62969 11.00000  0.03705   5.84
C009  1  0.75927  0.64406  0.51419 11.00000  0.03818   5.73
C00A  1  0.44103  0.73592  0.46005 11.00000  0.04029   5.50
C00B  1  0.59295  0.40143  0.17642 11.00000  0.04152   5.34
HKLF 4
END
