TITL SP14R08_expF_1_2_expS_1_2_SP14R08_a.res in P2(1)/n
REM Old TITL SP14R08 in P2(1)/n
REM SHELXT solution in P2(1)/n: R1 0.282, Rweak 0.030, Alpha 0.055
REM <I/s>   1.614 for  107 systematic absences,  Orientation as input
REM Formula found by SHELXT:  C10 O

CELL  0.71073   7.0200   9.2700  11.5600   90.000   97.670   90.000
ZERR   16.000   0.0014   0.0019   0.0023    0.000    0.030    0.000
LATT  1
SYMM 1/2-X, 1/2+Y, 1/2-Z
SFAC C H N O
UNIT 16 16 16 16
L.S. 10
BOND
LIST 6
FMAP 2
PLAN 20
C001  1  0.55107  0.44780  0.34006 11.00000  0.03029   6.42
C002  1  0.66238  0.07572  0.72164 11.00000  0.02730   6.35
O003  4  0.85104  0.50575  0.30890 11.00000  0.05340   6.13
C004  1  0.58766  0.35549  0.43866 11.00000  0.03342   6.07
C005  1  0.67926  0.51218  0.27907 11.00000  0.03365   6.06
C006  1  0.78243  0.26289  0.60948 11.00000  0.03521   6.03
C007  1  0.63322  0.16987  0.62968 11.00000  0.03519   5.89
C008  1  0.46294  0.17086  0.55620 11.00000  0.03907   5.78
C009  1  0.75976  0.35609  0.51412 11.00000  0.03471   5.76
C00A  1  0.44054  0.26395  0.46014 11.00000  0.03781   5.61
C00B  1  0.59181  0.59915  0.17657 11.00000  0.03875   5.37
HKLF 4
END
