TITL SP14R08_expF_0_6_expS_0_6_SP14R08_a.res in Pn
REM Old TITL SP14R08 in P2(1)/n
REM SHELXT solution in Pn: R1 0.268, Rweak 0.254, Alpha 0.194
REM <I/s>   1.042 for  101 systematic absences,  Orientation as input
REM Formula found by SHELXT:  C8 N4 O6

CELL  0.71073   7.0200   9.2700  11.5600   90.000   97.670   90.000
ZERR   16.000   0.0014   0.0019   0.0023    0.000    0.030    0.000
LATT -1
SYMM 1/2+X, -Y, 1/2+Z
SFAC C H N O
UNIT 16 16 16 16
L.S. 10
BOND
LIST 6
FMAP 2
PLAN 20
O001  4  0.76371  0.89055  0.56540 11.00000  0.00245  10.40
C002  1  0.32246  0.76488  0.76720 11.00000  0.00010  10.27
O003  4  0.59040  0.65391  0.22485 11.00000  0.00107   9.62
O004  4  0.56364  0.51545  0.58748 11.00000  0.00285   8.54
O005  4  0.78485  0.99745  0.65820 11.00000  0.04301   7.69
N006  3  0.57506  0.89238  0.48304 11.00000  0.01871   7.34
O007  4  0.54197  0.80378  0.38876 11.00000  0.03378   7.31
O008  4  0.14951  0.76653  0.73538 11.00000  0.00698   7.04
N009  3  0.44112  0.69978  0.70480 11.00000  0.00887   6.78
N00A  3  0.85049  0.75360  0.35650 11.00000  0.00744   6.71
N00B  3  0.33057  0.31896  0.32571 11.00000  0.00304   6.56
C00C  1  0.65314  1.16509  0.77515 11.00000  0.01261   6.47
C00D  1  0.64615  1.07507  0.67863 11.00000  0.00265   6.42
C00E  1  0.53391  0.42105  0.49117 11.00000  0.00010   6.24
C00F  1  0.39137  0.41555  0.42210 11.00000  0.00781   5.53
C00G  1  0.22323  0.51892  0.43399 11.00000  0.00010   5.48
C00H  1  0.45308  1.07607  0.60027 11.00000  0.01818   4.92
C00I  1  0.40558  0.60930  0.60796 11.00000  0.01186   3.95
HKLF 4
END
