TITL SP14R08_expF_0_7_expS_0_7_SP14R08_a.res in Pn
REM Old TITL SP14R08 in P2(1)/n
REM SHELXT solution in Pn: R1 0.243, Rweak 0.170, Alpha 0.135
REM <I/s>   1.099 for  101 systematic absences,  Orientation as input
REM Formula found by SHELXT:  C10 N4 O6

CELL  0.71073   7.0200   9.2700  11.5600   90.000   97.670   90.000
ZERR   16.000   0.0014   0.0019   0.0023    0.000    0.030    0.000
LATT -1
SYMM 1/2+X, -Y, 1/2+Z
SFAC C H N O
UNIT 16 16 16 16
L.S. 10
BOND
LIST 6
FMAP 2
PLAN 20
O001  4  0.67065 -0.16888  0.73286 11.00000  0.01175   9.83
O002  4  0.78779  0.01503  0.61692 11.00000  0.00010   9.11
O003  4  0.46557 -0.08122  0.56093 11.00000  0.00300   8.59
O004  4  0.45742  0.29468  0.66793 11.00000  0.03024   8.47
N005  3  0.45316  0.01996  0.46760 11.00000  0.01918   7.32
O006  4  0.14822  0.25030  0.69586 11.00000  0.01662   6.95
N007  3  0.58511  0.11273  0.44668 11.00000  0.01453   6.84
O008  4  0.85178  0.26441  0.31608 11.00000  0.02312   6.76
N009  3  0.23855  0.39589  0.49644 11.00000  0.01726   6.55
C00A  1  0.40357  0.14979  0.82305 11.00000  0.00356   6.47
C00B  1  0.68930  0.25617  0.28760 11.00000  0.00685   6.25
C00C  1  0.36617  0.58346  0.37834 11.00000  0.01491   6.20
C00D  1  0.33099  0.22534  0.72533 11.00000  0.01115   5.87
C00E  1  0.63411 -0.07666  0.63898 11.00000  0.01277   5.45
C00F  1  0.56007  0.19627  0.34716 11.00000  0.00310   5.27
C00G  1  0.75101  0.11081  0.52779 11.00000  0.01353   5.13
C00H  1  0.41006  0.39701  0.56633 11.00000  0.01767   4.90
C00I  1  0.58734  0.35142  0.17695 11.00000  0.01146   4.58
C00J  1  0.57270  0.49060  0.54756 11.00000  0.02282   3.49
N00K  3  0.34374  0.68517  0.29172 11.00000  0.02783   3.02
HKLF 4
END
