TITL SP14R08_expF_0_7_expS_0_9_SP14R08_a.res in Pn
REM Old TITL SP14R08 in P2(1)/n
REM SHELXT solution in Pn: R1 0.240, Rweak 0.176, Alpha 0.115
REM <I/s>   1.170 for  101 systematic absences,  Orientation as input
REM Formula found by SHELXT:  C11 N5 O5

CELL  0.71073   7.0200   9.2700  11.5600   90.000   97.670   90.000
ZERR   16.000   0.0014   0.0019   0.0023    0.000    0.030    0.000
LATT -1
SYMM 1/2+X, -Y, 1/2+Z
SFAC C H N O
UNIT 16 16 16 16
L.S. 10
BOND
LIST 6
FMAP 2
PLAN 20
O001  4  0.15121  0.73870  0.68659 11.00000  0.01240  10.50
O002  4  0.67113  0.32668  0.71924 11.00000  0.00010   9.90
O003  4  0.46921  0.42745  0.55997 11.00000  0.02306   8.14
O004  4  0.77869  0.51675  0.61137 11.00000  0.02325   7.99
N005  3  0.59307  0.60353  0.43930 11.00000  0.00449   7.92
N006  3  0.24944  0.89135  0.48692 11.00000  0.04154   7.44
C007  1  0.33200  0.72759  0.71064 11.00000  0.00809   7.18
N008  3  0.56348  0.70059  0.33468 11.00000  0.01605   7.11
N009  3  0.46210  0.79831  0.65674 11.00000  0.01281   7.05
N00A  3  0.42151  0.63988  0.82270 11.00000  0.01706   6.50
C00B  1  0.38071  1.08502  0.37280 11.00000  0.01624   6.35
C00C  1  0.55503  0.98908  0.53787 11.00000  0.01467   5.89
C00D  1  0.42923  0.51641  0.45483 11.00000  0.01192   5.80
C00E  1  0.60295  0.84552  0.17730 11.00000  0.01242   5.70
C00F  1  0.64716  0.42607  0.63271 11.00000  0.01613   5.48
C00G  1  0.68867  0.75525  0.27198 11.00000  0.00847   5.17
C00H  1  0.21066  0.99262  0.38852 11.00000  0.01873   4.42
C00I  1  0.76491  0.60440  0.51564 11.00000  0.00068   4.12
C00J  1  0.41403  0.88408  0.56396 11.00000  0.03535   3.50
C00K  1  0.54826  1.08867  0.45261 11.00000  0.03118   3.42
O00L  4  0.84879  0.74484  0.30267 11.00000  0.04250   3.02
HKLF 4
END
