TITL SP14R08_expF_0_7_expS_1_3_SP14R08_b.res in P2(1)
REM Old TITL SP14R08 in P2(1)/n
REM SHELXT solution in P2(1): R1 0.259, Rweak 0.199, Alpha 0.181
REM <I/s>   0.641 for    6 systematic absences,  Orientation as input
REM Formula found by SHELXT:  C12 N2 O7

CELL  0.71073   7.0200   9.2700  11.5600   90.000   97.670   90.000
ZERR   16.000   0.0014   0.0019   0.0023    0.000    0.030    0.000
LATT -1
SYMM -X, 1/2+Y, -Z
SFAC C H N O
UNIT 16 16 16 16
L.S. 10
BOND
LIST 6
FMAP 2
PLAN 20
N001  3  0.87929  0.58712  0.37581 11.00000  0.00010   9.74
O002  4  0.80092  0.31369  0.08636 11.00000  0.02213   8.75
O003  4  0.41455  0.34671  0.97554 11.00000  0.01609   8.31
O004  4  0.54071  0.51738  0.86065 11.00000  0.01751   7.71
N005  3  0.82979  0.40294  0.19157 11.00000  0.00565   7.43
O006  4  0.84970  0.14918 -0.06722 11.00000  0.02213   7.34
O007  4  1.09371  0.24973  0.05864 11.00000  0.01951   7.27
C008  1  0.93724  0.23979  0.03749 11.00000  0.01266   6.52
C009  1  0.42799  0.77018  0.52639 11.00000  0.00175   6.41
O00A  4  0.61104  0.77185  0.56196 11.00000  0.01338   6.31
C00B  1  0.51325  0.61336  0.76347 11.00000  0.00117   6.07
C00C  1  0.70191  0.59806  0.30103 11.00000  0.00692   5.87
C00D  1  0.19436  0.52887  0.70866 11.00000  0.00010   5.78
C00E  1  0.21822  0.44806  0.81048 11.00000  0.02232   5.77
C00F  1  1.00647  0.39699  0.26199 11.00000  0.00816   5.74
C00G  1  0.68333  0.50742  0.21374 11.00000  0.02615   5.66
C00H  1  0.30297  0.71213  0.59057 11.00000  0.00538   5.35
C00I  1  0.35289  0.61337  0.68060 11.00000  0.03064   4.81
C00J  1  0.33575  0.85082  0.42271 11.00000  0.01577   4.61
C00K  1  1.01831  0.48577  0.36052 11.00000  0.00423   4.44
O00L  4  0.91742  0.69683  0.46558 11.00000  0.01744   4.39
HKLF 4
END
