TITL SP14R08_expF_1_1_expS_0_5_SP14R08_b.res in Pn
REM Old TITL SP14R08 in P2(1)/n
REM SHELXT solution in Pn: R1 0.248, Rweak 0.029, Alpha 0.040
REM <I/s>   1.324 for  101 systematic absences,  Orientation as input
REM Formula found by SHELXT:  C14 N4 O4

CELL  0.71073   7.0200   9.2700  11.5600   90.000   97.670   90.000
ZERR   16.000   0.0014   0.0019   0.0023    0.000    0.030    0.000
LATT -1
SYMM 1/2+X, -Y, 1/2+Z
SFAC C H N O
UNIT 16 16 16 16
L.S. 10
BOND
LIST 6
FMAP 2
PLAN 20
O001  4  0.04160  0.69813  0.33658 11.00000  0.04349   8.60
O002  4  0.24626  0.60469  0.51367 11.00000  0.03524   7.70
O003  4  0.64202  0.73814  0.69323 11.00000  0.05638   7.01
N004  3  0.15319  0.32483  0.72267 11.00000  0.03908   6.67
N005  3  1.02512  1.07446  0.44085 11.00000  0.03910   6.66
N006  3  0.28813  0.50797  0.61191 11.00000  0.05322   6.65
N007  3 -0.05828  0.51229  0.45452 11.00000  0.04896   6.61
C008  1  0.08986  0.85381  0.17733 11.00000  0.03768   6.46
C009  1  0.07812  0.59517  0.43208 11.00000  0.03645   6.37
C00A  1  0.87062  1.07659  0.37175 11.00000  0.03246   6.11
C00B  1  0.81320  0.73139  0.71284 11.00000  0.03470   6.10
C00C  1  0.82971  1.17147  0.27890 11.00000  0.02236   5.87
C00D  1  0.16887  0.75733  0.27356 11.00000  0.02748   5.80
C00E  1  0.71719  0.98371  0.38964 11.00000  0.02598   5.57
C00F  1  0.90379  0.88561  0.55677 11.00000  0.02150   5.44
O00G  4  0.34682  0.75129  0.31166 11.00000  0.04455   5.41
C00H  1  0.13748  0.41445  0.63283 11.00000  0.03242   5.38
C00I  1 -0.05659  0.41645  0.55169 11.00000  0.04431   5.04
C00J  1  1.05828  0.98403  0.53675 11.00000  0.03435   4.76
C00K  1  0.90401  0.65312  0.82267 11.00000  0.03716   4.16
C00L  1  0.93797  0.79982  0.65767 11.00000  0.03821   3.62
C00M  1  0.71098  0.88249  0.48605 11.00000  0.07635   3.52
HKLF 4
END
