TITL SP14R08_expF_1_0_expS_0_9_SP14R08_a.res in P2(1)/n
REM Old TITL SP14R08 in P2(1)/n
REM SHELXT solution in P2(1)/n: R1 0.269, Rweak 0.061, Alpha 0.126
REM <I/s>   1.398 for  107 systematic absences,  Orientation as input
REM Formula found by SHELXT:  C9 N O

CELL  0.71073   7.0200   9.2700  11.5600   90.000   97.670   90.000
ZERR   16.000   0.0014   0.0019   0.0023    0.000    0.030    0.000
LATT  1
SYMM 1/2-X, 1/2+Y, 1/2-Z
SFAC C H N O
UNIT 16 16 16 16
L.S. 10
BOND
LIST 6
FMAP 2
PLAN 20
N001  3  0.55066  0.55062  0.33895 11.00000  0.03061   6.52
O002  4  0.85047  0.49383  0.30857 11.00000  0.04157   6.43
C003  1  0.78253  0.73634  0.60988 11.00000  0.02638   6.28
C004  1  0.66391  0.92554  0.72193 11.00000  0.01954   6.25
C005  1  0.67890  0.48819  0.27894 11.00000  0.02312   6.04
C006  1  0.58795  0.64314  0.43847 11.00000  0.02508   5.96
C007  1  0.63330  0.82901  0.63037 11.00000  0.02655   5.76
C008  1  0.46158  0.82907  0.55544 11.00000  0.03045   5.76
C009  1  0.75873  0.64320  0.51470 11.00000  0.02589   5.69
C00A  1  0.43923  0.73534  0.45917 11.00000  0.02847   5.67
C00B  1  0.59221  0.39910  0.17672 11.00000  0.02795   5.60
HKLF 4
END
