TITL SP14R08_expF_1_5_expS_0_8_SP14R08_a.res in P2(1)/n
REM Old TITL SP14R08 in P2(1)/n
REM SHELXT solution in P2(1)/n: R1 0.334, Rweak 0.019, Alpha 0.032
REM <I/s>   1.935 for  107 systematic absences,  Orientation as input
REM Formula found by SHELXT:  C10 O

CELL  0.71073   7.0200   9.2700  11.5600   90.000   97.670   90.000
ZERR   16.000   0.0014   0.0019   0.0023    0.000    0.030    0.000
LATT  1
SYMM 1/2-X, 1/2+Y, 1/2-Z
SFAC C H N O
UNIT 16 16 16 16
L.S. 10
BOND
LIST 6
FMAP 2
PLAN 20
C001  1  0.65956  0.07771  0.72071 11.00000  0.03826   6.47
C002  1  0.55133  0.44691  0.33958 11.00000  0.04481   6.31
C003  1  0.77902  0.26340  0.60708 11.00000  0.05190   6.20
C004  1  0.46195  0.16891  0.55605 11.00000  0.05445   6.14
C005  1  0.58702  0.35641  0.43785 11.00000  0.04551   6.10
O006  4  0.85273  0.50504  0.30865 11.00000  0.07371   5.92
C007  1  0.44246  0.26472  0.46070 11.00000  0.05695   5.76
C008  1  0.75882  0.35862  0.51338 11.00000  0.05255   5.75
C009  1  0.67661  0.51615  0.27910 11.00000  0.05256   5.74
C00A  1  0.63541  0.16737  0.62962 11.00000  0.05148   5.67
C00B  1  0.59294  0.59658  0.17607 11.00000  0.05973   5.32
HKLF 4
END
