TITL SP14R08_expF_1_1_expS_1_2_SP14R08_b.res in Pn
REM Old TITL SP14R08 in P2(1)/n
REM SHELXT solution in Pn: R1 0.236, Rweak 0.037, Alpha 0.040
REM <I/s>   1.489 for  101 systematic absences,  Orientation as input
REM Formula found by SHELXT:  C12 N5 O5

CELL  0.71073   7.0200   9.2700  11.5600   90.000   97.670   90.000
ZERR   16.000   0.0014   0.0019   0.0023    0.000    0.030    0.000
LATT -1
SYMM 1/2+X, -Y, 1/2+Z
SFAC C H N O
UNIT 16 16 16 16
L.S. 10
BOND
LIST 6
FMAP 2
PLAN 20
N001  3  0.41616  0.89244  0.56527 11.00000  0.03176   8.85
O002  4  0.22229  0.98490  0.39973 11.00000  0.03221   8.74
O003  4  0.54014  0.70041  0.34007 11.00000  0.04792   8.66
O004  4  0.85128  0.75581  0.31291 11.00000  0.04936   8.06
O005  4  0.33616  1.16837  0.28099 11.00000  0.02391   7.61
N006  3  0.44733  0.50822  0.46383 11.00000  0.03668   7.43
N007  3  0.54210  1.08186  0.45374 11.00000  0.03495   7.06
C008  1  0.32540  0.74435  0.72370 11.00000  0.02543   6.81
N009  3  0.41301  0.64763  0.82302 11.00000  0.03807   6.70
N00A  3  0.63634  0.41494  0.63411 11.00000  0.03324   6.57
C00B  1  0.76657  0.60382  0.52044 11.00000  0.01973   6.43
C00C  1  0.46630  0.42340  0.56572 11.00000  0.03914   6.40
C00D  1  0.66049  0.31491  0.72541 11.00000  0.03812   6.04
C00E  1  0.68280  0.77060  0.28261 11.00000  0.02976   5.77
C00F  1  0.37342  1.07623  0.37323 11.00000  0.03318   5.51
C00G  1  0.24958  0.88898  0.49128 11.00000  0.03717   5.50
O00H  4  0.14872  0.74441  0.69577 11.00000  0.03308   5.28
C00I  1  0.44005  0.80123  0.66179 11.00000  0.01474   5.23
C00J  1  0.59752  0.85143  0.17698 11.00000  0.03511   5.17
C00K  1  0.56575  0.98026  0.54423 11.00000  0.02991   4.85
C00L  1  0.78489  0.51038  0.62234 11.00000  0.04512   4.70
C00M  1  0.59097  0.60631  0.44192 11.00000  0.02965   4.16
HKLF 4
END
