TITL SP14R08_expF_0_9_expS_1_4_SP14R08_c.res in P2(1)
REM Old TITL SP14R08 in P2(1)/n
REM SHELXT solution in P2(1): R1 0.244, Rweak 0.074, Alpha 0.149
REM <I/s>   0.944 for    6 systematic absences,  Orientation as input
REM Formula found by SHELXT:  C14 N4 O4

CELL  0.71073   7.0200   9.2700  11.5600   90.000   97.670   90.000
ZERR   16.000   0.0014   0.0019   0.0023    0.000    0.030    0.000
LATT -1
SYMM -X, 1/2+Y, -Z
SFAC C H N O
UNIT 16 16 16 16
L.S. 10
BOND
LIST 6
FMAP 2
PLAN 20
O001  4  0.39568  0.75682  0.43968 11.00000  0.02001   8.26
O002  4  0.19745  0.30632  0.90753 11.00000  0.03090   7.90
O003  4  0.08210  0.68696  0.53131 11.00000  0.03541   7.21
N004  3  0.79383  0.43637  0.19038 11.00000  0.01867   7.12
N005  3  0.15068  0.14820  1.07028 11.00000  0.03114   7.05
C006  1  0.11923  0.58344  0.62205 11.00000  0.01600   6.99
N007  3 -0.03011  0.49350  0.64248 11.00000  0.02300   6.62
N008  3  0.66289  0.61027  0.31686 11.00000  0.01606   6.61
C009  1  0.56590  0.76680  0.46754 11.00000  0.01466   6.41
C00A  1  0.49454  0.61628  0.23698 11.00000  0.02524   6.27
C00B  1  0.07747  0.24084  0.97313 11.00000  0.02544   6.21
C00C  1  0.46908  0.52463  0.13547 11.00000  0.02756   6.18
C00D  1  0.31301  0.50262  0.79547 11.00000  0.02500   5.74
C00E  1  0.58617  0.33819  0.02580 11.00000  0.01100   5.69
C00F  1  0.80892  0.52823  0.28889 11.00000  0.02046   5.67
C00G  1  0.15969  0.39718  0.80070 11.00000  0.03553   5.57
C00H  1  0.69958  0.70804  0.41094 11.00000  0.01757   5.23
C00I  1 -0.01377  0.40310  0.73566 11.00000  0.01488   5.17
C00J  1  0.61436  0.42350  0.11565 11.00000  0.03292   5.07
O00K  4 -0.09484  0.23928  0.94133 11.00000  0.03829   4.95
C00L  1  0.28210  0.59607  0.70175 11.00000  0.03048   4.89
C00M  1  0.66402  0.85180  0.57673 11.00000  0.01975   4.23
HKLF 4
END
