TITL SP14R08_expF_1_4_expS_0_6_SP14R08_a.res in P2(1)/n
REM Old TITL SP14R08 in P2(1)/n
REM SHELXT solution in P2(1)/n: R1 0.312, Rweak 0.021, Alpha 0.045
REM <I/s>   1.404 for  107 systematic absences,  Orientation as input
REM Formula found by SHELXT:  C9 N O

CELL  0.71073   7.0200   9.2700  11.5600   90.000   97.670   90.000
ZERR   16.000   0.0014   0.0019   0.0023    0.000    0.030    0.000
LATT  1
SYMM 1/2-X, 1/2+Y, 1/2-Z
SFAC C H N O
UNIT 16 16 16 16
L.S. 10
BOND
LIST 6
FMAP 2
PLAN 20
N001  3  0.65746  0.07519  0.72143 11.00000  0.04807   6.53
C002  1  0.55262  0.44755  0.33968 11.00000  0.04077   6.43
C003  1  0.78092  0.26242  0.60890 11.00000  0.04788   6.15
C004  1  0.58821  0.35604  0.43838 11.00000  0.04331   6.00
O005  4  0.85163  0.50446  0.30926 11.00000  0.06940   5.99
C006  1  0.67755  0.51343  0.27907 11.00000  0.04454   5.98
C007  1  0.46364  0.16911  0.55638 11.00000  0.04831   5.95
C008  1  0.63362  0.16845  0.62890 11.00000  0.04324   5.77
C009  1  0.75996  0.35709  0.51403 11.00000  0.04751   5.71
C00A  1  0.44159  0.26323  0.45932 11.00000  0.05365   5.67
C00B  1  0.59170  0.59743  0.17603 11.00000  0.05274   5.30
HKLF 4
END
