TITL SP14R08_expF_1_1_expS_1_4_SP14R08_c.res in Pn
REM Old TITL SP14R08 in P2(1)/n
REM SHELXT solution in Pn: R1 0.255, Rweak 0.037, Alpha 0.035
REM <I/s>   1.568 for  101 systematic absences,  Orientation as input
REM Formula found by SHELXT:  C11 N6 O4

CELL  0.71073   7.0200   9.2700  11.5600   90.000   97.670   90.000
ZERR   16.000   0.0014   0.0019   0.0023    0.000    0.030    0.000
LATT -1
SYMM 1/2+X, -Y, 1/2+Z
SFAC C H N O
UNIT 16 16 16 16
L.S. 10
BOND
LIST 6
FMAP 2
PLAN 20
N001  3  0.08784  0.60653  0.43637 11.00000  0.00609   9.66
N002  3  0.86879  1.08097  0.36790 11.00000  0.03221   9.08
O003  4  1.05853  0.98460  0.54089 11.00000  0.04165   8.40
C004  1  0.18144  0.75862  0.28007 11.00000  0.02422   8.15
O005  4  0.95313  0.80628  0.65639 11.00000  0.04848   7.72
N006  3 -0.03339  0.42452  0.55403 11.00000  0.02317   7.43
N007  3  0.16645  0.32342  0.71874 11.00000  0.02391   7.11
O008  4  0.64880  0.74056  0.68893 11.00000  0.02791   7.00
N009  3  0.74675  0.89646  0.48157 11.00000  0.03609   6.67
N00A  3  0.27932  0.51468  0.60464 11.00000  0.02648   6.67
C00B  1  0.71275  0.98727  0.38544 11.00000  0.03501   6.46
C00C  1  0.83809  1.17306  0.27345 11.00000  0.02527   6.35
O00D  4  0.35247  0.75242  0.30896 11.00000  0.05056   6.24
C00E  1  0.05448  0.70217  0.33547 11.00000  0.01850   5.87
C00F  1  0.90879  0.64802  0.82339 11.00000  0.02966   5.80
C00G  1  0.09257  0.84891  0.17661 11.00000  0.03354   5.76
C00H  1  0.26485  0.61062  0.51166 11.00000  0.02718   5.18
C00I  1  1.04878  1.08824  0.44501 11.00000  0.06111   5.04
C00J  1  0.82335  0.73369  0.71961 11.00000  0.02946   4.79
C00K  1 -0.05853  0.50958  0.45889 11.00000  0.03295   3.46
C00L  1  0.13057  0.42130  0.63039 11.00000  0.03852   3.36
HKLF 4
END
