TITL SP14R08_expF_0_9_expS_0_5_SP14R08_c.res in P2(1)
REM Old TITL SP14R08 in P2(1)/n
REM SHELXT solution in P2(1): R1 0.246, Rweak 0.082, Alpha 0.123
REM <I/s>   4.060 for    6 systematic absences,  Orientation as input
REM Formula found by SHELXT:  C16 N O5

CELL  0.71073   7.0200   9.2700  11.5600   90.000   97.670   90.000
ZERR   16.000   0.0014   0.0019   0.0023    0.000    0.030    0.000
LATT -1
SYMM -X, 1/2+Y, -Z
SFAC C H N O
UNIT 16 16 16 16
L.S. 10
BOND
LIST 6
FMAP 2
PLAN 20
O001  4  0.20004  0.71262  0.90716 11.00000  0.03653   8.94
O002  4  0.39684  0.25171  0.43688 11.00000  0.03388   8.10
O003  4  0.78306  0.58641  0.20351 11.00000  0.05841   7.54
O004  4  0.09221  0.32732  0.52780 11.00000  0.02968   6.88
C005  1  0.56555  0.23449  0.47013 11.00000  0.02116   6.84
N006  3 -0.03715  0.50867  0.64068 11.00000  0.03497   6.68
C007  1 -0.00494  0.60674  0.73606 11.00000  0.02499   6.43
C008  1  0.16310  0.60201  0.81788 11.00000  0.01898   6.32
C009  1  0.31393  0.53238  0.78637 11.00000  0.01998   6.21
C00A  1  0.61298  0.57860  0.11655 11.00000  0.02001   6.19
C00B  1  0.11974  0.41759  0.62210 11.00000  0.02846   6.15
C00C  1  0.16128  0.85121  1.07786 11.00000  0.02341   5.90
C00D  1  0.66135  0.38670  0.30478 11.00000  0.02174   5.82
C00E  1  0.57682  0.67329  0.02633 11.00000  0.02850   5.81
C00F  1  0.07567  0.75964  0.96865 11.00000  0.02141   5.71
C00G  1  0.47036  0.48319  0.13706 11.00000  0.02584   5.54
C00H  1  0.65388  0.14879  0.56766 11.00000  0.02794   5.45
C00I  1  0.48813  0.39251  0.23398 11.00000  0.02501   5.17
C00J  1  0.80324  0.50176  0.29511 11.00000  0.02302   5.06
O00K  4 -0.09851  0.76378  0.94571 11.00000  0.04260   4.98
C00L  1  0.69453  0.31522  0.41331 11.00000  0.01717   4.52
C00M  1  0.29573  0.42709  0.68823 11.00000  0.02376   4.12
HKLF 4
END
