TITL SP14R08_expF_1_3_expS_1_4_SP14R08_c.res in P2(1)
REM Old TITL SP14R08 in P2(1)/n
REM SHELXT solution in P2(1): R1 0.282, Rweak 0.023, Alpha 0.058
REM <I/s>   2.139 for    6 systematic absences,  Orientation as input
REM Formula found by SHELXT:  C15 N5 O2

CELL  0.71073   7.0200   9.2700  11.5600   90.000   97.670   90.000
ZERR   16.000   0.0014   0.0019   0.0023    0.000    0.030    0.000
LATT -1
SYMM -X, 1/2+Y, -Z
SFAC C H N O
UNIT 16 16 16 16
L.S. 10
BOND
LIST 6
FMAP 2
PLAN 20
N001  3  0.83816  0.39508  0.19017 11.00000  0.04407   7.22
N002  3  0.79953  0.30691  0.08734 11.00000  0.04346   7.12
N003  3  0.41329  0.32645  0.97455 11.00000  0.03598   6.85
N004  3  0.51542  0.60086  0.76274 11.00000  0.05371   6.63
N005  3  0.53135  0.51095  0.86263 11.00000  0.05499   6.50
O006  4  0.60230  0.74977  0.55771 11.00000  0.04443   6.41
C007  1  0.68985  0.48442  0.20886 11.00000  0.03839   6.27
C008  1  0.21623  0.42722  0.80738 11.00000  0.04049   6.27
C009  1  0.92711  0.23758  0.02950 11.00000  0.03856   6.19
C00A  1  0.91177  0.67260  0.46982 11.00000  0.03442   6.17
C00B  1  0.84842  0.15001 -0.07160 11.00000  0.04367   6.06
C00C  1  1.03331  0.48581  0.35657 11.00000  0.03611   5.98
C00D  1  0.88404  0.58092  0.38141 11.00000  0.04020   5.94
C00E  1  0.70881  0.58594  0.30453 11.00000  0.04265   5.92
O00F  4  1.10517  0.23474  0.06044 11.00000  0.05943   5.70
C00G  1  0.43019  0.76403  0.53160 11.00000  0.04109   5.57
C00H  1  0.38247  0.41742  0.87898 11.00000  0.03815   5.55
C00I  1  0.30404  0.70427  0.59245 11.00000  0.03176   5.50
C00J  1  0.19520  0.51603  0.71053 11.00000  0.04569   5.07
C00K  1  0.33615  0.60846  0.68596 11.00000  0.04073   4.90
C00L  1  1.00537  0.38838  0.26520 11.00000  0.03485   4.88
C00M  1  0.33407  0.84999  0.42563 11.00000  0.04501   4.49
HKLF 4
END
