TITL SP14R08_expF_0_9_expS_1_0_SP14R08_a.res in P2(1)/n
REM Old TITL SP14R08 in P2(1)/n
REM SHELXT solution in P2(1)/n: R1 0.275, Rweak 0.093, Alpha 0.139
REM <I/s>   1.313 for  107 systematic absences,  Orientation as input
REM Formula found by SHELXT:  C9 N O

CELL  0.71073   7.0200   9.2700  11.5600   90.000   97.670   90.000
ZERR   16.000   0.0014   0.0019   0.0023    0.000    0.030    0.000
LATT  1
SYMM 1/2-X, 1/2+Y, 1/2-Z
SFAC C H N O
UNIT 16 16 16 16
L.S. 10
BOND
LIST 6
FMAP 2
PLAN 20
N001  3  0.55133  0.55053  0.33887 11.00000  0.02441   6.55
O002  4  0.85034  0.49326  0.30872 11.00000  0.03235   6.32
C003  1  0.67928  0.48783  0.27898 11.00000  0.01878   6.20
C004  1  0.78176  0.73578  0.61014 11.00000  0.02048   5.99
C005  1  0.66535  0.92588  0.72172 11.00000  0.01524   5.94
C006  1  0.63248  0.82879  0.63001 11.00000  0.02194   5.87
C007  1  0.58827  0.64310  0.43834 11.00000  0.02164   5.87
C008  1  0.75917  0.64292  0.51482 11.00000  0.02071   5.81
C009  1  0.43856  0.73579  0.45921 11.00000  0.02329   5.71
C00A  1  0.46081  0.82879  0.55537 11.00000  0.02495   5.68
C00B  1  0.59192  0.39909  0.17673 11.00000  0.02132   5.55
HKLF 4
END
