TITL SP14R08_expF_0_8_expS_0_9_SP14R08_b.res in Pn
REM Old TITL SP14R08 in P2(1)/n
REM SHELXT solution in Pn: R1 0.232, Rweak 0.111, Alpha 0.116
REM <I/s>   1.203 for  101 systematic absences,  Orientation as input
REM Formula found by SHELXT:  C11 N O10

CELL  0.71073   7.0200   9.2700  11.5600   90.000   97.670   90.000
ZERR   16.000   0.0014   0.0019   0.0023    0.000    0.030    0.000
LATT -1
SYMM 1/2+X, -Y, 1/2+Z
SFAC C H N O
UNIT 16 16 16 16
L.S. 10
BOND
LIST 6
FMAP 2
PLAN 20
O001  4  0.85201  0.24975  0.30553 11.00000  0.02421   9.66
O002  4  0.53037 -0.08722  0.44666 11.00000  0.02214   9.65
O003  4  0.22182  0.01834  0.38724 11.00000  0.00686   9.30
O004  4  0.56236  0.00508  0.54208 11.00000  0.02223   9.03
O005  4  0.54977  0.29490  0.33665 11.00000  0.02012   8.73
N006  3  0.41314  0.10784  0.55608 11.00000  0.02087   8.54
C007  1  0.63572  0.58123  0.62678 11.00000  0.02131   8.41
O008  4  0.32634 -0.17043  0.26963 11.00000  0.00827   8.22
O009  4  0.59560  0.14535  0.17727 11.00000  0.03006   8.17
O00A  4  0.75731  0.38987  0.51238 11.00000  0.01240   7.58
C00B  1  0.32554  0.26433  0.71780 11.00000  0.00218   7.48
C00C  1  0.44188  0.19541  0.65587 11.00000  0.01233   6.30
C00D  1  0.68415  0.23754  0.27734 11.00000  0.02702   6.07
O00E  4  0.65270  0.68283  0.71188 11.00000  0.03723   5.75
O00F  4  0.14799  0.26085  0.68643 11.00000  0.01640   5.28
C00G  1  0.22995  0.10002  0.48284 11.00000  0.04048   5.08
C00H  1  0.58344  0.39421  0.43329 11.00000  0.01774   5.03
C00I  1  0.40864  0.34844  0.82273 11.00000  0.01669   4.87
C00J  1  0.37101 -0.07814  0.36663 11.00000  0.00658   4.59
C00K  1  0.80273  0.50515  0.60377 11.00000  0.05896   4.26
C00L  1  0.44361  0.56865  0.55701 11.00000  0.02019   3.43
C00M  1  0.44159  0.47223  0.46301 11.00000  0.02853   3.37
HKLF 4
END
