TITL SP14R08_expF_1_4_expS_0_7_SP14R08_a.res in P2(1)/n
REM Old TITL SP14R08 in P2(1)/n
REM SHELXT solution in P2(1)/n: R1 0.311, Rweak 0.020, Alpha 0.037
REM <I/s>   1.417 for  107 systematic absences,  Orientation as input
REM Formula found by SHELXT:  C10 O

CELL  0.71073   7.0200   9.2700  11.5600   90.000   97.670   90.000
ZERR   16.000   0.0014   0.0019   0.0023    0.000    0.030    0.000
LATT  1
SYMM 1/2-X, 1/2+Y, 1/2-Z
SFAC C H N O
UNIT 16 16 16 16
L.S. 10
BOND
LIST 6
FMAP 2
PLAN 20
C001  1  0.65886  0.07545  0.72190 11.00000  0.03764   6.40
C002  1  0.55278  0.44760  0.33952 11.00000  0.04386   6.31
C003  1  0.78173  0.26163  0.60939 11.00000  0.04919   6.26
C004  1  0.46393  0.16852  0.55664 11.00000  0.05144   6.06
C005  1  0.58861  0.35612  0.43860 11.00000  0.04531   6.04
O006  4  0.85110  0.50497  0.30913 11.00000  0.07210   6.03
C007  1  0.67783  0.51401  0.27866 11.00000  0.04579   5.83
C008  1  0.44128  0.26435  0.45909 11.00000  0.05424   5.80
C009  1  0.76024  0.35730  0.51399 11.00000  0.04953   5.71
C00A  1  0.63349  0.16876  0.62893 11.00000  0.04623   5.67
C00B  1  0.59168  0.59782  0.17639 11.00000  0.05462   5.37
HKLF 4
END
