TITL SP14R08_expF_1_4_expS_1_0_SP14R08_a.res in P2(1)/n
REM Old TITL SP14R08 in P2(1)/n
REM SHELXT solution in P2(1)/n: R1 0.314, Rweak 0.020, Alpha 0.049
REM <I/s>   1.482 for  107 systematic absences,  Orientation as input
REM Formula found by SHELXT:  C9 N O

CELL  0.71073   7.0200   9.2700  11.5600   90.000   97.670   90.000
ZERR   16.000   0.0014   0.0019   0.0023    0.000    0.030    0.000
LATT  1
SYMM 1/2-X, 1/2+Y, 1/2-Z
SFAC C H N O
UNIT 16 16 16 16
L.S. 10
BOND
LIST 6
FMAP 2
PLAN 20
N001  3  0.65865  0.92547  0.72195 11.00000  0.04560   6.52
C002  1  0.55237  0.55178  0.33972 11.00000  0.03850   6.38
C003  1  0.78149  0.73762  0.60884 11.00000  0.04498   6.22
C004  1  0.46435  0.83084  0.55647 11.00000  0.04681   6.07
O005  4  0.85199  0.49527  0.30880 11.00000  0.06336   6.06
C006  1  0.58894  0.64405  0.43859 11.00000  0.04195   6.05
C007  1  0.67840  0.48720  0.27927 11.00000  0.04345   5.83
C008  1  0.76003  0.64277  0.51399 11.00000  0.04395   5.73
C009  1  0.44155  0.73608  0.45944 11.00000  0.04977   5.72
C00A  1  0.63260  0.83162  0.62902 11.00000  0.04188   5.70
C00B  1  0.59016  0.40229  0.17604 11.00000  0.05146   5.38
HKLF 4
END
