TITL SP14R08_expF_1_0_expS_1_3_SP14R08_c.res in P2(1)
REM Old TITL SP14R08 in P2(1)/n
REM SHELXT solution in P2(1): R1 0.245, Rweak 0.056, Alpha 0.121
REM <I/s>   1.460 for    6 systematic absences,  Orientation as input
REM Formula found by SHELXT:  C16 N4 O2

CELL  0.71073   7.0200   9.2700  11.5600   90.000   97.670   90.000
ZERR   16.000   0.0014   0.0019   0.0023    0.000    0.030    0.000
LATT -1
SYMM -X, 1/2+Y, -Z
SFAC C H N O
UNIT 16 16 16 16
L.S. 10
BOND
LIST 6
FMAP 2
PLAN 20
N001  3  0.19272  0.69355  0.91014 11.00000  0.02524   7.25
N002  3  0.61575  0.58231  0.11501 11.00000  0.03323   6.88
C003  1  0.07285  0.75871  0.97517 11.00000  0.03080   6.83
N004  3  0.16354  0.61074  0.80979 11.00000  0.03082   6.81
N005  3  0.08926  0.33876  0.52586 11.00000  0.03022   6.76
O006  4  0.40454  0.25279  0.44357 11.00000  0.03798   6.49
C007  1 -0.00370  0.60735  0.73402 11.00000  0.02891   6.38
C008  1  0.29807  0.42024  0.69381 11.00000  0.02034   6.27
C009  1  0.65559  0.14899  0.57298 11.00000  0.02090   6.21
C00A  1  0.46825  0.48947  0.14220 11.00000  0.02672   6.16
C00B  1 -0.03149  0.51598  0.63808 11.00000  0.03214   5.85
C00C  1  0.31076  0.52026  0.78980 11.00000  0.02643   5.74
C00D  1  0.58276  0.68515  0.02983 11.00000  0.01687   5.65
C00E  1  0.70454  0.29412  0.41046 11.00000  0.02395   5.62
O00F  4 -0.10789  0.76528  0.93722 11.00000  0.03878   5.48
C00G  1  0.80866  0.49138  0.29150 11.00000  0.03537   5.34
C00H  1  0.56783  0.23497  0.46618 11.00000  0.02073   5.29
C00I  1  0.77468  0.57638  0.19537 11.00000  0.04319   5.20
C00J  1  0.65785  0.39812  0.31373 11.00000  0.03610   5.19
C00K  1  0.48792  0.39642  0.23828 11.00000  0.02450   4.82
C00L  1  0.16053  0.85101  1.07236 11.00000  0.04135   4.56
C00M  1  0.11933  0.42017  0.62547 11.00000  0.02994   4.54
HKLF 4
END
