TITL SP14R08_expF_0_5_expS_0_6_SP14R08_a.res in Pn
REM Old TITL SP14R08 in P2(1)/n
REM SHELXT solution in Pn: R1 0.271, Rweak 0.384, Alpha 0.270
REM <I/s>   1.056 for   97 systematic absences,  Orientation as input
REM Formula found by SHELXT:  C12 N5 O6

CELL  0.71073   7.0200   9.2700  11.5600   90.000   97.670   90.000
ZERR   16.000   0.0014   0.0019   0.0023    0.000    0.030    0.000
LATT -1
SYMM 1/2+X, -Y, 1/2+Z
SFAC C H N O
UNIT 16 16 16 16
L.S. 10
BOND
LIST 6
FMAP 2
PLAN 20
O001  4  0.64220  0.76131  0.68560 11.00000  0.00010  10.80
N002  3  0.82223  0.77399  0.70768 11.00000  0.00010  10.16
N003  3  0.13454  1.08797  0.62349 11.00000  0.00010   9.09
N004  3  0.90373  0.59065  0.56380 11.00000  0.01170   8.88
O005  4  0.09782  0.65014  0.17452 11.00000  0.00010   8.67
O006  4 -0.06435  0.98747  0.45083 11.00000  0.01540   8.27
O007  4  0.03041  0.79679  0.33532 11.00000  0.01383   7.87
O008  4  0.26659  0.89064  0.51024 11.00000  0.00010   7.61
N009  3  0.93759  0.70292  0.65597 11.00000  0.00410   7.13
N00A  3  0.16331  1.17403  0.72364 11.00000  0.00010   6.93
C00B  1  0.70193  0.52227  0.37545 11.00000  0.00010   6.29
C00C  1  1.05083  0.41116  0.43129 11.00000  0.02352   5.96
C00D  1  0.26201  0.99514  0.60235 11.00000  0.01118   5.78
C00E  1 -0.03951  1.07402  0.54631 11.00000  0.00010   5.37
C00F  1  0.83652  0.31990  0.29221 11.00000  0.00978   4.77
C00G  1  0.87621  0.43316  0.35803 11.00000  0.04184   4.51
C00H  1  0.08352  0.87346  0.43769 11.00000  0.00092   4.32
C00I  1  1.06435  0.51205  0.53559 11.00000  0.01825   3.92
C00J  1  0.94549  0.83294  0.82548 11.00000  0.02881   3.86
O00K  4  0.33247  0.75577  0.30584 11.00000  0.04362   3.58
C00L  1  0.18184  0.74214  0.26655 11.00000  0.00010   3.27
C00M  1  0.77317  0.60759  0.48824 11.00000  0.05247   3.25
C00N  1  0.45779  0.50187  0.27924 11.00000  0.03707   3.15
HKLF 4
END
