TITL SP14R08_expF_1_5_expS_1_2_SP14R08_b.res in Pn
REM Old TITL SP14R08 in P2(1)/n
REM SHELXT solution in Pn: R1 0.329, Rweak 0.013, Alpha 0.008
REM <I/s>   1.585 for  101 systematic absences,  Orientation as input
REM Formula found by SHELXT:  C16 N4 O3

CELL  0.71073   7.0200   9.2700  11.5600   90.000   97.670   90.000
ZERR   16.000   0.0014   0.0019   0.0023    0.000    0.030    0.000
LATT -1
SYMM 1/2+X, -Y, 1/2+Z
SFAC C H N O
UNIT 16 16 16 16
L.S. 10
BOND
LIST 6
FMAP 2
PLAN 20
N001  3  0.91392  0.10805  0.56958 11.00000  0.05439   7.49
N002  3  0.72508  0.01580  0.40154 11.00000  0.06347   7.30
C003  1  0.81647  0.26223  0.72118 11.00000  0.04504   6.83
N004  3  0.83582 -0.16871  0.28129 11.00000  0.04499   6.83
N005  3  0.94861  0.19894  0.66330 11.00000  0.05041   6.78
O006  4  0.35715  0.24629  0.31249 11.00000  0.06067   6.34
C007  1  0.12976  0.58698  0.63395 11.00000  0.04910   6.33
C008  1 -0.03886  0.58086  0.56182 11.00000  0.05704   6.18
C009  1  1.03429 -0.07956  0.44946 11.00000  0.04658   6.17
C00A  1  0.74199  0.11063  0.48881 11.00000  0.05491   6.16
C00B  1  0.16029  0.67654  0.72438 11.00000  0.04012   6.15
C00C  1 -0.05772  0.48451  0.46843 11.00000  0.05235   6.09
C00D  1  0.05114  0.30371  0.34248 11.00000  0.04464   5.49
C00E  1  0.90072  0.34808  0.82441 11.00000  0.04862   5.47
C00F  1  1.05772  0.01508  0.54791 11.00000  0.05139   5.28
O00G  4  0.65008  0.25813  0.69457 11.00000  0.06319   5.20
C00H  1  0.28623  0.48798  0.61539 11.00000  0.04638   5.13
C00I  1  0.25861  0.39605  0.51728 11.00000  0.04542   5.11
C00J  1  0.86261 -0.07976  0.37426 11.00000  0.05005   4.95
C00K  1  0.07965  0.14957  0.17559 11.00000  0.06322   4.94
C00L  1  0.17260  0.23124  0.28289 11.00000  0.05297   4.83
C00M  1  0.08641  0.39611  0.44428 11.00000  0.04721   4.69
O00N  4  0.63419  0.18498  0.51558 11.00000  0.36457   3.11
HKLF 4
END
