TITL SP14R08_expF_0_6_expS_0_6_SP14R08_b.res in P2(1)
REM Old TITL SP14R08 in P2(1)/n
REM SHELXT solution in P2(1): R1 0.269, Rweak 0.271, Alpha 0.254
REM <I/s>   1.508 for    6 systematic absences,  Orientation as input
REM Formula found by SHELXT:  C10 N5 O7

CELL  0.71073   7.0200   9.2700  11.5600   90.000   97.670   90.000
ZERR   16.000   0.0014   0.0019   0.0023    0.000    0.030    0.000
LATT -1
SYMM -X, 1/2+Y, -Z
SFAC C H N O
UNIT 16 16 16 16
L.S. 10
BOND
LIST 6
FMAP 2
PLAN 20
O001  4  1.10406  0.23191  0.06068 11.00000  0.00010  10.82
O002  4  0.50115  0.61491  0.76778 11.00000  0.01585   9.82
O003  4  0.52955  0.50044  0.86115 11.00000  0.02029   9.47
O004  4  0.41835  0.32832  0.96768 11.00000  0.02320   8.53
O005  4  0.29767  0.69711  0.58644 11.00000  0.00884   8.49
O006  4  0.70133  0.57122  0.30422 11.00000  0.00010   8.39
N007  3  0.38947  0.42406  0.87969 11.00000  0.01823   8.00
O008  4  0.18745  0.49659  0.70835 11.00000  0.02819   7.82
N009  3  0.83260  0.38445  0.19175 11.00000  0.00010   7.79
N00A  3  0.80840  0.30096  0.09453 11.00000  0.01759   7.43
C00B  1  0.93370  0.22746  0.03192 11.00000  0.00979   7.09
C00C  1  0.42823  0.75627  0.53086 11.00000  0.00344   7.05
N00D  3  0.35803  0.85089  0.43793 11.00000  0.01017   6.78
N00E  3  0.87669  0.58306  0.38105 11.00000  0.00715   6.61
C00F  1  0.83270  0.14911 -0.08136 11.00000  0.00010   6.10
C00G  1  0.36367  0.60125  0.68093 11.00000  0.03341   5.05
C00H  1  0.91130  0.67745  0.47378 11.00000  0.00160   4.94
C00I  1  1.03134  0.46968  0.36151 11.00000  0.01703   4.84
C00J  1  0.68958  0.47006  0.20953 11.00000  0.00855   4.80
C00K  1  0.59810  0.73086  0.55756 11.00000  0.01283   4.69
C00L  1  0.24474  0.39734  0.80776 11.00000  0.06046   3.74
C00M  1  1.01627  0.40247  0.26073 11.00000  0.00424   3.39
HKLF 4
END
