TITL SP14R08_expF_0_7_expS_1_0_SP14R08_a.res in Pn
REM Old TITL SP14R08 in P2(1)/n
REM SHELXT solution in Pn: R1 0.240, Rweak 0.178, Alpha 0.101
REM <I/s>   1.208 for  101 systematic absences,  Orientation as input
REM Formula found by SHELXT:  C13 N3 O6

CELL  0.71073   7.0200   9.2700  11.5600   90.000   97.670   90.000
ZERR   16.000   0.0014   0.0019   0.0023    0.000    0.030    0.000
LATT -1
SYMM 1/2+X, -Y, 1/2+Z
SFAC C H N O
UNIT 16 16 16 16
L.S. 10
BOND
LIST 6
FMAP 2
PLAN 20
N001  3  0.42511  0.89209  0.56903 11.00000  0.00010  10.30
O002  4  0.45329  0.79577  0.66916 11.00000  0.01454   9.73
O003  4  0.22749  0.98576  0.40091 11.00000  0.01805   9.44
N004  3  0.64161  0.41397  0.63068 11.00000  0.01344   9.04
N005  3  0.32463  0.73601  0.73600 11.00000  0.01504   9.02
O006  4  0.59027  0.84195  0.17804 11.00000  0.01623   8.74
O007  4  0.85033  0.76187  0.31417 11.00000  0.02051   8.71
O008  4  0.55099  1.07547  0.45359 11.00000  0.02208   7.60
C009  1  0.66331  0.31527  0.71621 11.00000  0.01465   6.42
C00A  1  0.33562  1.16909  0.27665 11.00000  0.00010   6.01
C00B  1  0.56502  0.99730  0.54544 11.00000  0.00293   6.00
C00C  1  0.44524  0.53132  0.45908 11.00000  0.02326   5.78
C00D  1  0.78317  0.59919  0.51973 11.00000  0.01100   5.73
C00E  1  0.26153  0.88766  0.49013 11.00000  0.00730   5.68
O00F  4  0.14967  0.74759  0.69588 11.00000  0.02357   5.58
C00G  1  0.79284  0.51416  0.62796 11.00000  0.02237   4.57
C00H  1  0.55573  0.69207  0.35121 11.00000  0.02486   4.29
C00I  1  0.68404  0.76541  0.29438 11.00000  0.00639   3.94
C00J  1  0.62325  0.61155  0.44889 11.00000  0.05671   3.66
C00K  1  0.40424  0.63729  0.82196 11.00000  0.01828   3.44
C00L  1  0.47552  0.41840  0.56829 11.00000  0.05446   3.15
C00M  1  0.38007  1.06699  0.36930 11.00000  0.02081   3.10
HKLF 4
END
