TITL SP14R08_expF_0_5_expS_1_2_SP14R08_a.res in Pn
REM Old TITL SP14R08 in P2(1)/n
REM SHELXT solution in Pn: R1 0.287, Rweak 0.385, Alpha 0.204
REM <I/s>   1.304 for   97 systematic absences,  Orientation as input
REM Formula found by SHELXT:  C8 N7 O5

CELL  0.71073   7.0200   9.2700  11.5600   90.000   97.670   90.000
ZERR   16.000   0.0014   0.0019   0.0023    0.000    0.030    0.000
LATT -1
SYMM 1/2+X, -Y, 1/2+Z
SFAC C H N O
UNIT 16 16 16 16
L.S. 10
BOND
LIST 6
FMAP 2
PLAN 20
N001  3  0.67393  0.76567  0.29087 11.00000  0.00010  10.28
N002  3  0.62222  0.42532  0.64035 11.00000  0.00010  10.24
O003  4  0.54588  0.69910  0.34666 11.00000  0.00142   8.19
O004  4  0.54369  1.08426  0.45929 11.00000  0.01091   8.17
O005  4  0.85026  0.75277  0.33188 11.00000  0.00983   8.14
O006  4  0.42580  0.50168  0.47178 11.00000  0.00353   7.97
O007  4  0.67095  0.32437  0.72663 11.00000  0.00010   7.60
N008  3  0.75062  0.60065  0.52612 11.00000  0.00010   7.39
N009  3  0.40770  0.89702  0.56691 11.00000  0.02166   7.06
N00A  3  0.76650  0.51465  0.62612 11.00000  0.00010   6.83
N00B  3  0.38728  0.64668  0.81923 11.00000  0.00010   6.80
N00C  3  0.57290  0.85349  0.18077 11.00000  0.02116   6.56
C00D  1  0.43758  0.79040  0.66124 11.00000  0.02309   6.37
C00E  1  0.14974  0.73459  0.70526 11.00000  0.00010   5.52
C00F  1  0.32726  1.17338  0.28149 11.00000  0.00981   5.08
C00G  1  0.20626  0.98206  0.40976 11.00000  0.03365   4.97
C00H  1  0.58211  0.61001  0.43897 11.00000  0.02875   4.85
C00I  1  0.46770  0.45379  0.57125 11.00000  0.01873   4.72
C00J  1  0.23761  0.88555  0.50187 11.00000  0.00795   3.99
C00K  1  0.51299  0.96230  0.56636 11.00000  0.07610   3.46
HKLF 4
END
