TITL SP14R08_expF_0_8_expS_0_6_SP14R08_a.res in P2(1)
REM Old TITL SP14R08 in P2(1)/n
REM SHELXT solution in P2(1): R1 0.249, Rweak 0.120, Alpha 0.198
REM <I/s>   2.606 for    6 systematic absences,  Orientation as input
REM Formula found by SHELXT:  C12 N5 O4

CELL  0.71073   7.0200   9.2700  11.5600   90.000   97.670   90.000
ZERR   16.000   0.0014   0.0019   0.0023    0.000    0.030    0.000
LATT -1
SYMM -X, 1/2+Y, -Z
SFAC C H N O
UNIT 16 16 16 16
L.S. 10
BOND
LIST 6
FMAP 2
PLAN 20
O001  4  0.70915  0.57795  0.30401 11.00000  0.00934   9.40
O002  4  1.09901  0.23816  0.05748 11.00000  0.02108   8.24
N003  3  0.83222  0.38298  0.19097 11.00000  0.00775   7.78
N004  3  0.79666  0.30436  0.09052 11.00000  0.02024   7.44
C005  1  0.93242  0.23185  0.03462 11.00000  0.01555   7.03
N006  3  0.53119  0.51056  0.85948 11.00000  0.02385   6.83
N007  3  0.91200  0.68998  0.46951 11.00000  0.02962   6.79
N008  3  0.51286  0.61053  0.76209 11.00000  0.02240   6.78
C009  1  0.38449  0.41866  0.88056 11.00000  0.01467   6.08
C00A  1  0.42780  0.75788  0.52654 11.00000  0.01435   5.76
C00B  1  0.69387  0.47598  0.20882 11.00000  0.01719   5.74
C00C  1  0.30787  0.70260  0.58901 11.00000  0.01195   5.70
C00D  1  0.34484  0.85147  0.42417 11.00000  0.02365   5.70
O00E  4  0.41369  0.33619  0.97358 11.00000  0.02044   5.64
C00F  1  0.88032  0.57913  0.37952 11.00000  0.01838   5.63
C00G  1  1.03337  0.48310  0.36090 11.00000  0.02575   5.47
C00H  1  0.18613  0.50591  0.71027 11.00000  0.01991   5.33
C00I  1  0.84355  0.14853 -0.07052 11.00000  0.01421   5.23
C00J  1  1.00445  0.39340  0.26746 11.00000  0.01601   4.68
C00K  1  0.34977  0.58752  0.68486 11.00000  0.03304   4.56
O00L  4  0.60462  0.75164  0.56132 11.00000  0.03725   4.37
HKLF 4
END
