TITL SP14R08_expF_1_4_expS_1_5_SP14R08_a.res in P2(1)/n
REM Old TITL SP14R08 in P2(1)/n
REM SHELXT solution in P2(1)/n: R1 0.335, Rweak 0.019, Alpha 0.031
REM <I/s>   1.638 for  107 systematic absences,  Orientation as input
REM Formula found by SHELXT:  C10 O

CELL  0.71073   7.0200   9.2700  11.5600   90.000   97.670   90.000
ZERR   16.000   0.0014   0.0019   0.0023    0.000    0.030    0.000
LATT  1
SYMM 1/2-X, 1/2+Y, 1/2-Z
SFAC C H N O
UNIT 16 16 16 16
L.S. 10
BOND
LIST 6
FMAP 2
PLAN 20
C001  1  0.33830  0.07556  0.27748 11.00000  0.03201   6.43
C002  1  0.44756  0.44887  0.65943 11.00000  0.03675   6.28
C003  1  0.21700  0.26197  0.39099 11.00000  0.04067   6.25
C004  1  0.53587  0.16953  0.44369 11.00000  0.04465   6.13
C005  1  0.41053  0.35545  0.56142 11.00000  0.03934   6.01
O006  4  0.14854  0.50576  0.69055 11.00000  0.05545   5.97
C007  1  0.32003  0.51307  0.72060 11.00000  0.04114   5.86
C008  1  0.23946  0.35708  0.48583 11.00000  0.04053   5.75
C009  1  0.55896  0.26609  0.53986 11.00000  0.04598   5.72
C00A  1  0.36798  0.16925  0.37033 11.00000  0.04156   5.59
C00B  1  0.41088  0.59972  0.82308 11.00000  0.04853   5.34
HKLF 4
END
