TITL SP14R08_expF_0_8_expS_0_8_SP14R08_a.res in P2(1)/n
REM Old TITL SP14R08 in P2(1)/n
REM SHELXT solution in P2(1)/n: R1 0.289, Rweak 0.134, Alpha 0.172
REM <I/s>   1.209 for  107 systematic absences,  Orientation as input
REM Formula found by SHELXT:  C9 N O

CELL  0.71073   7.0200   9.2700  11.5600   90.000   97.670   90.000
ZERR   16.000   0.0014   0.0019   0.0023    0.000    0.030    0.000
LATT  1
SYMM 1/2-X, 1/2+Y, 1/2-Z
SFAC C H N O
UNIT 16 16 16 16
L.S. 10
BOND
LIST 6
FMAP 2
PLAN 20
N001  3  0.44849  0.44975  0.66131 11.00000  0.02024   6.58
O002  4  0.14944  0.50660  0.69105 11.00000  0.02673   6.47
C003  1  0.32035  0.51247  0.72081 11.00000  0.01501   6.14
C004  1  0.21834  0.26429  0.38918 11.00000  0.01649   6.04
C005  1  0.33407  0.07363  0.27840 11.00000  0.01213   5.97
C006  1  0.41158  0.35740  0.56183 11.00000  0.01773   5.86
C007  1  0.36762  0.17125  0.37030 11.00000  0.01799   5.80
C008  1  0.40772  0.60071  0.82297 11.00000  0.01642   5.62
C009  1  0.54053  0.17129  0.44509 11.00000  0.02140   5.59
C00A  1  0.24109  0.35765  0.48494 11.00000  0.01687   5.57
C00B  1  0.56154  0.26439  0.54078 11.00000  0.01922   5.51
HKLF 4
END
