TITL SP14R08_expF_1_1_expS_1_5_SP14R08_b.res in Pn
REM Old TITL SP14R08 in P2(1)/n
REM SHELXT solution in Pn: R1 0.242, Rweak 0.038, Alpha 0.017
REM <I/s>   1.615 for  101 systematic absences,  Orientation as input
REM Formula found by SHELXT:  C16 N3 O3

CELL  0.71073   7.0200   9.2700  11.5600   90.000   97.670   90.000
ZERR   16.000   0.0014   0.0019   0.0023    0.000    0.030    0.000
LATT -1
SYMM 1/2+X, -Y, 1/2+Z
SFAC C H N O
UNIT 16 16 16 16
L.S. 10
BOND
LIST 6
FMAP 2
PLAN 20
O001  4  0.33448 -0.16865  0.27970 11.00000  0.01746   9.62
O002  4  0.85213  0.24203  0.31243 11.00000  0.04285   7.70
N003  3  0.25040  0.10694  0.49177 11.00000  0.03382   7.39
N004  3  0.54995  0.30297  0.34345 11.00000  0.03675   7.28
N005  3  0.21839  0.01595  0.39809 11.00000  0.02742   6.99
C006  1  0.41436  0.10385  0.56680 11.00000  0.02860   6.55
C007  1  0.36515 -0.07661  0.37285 11.00000  0.02608   6.49
C008  1  0.32600  0.25817  0.72301 11.00000  0.03026   6.34
C009  1  0.44418  0.48693  0.46371 11.00000  0.03424   6.29
C00A  1  0.53638 -0.07790  0.44505 11.00000  0.03610   6.14
C00B  1  0.59498  0.14556  0.17641 11.00000  0.03780   5.96
C00C  1  0.45901  0.58090  0.55518 11.00000  0.03116   5.94
C00D  1  0.58841  0.38974  0.44366 11.00000  0.03014   5.61
C00E  1  0.78161  0.48926  0.61967 11.00000  0.04274   5.58
C00F  1  0.68464  0.23267  0.28379 11.00000  0.02781   5.44
C00G  1  0.44778  0.20176  0.66386 11.00000  0.02216   5.40
C00H  1  0.62684  0.58303  0.63190 11.00000  0.03187   5.15
C00I  1  0.56275  0.01373  0.54600 11.00000  0.03055   5.04
O00J  4  0.14787  0.25344  0.69415 11.00000  0.03997   4.61
C00K  1  0.41183  0.34966  0.82359 11.00000  0.03058   4.58
C00L  1  0.77090  0.39525  0.51952 11.00000  0.03086   4.31
C00M  1  0.65186  0.69407  0.72118 11.00000  0.05827   3.03
HKLF 4
END
