TITL SP14R08_expF_0_6_expS_1_1_SP14R08_b.res in P2(1)
REM Old TITL SP14R08 in P2(1)/n
REM SHELXT solution in P2(1): R1 0.280, Rweak 0.292, Alpha 0.219
REM <I/s>   0.675 for    6 systematic absences,  Orientation as input
REM Formula found by SHELXT:  C15 N2 O4

CELL  0.71073   7.0200   9.2700  11.5600   90.000   97.670   90.000
ZERR   16.000   0.0014   0.0019   0.0023    0.000    0.030    0.000
LATT -1
SYMM -X, 1/2+Y, -Z
SFAC C H N O
UNIT 16 16 16 16
L.S. 10
BOND
LIST 6
FMAP 2
PLAN 20
O001  4  0.19398  0.69328  0.91505 11.00000  0.02532   8.65
N002  3  0.18110  0.60873  0.81785 11.00000  0.03480   8.18
N003  3 -0.02366  0.51253  0.63942 11.00000  0.00010   7.38
C004  1  0.06940  0.76137  0.97337 11.00000  0.00899   7.15
C005  1  0.12106  0.40852  0.62128 11.00000  0.00010   6.52
C006  1  0.48681  0.39352  0.23153 11.00000  0.01719   6.30
O007  4  0.40172  0.24038  0.44436 11.00000  0.01030   6.15
O008  4 -0.10504  0.76143  0.93457 11.00000  0.02074   6.09
C009  1  0.81333  0.45892  0.29004 11.00000  0.00590   6.07
C00A  1  0.15374  0.85361  1.06720 11.00000  0.01497   5.96
O00B  4  0.58128  0.66371  0.02739 11.00000  0.01618   5.59
C00C  1  0.28866  0.42084  0.69141 11.00000  0.00942   5.24
C00D  1  0.08822  0.30655  0.53032 11.00000  0.02253   5.21
C00E  1  0.65922  0.14639  0.57837 11.00000  0.00101   4.63
C00F  1  0.79943  0.58297  0.20202 11.00000  0.01362   4.42
C00G  1  0.31693  0.48737  0.79395 11.00000  0.00010   4.22
C00H  1  0.65305  0.39508  0.31006 11.00000  0.00010   4.15
C00I  1  0.59698  0.56366  0.12321 11.00000  0.03645   4.14
C00J  1  0.56782  0.23076  0.46387 11.00000  0.01108   4.03
C00K  1  0.69829  0.29389  0.40545 11.00000  0.00162   3.24
C00L  1 -0.00451  0.59874  0.74077 11.00000  0.00629   3.15
HKLF 4
END
