TITL SP14R08_expF_1_0_expS_1_1_SP14R08_c.res in P2(1)
REM Old TITL SP14R08 in P2(1)/n
REM SHELXT solution in P2(1): R1 0.245, Rweak 0.056, Alpha 0.081
REM <I/s>   2.020 for    6 systematic absences,  Orientation as input
REM Formula found by SHELXT:  C15 N4 O3

CELL  0.71073   7.0200   9.2700  11.5600   90.000   97.670   90.000
ZERR   16.000   0.0014   0.0019   0.0023    0.000    0.030    0.000
LATT -1
SYMM -X, 1/2+Y, -Z
SFAC C H N O
UNIT 16 16 16 16
L.S. 10
BOND
LIST 6
FMAP 2
PLAN 20
O001  4  0.58803  0.34118  0.02637 11.00000  0.03550   7.81
N002  3  0.62433  0.42861  0.11948 11.00000  0.03575   6.94
N003  3  0.46839  0.51524  0.14379 11.00000  0.03982   6.70
O004  4  0.40160  0.76096  0.44447 11.00000  0.03638   6.64
N005  3 -0.01376  0.40193  0.73520 11.00000  0.03158   6.58
N006  3  0.66371  0.61786  0.31272 11.00000  0.02984   6.50
C007  1  0.27701  0.59328  0.69319 11.00000  0.04364   6.42
C008  1  0.70213  0.71233  0.40841 11.00000  0.01843   6.40
C009  1  0.19592  0.31669  0.91308 11.00000  0.02313   6.37
C00A  1  0.56967  0.77308  0.46529 11.00000  0.02744   6.10
C00B  1  0.80739  0.53786  0.28600 11.00000  0.02981   6.07
C00C  1  0.07163  0.24796  0.97388 11.00000  0.02399   5.90
C00D  1  0.65527  0.85232  0.57788 11.00000  0.02226   5.79
O00E  4 -0.10672  0.24751  0.93677 11.00000  0.04031   5.56
C00F  1  0.15773  0.40673  0.80981 11.00000  0.03436   5.44
C00G  1  0.79511  0.43321  0.19524 11.00000  0.02049   5.34
C00H  1 -0.03042  0.48727  0.63647 11.00000  0.02482   5.33
C00I  1  0.31198  0.50762  0.79500 11.00000  0.02310   5.03
C00J  1  0.16120  0.14768  1.06721 11.00000  0.03389   4.96
C00K  1  0.49861  0.61399  0.23643 11.00000  0.03102   4.52
C00L  1  0.10945  0.58948  0.61982 11.00000  0.02502   4.47
C00M  1  0.08510  0.69019  0.53055 11.00000  0.02541   4.16
HKLF 4
END
