TITL SP14R08_expF_0_5_expS_0_5_SP14R08_a.res in Pn
REM Old TITL SP14R08 in P2(1)/n
REM SHELXT solution in Pn: R1 0.271, Rweak 0.386, Alpha 0.163
REM <I/s>   1.024 for   97 systematic absences,  Orientation as input
REM Formula found by SHELXT:  C8 N3 O7

CELL  0.71073   7.0200   9.2700  11.5600   90.000   97.670   90.000
ZERR   16.000   0.0014   0.0019   0.0023    0.000    0.030    0.000
LATT -1
SYMM 1/2+X, -Y, 1/2+Z
SFAC C H N O
UNIT 16 16 16 16
L.S. 10
BOND
LIST 6
FMAP 2
PLAN 20
O001  4  0.14860  0.74656  0.69028 11.00000  0.00146  10.87
N002  3  0.58674  0.60878  0.43311 11.00000  0.00010  10.85
O003  4  0.36792  1.07945  0.36843 11.00000  0.00010  10.25
O004  4  0.55356  0.70201  0.33109 11.00000  0.01499   8.85
O005  4  0.78400  0.51341  0.60725 11.00000  0.00010   8.64
O006  4  0.66761  0.32225  0.72034 11.00000  0.00010   8.29
N007  3  0.68508  0.75878  0.26933 11.00000  0.00215   7.60
N008  3  0.60149  0.84555  0.18002 11.00000  0.01064   6.89
C009  1  0.41481  0.64414  0.81998 11.00000  0.00010   5.92
C00A  1  0.44159  0.51432  0.46027 11.00000  0.00834   5.69
C00B  1  0.75461  0.61614  0.51730 11.00000  0.00812   5.26
C00C  1  0.53748  1.08433  0.43548 11.00000  0.00010   4.99
C00D  1  0.32538  0.72492  0.70846 11.00000  0.00010   4.97
C00E  1  0.24228  0.90596  0.48594 11.00000  0.00942   4.88
O00F  4  0.43679  0.42250  0.54137 11.00000  0.05374   4.81
C00G  1  0.45163  0.80210  0.64993 11.00000  0.00636   4.42
C00H  1  0.56271  0.98651  0.54108 11.00000  0.00520   4.17
O00I  4  0.85140  0.76310  0.31325 11.00000  0.04712   3.18
HKLF 4
END
