TITL SP14R08_expF_1_5_expS_1_4_SP14R08_a.res in P2(1)/n
REM Old TITL SP14R08 in P2(1)/n
REM SHELXT solution in P2(1)/n: R1 0.367, Rweak 0.017, Alpha 0.030
REM <I/s>   1.817 for  107 systematic absences,  Orientation as input
REM Formula found by SHELXT:  C9 N O

CELL  0.71073   7.0200   9.2700  11.5600   90.000   97.670   90.000
ZERR   16.000   0.0014   0.0019   0.0023    0.000    0.030    0.000
LATT  1
SYMM 1/2-X, 1/2+Y, 1/2-Z
SFAC C H N O
UNIT 16 16 16 16
L.S. 10
BOND
LIST 6
FMAP 2
PLAN 20
N001  3  0.66012  0.07550  0.72140 11.00000  0.03818   6.55
C002  1  0.55142  0.44718  0.33984 11.00000  0.03396   6.36
C003  1  0.78090  0.26449  0.60737 11.00000  0.04116   6.15
C004  1  0.58819  0.35666  0.43797 11.00000  0.03665   6.05
C005  1  0.46139  0.17098  0.55615 11.00000  0.04316   6.01
C006  1  0.67798  0.51383  0.28008 11.00000  0.04033   5.92
O007  4  0.85463  0.50518  0.30896 11.00000  0.05323   5.91
C008  1  0.63244  0.16746  0.62964 11.00000  0.04056   5.77
C009  1  0.76043  0.35862  0.51431 11.00000  0.03994   5.75
C00A  1  0.44050  0.26496  0.46108 11.00000  0.04329   5.69
C00B  1  0.58900  0.59887  0.17632 11.00000  0.04795   5.31
HKLF 4
END
