TITL SP14R08_expF_0_9_expS_0_6_SP14R08_c.res in P2(1)
REM Old TITL SP14R08 in P2(1)/n
REM SHELXT solution in P2(1): R1 0.245, Rweak 0.082, Alpha 0.172
REM <I/s>   3.447 for    6 systematic absences,  Orientation as input
REM Formula found by SHELXT:  C18 N2 O2

CELL  0.71073   7.0200   9.2700  11.5600   90.000   97.670   90.000
ZERR   16.000   0.0014   0.0019   0.0023    0.000    0.030    0.000
LATT -1
SYMM -X, 1/2+Y, -Z
SFAC C H N O
UNIT 16 16 16 16
L.S. 10
BOND
LIST 6
FMAP 2
PLAN 20
N001  3  0.83311  0.38506  0.19012 11.00000  0.02073   7.36
N002  3  0.79920  0.30503  0.08868 11.00000  0.02407   7.09
C003  1  0.92767  0.22575  0.03132 11.00000  0.02261   6.54
C004  1  0.70807  0.57246  0.30848 11.00000  0.02392   6.27
O005  4  1.09560  0.23103  0.05709 11.00000  0.04446   6.24
C006  1  0.87765  0.57367  0.37816 11.00000  0.02597   6.12
C007  1  0.91301  0.68059  0.46670 11.00000  0.02319   5.88
C008  1  0.51501  0.60300  0.76178 11.00000  0.03179   5.82
C009  1  0.53024  0.51383  0.86287 11.00000  0.02777   5.50
C00A  1  0.68369  0.46924  0.20901 11.00000  0.02670   5.46
C00B  1  1.03483  0.48951  0.35783 11.00000  0.03379   5.06
C00C  1  0.41486  0.33287  0.97638 11.00000  0.01477   5.05
O00D  4  0.60787  0.74360  0.56023 11.00000  0.03922   5.01
C00E  1  0.84886  0.14863 -0.07168 11.00000  0.02270   4.87
C00F  1  0.33416  0.85137  0.42491 11.00000  0.03964   4.77
C00G  1  0.19828  0.50048  0.71113 11.00000  0.02947   4.33
C00H  1  0.30482  0.70682  0.59063 11.00000  0.02873   4.17
C00I  1  1.00305  0.38783  0.26741 11.00000  0.02389   4.16
C00J  1  0.43156  0.75026  0.52686 11.00000  0.02736   4.05
C00K  1  0.38901  0.41442  0.88318 11.00000  0.03130   4.03
C00L  1  0.21571  0.41175  0.79947 11.00000  0.04476   3.81
C00M  1  0.34893  0.59272  0.68391 11.00000  0.04933   3.11
HKLF 4
END
