TITL SP14R08_expF_1_3_expS_1_5_SP14R08_b.res in Pn
REM Old TITL SP14R08 in P2(1)/n
REM SHELXT solution in Pn: R1 0.279, Rweak 0.017, Alpha 0.019
REM <I/s>   1.800 for  101 systematic absences,  Orientation as input
REM Formula found by SHELXT:  C14 N4 O4

CELL  0.71073   7.0200   9.2700  11.5600   90.000   97.670   90.000
ZERR   16.000   0.0014   0.0019   0.0023    0.000    0.030    0.000
LATT -1
SYMM 1/2+X, -Y, 1/2+Z
SFAC C H N O
UNIT 16 16 16 16
L.S. 10
BOND
LIST 6
FMAP 2
PLAN 20
N001  3  0.91210  0.10618  0.56454 11.00000  0.03446   8.19
C002  1  0.81506  0.25772  0.72786 11.00000  0.03663   7.57
O003  4  1.03270 -0.08243  0.44951 11.00000  0.05137   7.53
O004  4  0.83422 -0.17024  0.27946 11.00000  0.04310   7.35
N005  3  0.12230  0.58229  0.63170 11.00000  0.04088   7.20
N006  3  0.94672  0.20179  0.66543 11.00000  0.03727   6.87
N007  3  0.71947  0.00907  0.39643 11.00000  0.03941   6.86
C008  1  0.25536  0.39750  0.51265 11.00000  0.03695   6.13
O009  4  0.34751  0.24046  0.31518 11.00000  0.04282   6.04
O00A  4  0.64284  0.25308  0.69914 11.00000  0.05758   5.96
C00B  1 -0.05753  0.48553  0.46569 11.00000  0.03642   5.96
C00C  1  0.05228  0.30384  0.34578 11.00000  0.03209   5.72
C00D  1  0.89198  0.34722  0.82264 11.00000  0.04096   5.70
C00E  1  0.15685  0.67701  0.72361 11.00000  0.03242   5.64
C00F  1  0.28329  0.48005  0.61431 11.00000  0.04563   5.64
C00G  1  1.05753  0.01526  0.54596 11.00000  0.03936   5.49
C00H  1  0.07555  0.14883  0.17736 11.00000  0.04061   5.32
C00I  1  0.73566  0.10977  0.48418 11.00000  0.03425   5.14
C00J  1 -0.04176  0.57434  0.56536 11.00000  0.05559   4.85
C00K  1  0.17247  0.23297  0.28882 11.00000  0.03628   4.29
C00L  1  0.85684 -0.08019  0.36937 11.00000  0.04277   4.12
C00M  1  0.08821  0.39349  0.44075 11.00000  0.04157   4.01
HKLF 4
END
