TITL SP14R08_expF_1_2_expS_1_5_SP14R08_c.res in P2(1)
REM Old TITL SP14R08 in P2(1)/n
REM SHELXT solution in P2(1): R1 0.266, Rweak 0.029, Alpha 0.086
REM <I/s>   1.322 for    6 systematic absences,  Orientation as input
REM Formula found by SHELXT:  C13 N6 O3

CELL  0.71073   7.0200   9.2700  11.5600   90.000   97.670   90.000
ZERR   16.000   0.0014   0.0019   0.0023    0.000    0.030    0.000
LATT -1
SYMM -X, 1/2+Y, -Z
SFAC C H N O
UNIT 16 16 16 16
L.S. 10
BOND
LIST 6
FMAP 2
PLAN 20
N001  3  0.82804  0.39484  0.18681 11.00000  0.04163   7.53
O002  4  0.71638  0.57274  0.30539 11.00000  0.05578   7.52
N003  3  0.91275  0.67797  0.47026 11.00000  0.02583   7.19
N004  3  0.51283  0.60723  0.76544 11.00000  0.04397   6.97
N005  3  0.30512  0.68986  0.58918 11.00000  0.03035   6.78
N006  3  1.03290  0.48962  0.35936 11.00000  0.04300   6.58
N007  3  0.53160  0.51666  0.86045 11.00000  0.04482   6.54
O008  4  1.09805  0.23813  0.05664 11.00000  0.03857   6.51
C009  1  0.79870  0.29174  0.09168 11.00000  0.03176   6.47
C00A  1  0.42927  0.75919  0.52768 11.00000  0.03318   6.33
C00B  1  0.41452  0.33538  0.97528 11.00000  0.03179   6.18
O00C  4  0.60649  0.75184  0.56178 11.00000  0.05213   6.17
C00D  1  0.83693  0.14940 -0.07623 11.00000  0.02737   6.16
C00E  1  0.19120  0.51088  0.71135 11.00000  0.03264   6.13
C00F  1  0.38681  0.41864  0.87899 11.00000  0.03457   6.12
C00G  1  0.92966  0.23410  0.03290 11.00000  0.03176   5.82
C00H  1  0.69253  0.48308  0.20847 11.00000  0.03610   5.74
C00I  1  0.87689  0.57958  0.38048 11.00000  0.03249   5.74
C00J  1  0.34574  0.60614  0.68924 11.00000  0.02921   5.12
C00K  1  0.20719  0.41555  0.80668 11.00000  0.04197   5.08
C00L  1  0.34796  0.85060  0.43238 11.00000  0.04786   4.98
C00M  1  1.00670  0.39650  0.26281 11.00000  0.03169   4.72
HKLF 4
END
