TITL SP14R08_expF_1_1_expS_1_4_SP14R08_b.res in P2(1)
REM Old TITL SP14R08 in P2(1)/n
REM SHELXT solution in P2(1): R1 0.250, Rweak 0.039, Alpha 0.130
REM <I/s>   1.154 for    6 systematic absences,  Orientation as input
REM Formula found by SHELXT:  C16 N3 O3

CELL  0.71073   7.0200   9.2700  11.5600   90.000   97.670   90.000
ZERR   16.000   0.0014   0.0019   0.0023    0.000    0.030    0.000
LATT -1
SYMM -X, 1/2+Y, -Z
SFAC C H N O
UNIT 16 16 16 16
L.S. 10
BOND
LIST 6
FMAP 2
PLAN 20
N001  3  0.83161  0.38369  0.18958 11.00000  0.02764   7.35
N002  3  0.70857  0.56602  0.30790 11.00000  0.03755   6.98
N003  3  0.79345  0.29769  0.08857 11.00000  0.03976   6.73
C004  1  0.92945  0.23122  0.02990 11.00000  0.02672   6.56
O005  4  1.10200  0.23106  0.05964 11.00000  0.03769   6.17
C006  1  0.53371  0.50489  0.86158 11.00000  0.03621   6.16
C007  1  0.91154  0.67608  0.46679 11.00000  0.02308   5.87
C008  1  0.68683  0.48446  0.20718 11.00000  0.02889   5.79
O009  4  0.41462  0.32737  0.97661 11.00000  0.03785   5.77
C00A  1  0.50801  0.60202  0.76505 11.00000  0.02698   5.74
C00B  1  0.88332  0.57952  0.38268 11.00000  0.03068   5.66
C00C  1  0.38087  0.41847  0.87804 11.00000  0.03102   5.36
C00D  1  1.02850  0.47715  0.35649 11.00000  0.02629   5.29
O00E  4  0.60180  0.74289  0.55800 11.00000  0.04701   5.21
C00F  1  0.30825  0.69545  0.59138 11.00000  0.01645   5.13
C00G  1  0.34162  0.85257  0.42517 11.00000  0.04436   5.08
C00H  1  1.01217  0.38923  0.26279 11.00000  0.03338   5.02
C00I  1  0.84318  0.14743 -0.07256 11.00000  0.02505   4.98
C00J  1  0.19503  0.51203  0.71231 11.00000  0.03541   4.93
C00K  1  0.43068  0.75608  0.53049 11.00000  0.03350   4.67
C00L  1  0.21630  0.40746  0.80370 11.00000  0.03701   4.03
C00M  1  0.34634  0.59224  0.68600 11.00000  0.03859   3.73
HKLF 4
END
