TITL SP14R08_expF_1_2_expS_1_5_SP14R08_a.res in P2(1)/n
REM Old TITL SP14R08 in P2(1)/n
REM SHELXT solution in P2(1)/n: R1 0.291, Rweak 0.030, Alpha 0.070
REM <I/s>   1.669 for  107 systematic absences,  Orientation as input
REM Formula found by SHELXT:  C10 O

CELL  0.71073   7.0200   9.2700  11.5600   90.000   97.670   90.000
ZERR   16.000   0.0014   0.0019   0.0023    0.000    0.030    0.000
LATT  1
SYMM 1/2-X, 1/2+Y, 1/2-Z
SFAC C H N O
UNIT 16 16 16 16
L.S. 10
BOND
LIST 6
FMAP 2
PLAN 20
C001  1  0.55177  0.55186  0.34022 11.00000  0.02779   6.37
C002  1  0.66317  0.92431  0.72191 11.00000  0.02478   6.35
C003  1  0.78237  0.73662  0.60919 11.00000  0.03264   6.20
O004  4  0.85143  0.49380  0.30923 11.00000  0.04682   6.20
C005  1  0.58836  0.64482  0.43865 11.00000  0.03158   6.06
C006  1  0.46296  0.82898  0.55615 11.00000  0.03648   5.96
C007  1  0.67984  0.48781  0.27932 11.00000  0.03209   5.94
C008  1  0.63259  0.82952  0.62958 11.00000  0.03349   5.76
C009  1  0.76037  0.64383  0.51400 11.00000  0.03220   5.70
C00A  1  0.44028  0.73593  0.46041 11.00000  0.03582   5.67
C00B  1  0.59091  0.39996  0.17667 11.00000  0.03649   5.39
HKLF 4
END
