TITL SP14R08_expF_1_1_expS_1_5_SP14R08_c.res in P2(1)
REM Old TITL SP14R08 in P2(1)/n
REM SHELXT solution in P2(1): R1 0.250, Rweak 0.038, Alpha 0.105
REM <I/s>   0.978 for    6 systematic absences,  Orientation as input
REM Formula found by SHELXT:  C14 N4 O4

CELL  0.71073   7.0200   9.2700  11.5600   90.000   97.670   90.000
ZERR   16.000   0.0014   0.0019   0.0023    0.000    0.030    0.000
LATT -1
SYMM -X, 1/2+Y, -Z
SFAC C H N O
UNIT 16 16 16 16
L.S. 10
BOND
LIST 6
FMAP 2
PLAN 20
O001  4  0.41357  0.66609  0.97699 11.00000  0.03265   7.83
O002  4  0.79580  0.69838  0.08900 11.00000  0.04398   7.76
N003  3  0.21452  0.58786  0.80289 11.00000  0.03902   6.93
N004  3  0.84827  0.85147 -0.07110 11.00000  0.02891   6.73
N005  3  0.53207  0.48372  0.86311 11.00000  0.03667   6.68
N006  3  0.51162  0.38961  0.76645 11.00000  0.03110   6.56
C007  1  0.42958  0.24041  0.52808 11.00000  0.02861   6.51
O008  4  0.60554  0.25138  0.56033 11.00000  0.03223   6.38
C009  1  0.33595  0.39292  0.69019 11.00000  0.03135   6.29
O00A  4  1.09961  0.76777  0.05791 11.00000  0.04478   6.19
C00B  1  0.88411  0.41674  0.38082 11.00000  0.02878   6.01
C00C  1  0.83971  0.60632  0.18714 11.00000  0.02400   5.99
C00D  1  1.03136  0.51189  0.35476 11.00000  0.02855   5.84
C00E  1  0.68621  0.51334  0.20714 11.00000  0.02666   5.83
C00F  1  0.37928  0.57627  0.87975 11.00000  0.02871   5.72
C00G  1  0.92834  0.76580  0.03135 11.00000  0.02388   5.52
C00H  1  0.19583  0.48636  0.71185 11.00000  0.03073   5.48
C00I  1  0.30752  0.29946  0.59185 11.00000  0.01705   5.15
C00J  1  0.91391  0.31752  0.46701 11.00000  0.01962   5.10
C00K  1  1.00887  0.60106  0.26100 11.00000  0.03099   5.09
C00L  1  0.70842  0.43022  0.30923 11.00000  0.03066   5.05
C00M  1  0.33408  0.14853  0.42386 11.00000  0.04136   4.37
HKLF 4
END
