TITL SP14R08_expF_0_5_expS_1_0_SP14R08_a.res in P2(1)
REM Old TITL SP14R08 in P2(1)/n
REM SHELXT solution in P2(1): R1 0.283, Rweak 0.398, Alpha 0.282
REM <I/s>   0.609 for    6 systematic absences,  Orientation as input
REM Formula found by SHELXT:  C16 N6 O6

CELL  0.71073   7.0200   9.2700  11.5600   90.000   97.670   90.000
ZERR   16.000   0.0014   0.0019   0.0023    0.000    0.030    0.000
LATT -1
SYMM -X, 1/2+Y, -Z
SFAC C H N O
UNIT 16 16 16 16
L.S. 10
BOND
LIST 6
FMAP 2
PLAN 20
O001  4  0.19452  0.70148  0.90629 11.00000  0.00486  10.44
N002  3  0.12676  0.41543  0.62315 11.00000  0.00010  10.01
N003  3  0.17544  0.60327  0.81065 11.00000  0.00010   9.59
N004  3  0.57008  0.23027  0.47510 11.00000  0.00010   9.31
O005  4  0.81567  0.48944  0.29315 11.00000  0.00832   9.13
O006  4  0.58667  0.66803  0.01887 11.00000  0.00097   8.82
O007  4 -0.09712  0.76278  0.94125 11.00000  0.00695   8.75
O008  4  0.48962  0.37931  0.24017 11.00000  0.00010   8.34
O009  4  0.14528  0.84730  1.06907 11.00000  0.00720   7.91
N00A  3  0.45450  0.46974  0.13466 11.00000  0.01096   7.18
N00B  3  0.29617  0.42037  0.69243 11.00000  0.00010   7.11
N00C  3  0.39501  0.25480  0.44502 11.00000  0.00010   6.50
C00D  1  0.06596  0.31869  0.53784 11.00000  0.00043   6.38
C00E  1 -0.02230  0.50085  0.64052 11.00000  0.00010   6.15
C00F  1  0.65090  0.39093  0.31347 11.00000  0.01920   5.55
C00G  1  0.66886  0.15270  0.57727 11.00000  0.01273   5.00
C00H  1  0.06574  0.76407  0.96599 11.00000  0.00719   5.00
C00I  1 -0.01021  0.58108  0.72440 11.00000  0.00010   4.69
C00J  1  0.59556  0.55574  0.11837 11.00000  0.03413   4.37
C00K  1  0.79922  0.58806  0.21806 11.00000  0.02524   4.34
C00L  1  0.32044  0.50899  0.78899 11.00000  0.01068   4.00
C00M  1  0.68697  0.30479  0.41739 11.00000  0.02462   3.94
C00N  1  0.20335  0.29449  0.48199 11.00000  0.04776   3.46
C00O  1  0.36311  0.21740  0.60605 11.00000  0.15610   3.35
C00P  1  0.17378  0.33796  0.33256 11.00000  0.17520   3.26
C00Q  1  0.08131  0.43985  0.39126 11.00000  0.06330   3.17
C00R  1  0.11140  0.24904  0.57803 11.00000  0.04303   3.04
C00S  1  0.09068  0.51458  0.49682 11.00000  0.04164   3.00
HKLF 4
END
