TITL SP14R08_expF_1_0_expS_1_0_SP14R08_a.res in P2(1)/n
REM Old TITL SP14R08 in P2(1)/n
REM SHELXT solution in P2(1)/n: R1 0.269, Rweak 0.062, Alpha 0.125
REM <I/s>   1.402 for  107 systematic absences,  Orientation as input
REM Formula found by SHELXT:  C9 N O

CELL  0.71073   7.0200   9.2700  11.5600   90.000   97.670   90.000
ZERR   16.000   0.0014   0.0019   0.0023    0.000    0.030    0.000
LATT  1
SYMM 1/2-X, 1/2+Y, 1/2-Z
SFAC C H N O
UNIT 16 16 16 16
L.S. 10
BOND
LIST 6
FMAP 2
PLAN 20
N001  3  0.55083  0.44934  0.33899 11.00000  0.02968   6.52
O002  4  0.85037  0.50642  0.30854 11.00000  0.03995   6.32
C003  1  0.67895  0.51181  0.27895 11.00000  0.02281   6.20
C004  1  0.66424  0.07447  0.72191 11.00000  0.01902   6.18
C005  1  0.78232  0.26384  0.60979 11.00000  0.02559   6.05
C006  1  0.58803  0.35673  0.43846 11.00000  0.02493   5.98
C007  1  0.63305  0.17102  0.63033 11.00000  0.02617   5.94
C008  1  0.75895  0.35674  0.51470 11.00000  0.02526   5.67
C009  1  0.46168  0.17099  0.55559 11.00000  0.02980   5.64
C00A  1  0.43907  0.26449  0.45921 11.00000  0.02789   5.49
C00B  1  0.59194  0.60099  0.17671 11.00000  0.02719   5.46
HKLF 4
END
