TITL SP14R08_expF_1_0_expS_1_2_SP14R08_a.res in P2(1)/n
REM Old TITL SP14R08 in P2(1)/n
REM SHELXT solution in P2(1)/n: R1 0.271, Rweak 0.057, Alpha 0.104
REM <I/s>   1.432 for  107 systematic absences,  Orientation as input
REM Formula found by SHELXT:  C10 O

CELL  0.71073   7.0200   9.2700  11.5600   90.000   97.670   90.000
ZERR   16.000   0.0014   0.0019   0.0023    0.000    0.030    0.000
LATT  1
SYMM 1/2-X, 1/2+Y, 1/2-Z
SFAC C H N O
UNIT 16 16 16 16
L.S. 10
BOND
LIST 6
FMAP 2
PLAN 20
C001  1  0.55092  0.44932  0.33931 11.00000  0.02106   6.48
O002  4  0.85129  0.50602  0.30850 11.00000  0.03885   6.32
C003  1  0.67918  0.51278  0.27865 11.00000  0.02470   6.19
C004  1  0.66439  0.07509  0.72187 11.00000  0.02043   6.15
C005  1  0.58790  0.35600  0.43817 11.00000  0.02684   6.12
C006  1  0.78190  0.26392  0.60964 11.00000  0.02598   5.94
C007  1  0.63255  0.17095  0.62981 11.00000  0.02670   5.92
C008  1  0.46179  0.17089  0.55559 11.00000  0.03005   5.70
C009  1  0.75924  0.35684  0.51442 11.00000  0.02557   5.65
C00A  1  0.43865  0.26401  0.45931 11.00000  0.02883   5.56
C00B  1  0.59163  0.60105  0.17674 11.00000  0.02771   5.44
HKLF 4
END
