TITL SP14R08_expF_0_7_expS_1_2_SP14R08_b.res in P2(1)
REM Old TITL SP14R08 in P2(1)/n
REM SHELXT solution in P2(1): R1 0.257, Rweak 0.191, Alpha 0.175
REM <I/s>   0.752 for    6 systematic absences,  Orientation as input
REM Formula found by SHELXT:  C11 N5 O6

CELL  0.71073   7.0200   9.2700  11.5600   90.000   97.670   90.000
ZERR   16.000   0.0014   0.0019   0.0023    0.000    0.030    0.000
LATT -1
SYMM -X, 1/2+Y, -Z
SFAC C H N O
UNIT 16 16 16 16
L.S. 10
BOND
LIST 6
FMAP 2
PLAN 20
N001  3  0.17655  0.62244  0.81399 11.00000  0.00477  10.18
O002  4  0.69725  0.30690  0.41184 11.00000  0.00825   8.73
O003  4 -0.10366  0.78152  0.94273 11.00000  0.01297   8.44
O004  4  0.08271  0.33734  0.52217 11.00000  0.03075   8.41
C005  1  0.06364  0.78320  0.96423 11.00000  0.00280   8.09
O006  4  0.80839  0.50088  0.29432 11.00000  0.02179   8.02
N007  3  0.11917  0.43857  0.61868 11.00000  0.01416   7.61
N008  3  0.48989  0.41806  0.23502 11.00000  0.00010   7.41
N009  3  0.29493  0.44444  0.69382 11.00000  0.00756   6.99
N00A  3  0.15572  0.85606  1.07858 11.00000  0.00170   6.62
C00B  1 -0.02911  0.54082  0.63991 11.00000  0.01471   6.49
C00C  1  0.46746  0.50716  0.13834 11.00000  0.00671   6.29
C00D  1  0.20032  0.70255  0.91052 11.00000  0.01143   5.75
C00E  1  0.58183  0.25845  0.47726 11.00000  0.01726   5.62
C00F  1  0.62164  0.59760  0.12506 11.00000  0.02184   5.50
O00G  4  0.39900  0.26907  0.43817 11.00000  0.01964   5.43
C00H  1  0.65232  0.14394  0.56590 11.00000  0.01590   5.40
O00I  4  0.58124  0.69129  0.03326 11.00000  0.01388   5.07
C00J  1 -0.01223  0.63834  0.73975 11.00000  0.02755   4.86
C00K  1  0.79010  0.60485  0.20207 11.00000  0.02406   4.71
C00L  1  0.63396  0.41559  0.31197 11.00000  0.02882   3.55
C00M  1  0.31659  0.52421  0.78711 11.00000  0.01744   3.43
HKLF 4
END
