TITL SP14R08_expF_1_2_expS_1_4_SP14R08_b.res in Pn
REM Old TITL SP14R08 in P2(1)/n
REM SHELXT solution in Pn: R1 0.249, Rweak 0.027, Alpha 0.019
REM <I/s>   1.647 for  101 systematic absences,  Orientation as input
REM Formula found by SHELXT:  C10 N3 O9

CELL  0.71073   7.0200   9.2700  11.5600   90.000   97.670   90.000
ZERR   16.000   0.0014   0.0019   0.0023    0.000    0.030    0.000
LATT -1
SYMM 1/2+X, -Y, 1/2+Z
SFAC C H N O
UNIT 16 16 16 16
L.S. 10
BOND
LIST 6
FMAP 2
PLAN 20
O001  4  0.23108  0.60352  0.47998 11.00000  0.03640   9.88
O002  4  0.45627  0.69449  0.65654 11.00000  0.04938   8.91
O003  4  0.46513  1.07470  0.55327 11.00000  0.04174   8.56
N004  3  0.36193  0.41921  0.36785 11.00000  0.03519   8.25
O005  4  0.21705  0.51062  0.38552 11.00000  0.05803   7.87
O006  4  0.66950  1.16928  0.72184 11.00000  0.02811   7.82
N007  3  0.58630  0.89687  0.43379 11.00000  0.02976   7.73
O008  4  0.55132  0.51401  0.53659 11.00000  0.05608   7.51
C009  1  0.67665  0.73630  0.27446 11.00000  0.02974   7.46
O00A  4  0.14805  0.75798  0.68676 11.00000  0.04907   7.31
O00B  4  0.41408  0.85552  0.82343 11.00000  0.04948   7.20
N00C  3  0.34652  0.32051  0.27949 11.00000  0.04077   6.59
O00D  4  0.85195  0.74488  0.30459 11.00000  0.03445   6.57
C00E  1  0.31926  0.76064  0.71448 11.00000  0.02838   5.85
C00F  1  0.78083  0.98408  0.60482 11.00000  0.02181   5.84
C00G  1  0.55825  0.79813  0.33651 11.00000  0.01671   5.57
C00H  1  0.41259  0.60916  0.55696 11.00000  0.03533   5.43
C00I  1  0.43600  0.98645  0.45556 11.00000  0.02606   5.16
C00J  1  0.62714  1.08394  0.62799 11.00000  0.03044   5.15
C00K  1  0.59886  0.65497  0.17657 11.00000  0.03567   5.08
C00L  1  0.54409  0.41509  0.44181 11.00000  0.04376   4.79
C00M  1  0.74964  0.89139  0.50838 11.00000  0.03780   3.18
HKLF 4
END
