TITL SP14R08_expF_1_5_expS_0_6_SP14R08_a.res in P2(1)/n
REM Old TITL SP14R08 in P2(1)/n
REM SHELXT solution in P2(1)/n: R1 0.334, Rweak 0.020, Alpha 0.041
REM <I/s>   2.115 for  107 systematic absences,  Orientation as input
REM Formula found by SHELXT:  C10 O

CELL  0.71073   7.0200   9.2700  11.5600   90.000   97.670   90.000
ZERR   16.000   0.0014   0.0019   0.0023    0.000    0.030    0.000
LATT  1
SYMM 1/2-X, 1/2+Y, 1/2-Z
SFAC C H N O
UNIT 16 16 16 16
L.S. 10
BOND
LIST 6
FMAP 2
PLAN 20
C001  1  0.65940  0.07800  0.72062 11.00000  0.03895   6.50
C002  1  0.55090  0.44680  0.33955 11.00000  0.04568   6.32
C003  1  0.77853  0.26350  0.60702 11.00000  0.05314   6.14
C004  1  0.58691  0.35686  0.43772 11.00000  0.04676   6.08
C005  1  0.46181  0.16874  0.55597 11.00000  0.05592   6.07
C006  1  0.67653  0.51643  0.27886 11.00000  0.05356   5.88
O007  4  0.85242  0.50472  0.30868 11.00000  0.07574   5.86
C008  1  0.75862  0.35848  0.51315 11.00000  0.05496   5.76
C009  1  0.63538  0.16724  0.62951 11.00000  0.05284   5.75
C00A  1  0.44284  0.26479  0.46060 11.00000  0.05887   5.70
C00B  1  0.59363  0.59623  0.17545 11.00000  0.06072   5.29
HKLF 4
END
