TITL SP14R08_expF_1_2_expS_1_3_SP14R08_b.res in Pn
REM Old TITL SP14R08 in P2(1)/n
REM SHELXT solution in Pn: R1 0.249, Rweak 0.028, Alpha 0.019
REM <I/s>   1.613 for  101 systematic absences,  Orientation as input
REM Formula found by SHELXT:  C10 N4 O8

CELL  0.71073   7.0200   9.2700  11.5600   90.000   97.670   90.000
ZERR   16.000   0.0014   0.0019   0.0023    0.000    0.030    0.000
LATT -1
SYMM 1/2+X, -Y, 1/2+Z
SFAC C H N O
UNIT 16 16 16 16
L.S. 10
BOND
LIST 6
FMAP 2
PLAN 20
O001  4  0.76940  0.39612  0.51982 11.00000  0.03805   9.84
O002  4  0.54487  0.30578  0.34225 11.00000  0.05058   8.89
O003  4  0.53566 -0.07379  0.44533 11.00000  0.04472   8.53
N004  3  0.63947  0.58252  0.63218 11.00000  0.03640   8.22
O005  4  0.78170  0.49019  0.61436 11.00000  0.06120   7.86
O006  4  0.33121 -0.16847  0.27756 11.00000  0.02932   7.83
N007  3  0.41480  0.10357  0.56566 11.00000  0.03194   7.71
C008  1  0.32439  0.26217  0.72453 11.00000  0.03051   7.59
O009  4  0.45010  0.48697  0.46358 11.00000  0.05781   7.52
O00A  4  0.85163  0.24249  0.31236 11.00000  0.05092   7.28
N00B  3  0.58738  0.14439  0.17657 11.00000  0.03924   7.19
N00C  3  0.65335  0.68115  0.71986 11.00000  0.04203   6.61
O00D  4  0.14837  0.25584  0.69483 11.00000  0.03657   6.60
C00E  1  0.68148  0.23835  0.28464 11.00000  0.03025   5.86
C00F  1  0.21899  0.01524  0.39470 11.00000  0.02229   5.84
C00G  1  0.44251  0.20199  0.66239 11.00000  0.01829   5.54
C00H  1  0.58850  0.39170  0.44247 11.00000  0.03559   5.45
C00I  1  0.56463  0.01471  0.54433 11.00000  0.02769   5.15
C00J  1  0.37384 -0.08258  0.37201 11.00000  0.03214   5.15
C00K  1  0.40302  0.34422  0.82343 11.00000  0.03762   5.07
C00L  1  0.45786  0.58513  0.55687 11.00000  0.04282   4.78
C00M  1  0.25109  0.10809  0.49165 11.00000  0.03917   3.19
HKLF 4
END
