TITL SP14R08_expF_1_1_expS_0_7_SP14R08_a.res in P2(1)/n
REM Old TITL SP14R08 in P2(1)/n
REM SHELXT solution in P2(1)/n: R1 0.271, Rweak 0.040, Alpha 0.100
REM <I/s>   1.490 for  107 systematic absences,  Orientation as input
REM Formula found by SHELXT:  C9 N O

CELL  0.71073   7.0200   9.2700  11.5600   90.000   97.670   90.000
ZERR   16.000   0.0014   0.0019   0.0023    0.000    0.030    0.000
LATT  1
SYMM 1/2-X, 1/2+Y, 1/2-Z
SFAC C H N O
UNIT 16 16 16 16
L.S. 10
BOND
LIST 6
FMAP 2
PLAN 20
N001  3  0.44954  0.44920  0.66096 11.00000  0.03954   6.51
C002  1  0.33769  0.07492  0.27824 11.00000  0.02424   6.27
O003  4  0.14961  0.50454  0.69128 11.00000  0.05394   6.27
C004  1  0.21749  0.26268  0.39001 11.00000  0.03234   6.14
C005  1  0.32179  0.51240  0.72091 11.00000  0.02846   6.04
C006  1  0.41267  0.35655  0.56164 11.00000  0.02933   6.02
C007  1  0.53708  0.17064  0.44478 11.00000  0.03550   5.88
C008  1  0.36611  0.17079  0.36938 11.00000  0.03216   5.77
C009  1  0.24165  0.35704  0.48553 11.00000  0.03239   5.64
C00A  1  0.55958  0.26478  0.54096 11.00000  0.03453   5.59
C00B  1  0.40721  0.60110  0.82349 11.00000  0.03536   5.54
HKLF 4
END
