TITL SP14R08_expF_1_3_expS_1_4_SP14R08_a.res in P2(1)/n
REM Old TITL SP14R08 in P2(1)/n
REM SHELXT solution in P2(1)/n: R1 0.305, Rweak 0.023, Alpha 0.050
REM <I/s>   1.782 for  107 systematic absences,  Orientation as input
REM Formula found by SHELXT:  C10 O

CELL  0.71073   7.0200   9.2700  11.5600   90.000   97.670   90.000
ZERR   16.000   0.0014   0.0019   0.0023    0.000    0.030    0.000
LATT  1
SYMM 1/2-X, 1/2+Y, 1/2-Z
SFAC C H N O
UNIT 16 16 16 16
L.S. 10
BOND
LIST 6
FMAP 2
PLAN 20
C001  1  0.66213  0.92397  0.72217 11.00000  0.02870   6.42
C002  1  0.55171  0.55126  0.34014 11.00000  0.03272   6.38
C003  1  0.78229  0.73783  0.60915 11.00000  0.03731   6.11
O004  4  0.85210  0.49426  0.30902 11.00000  0.05280   6.07
C005  1  0.67947  0.48736  0.27945 11.00000  0.03788   6.02
C006  1  0.58778  0.64438  0.43859 11.00000  0.03560   6.02
C007  1  0.46280  0.82978  0.55619 11.00000  0.04087   5.93
C008  1  0.63305  0.83050  0.63020 11.00000  0.03731   5.81
C009  1  0.76047  0.64291  0.51421 11.00000  0.03639   5.73
C00A  1  0.44210  0.73361  0.46044 11.00000  0.04057   5.69
C00B  1  0.59086  0.40048  0.17707 11.00000  0.04253   5.38
HKLF 4
END
