TITL SP14R08_expF_1_1_expS_0_7_SP14R08_b.res in Pn
REM Old TITL SP14R08 in P2(1)/n
REM SHELXT solution in Pn: R1 0.242, Rweak 0.023, Alpha 0.017
REM <I/s>   1.353 for  101 systematic absences,  Orientation as input
REM Formula found by SHELXT:  C14 N5 O4

CELL  0.71073   7.0200   9.2700  11.5600   90.000   97.670   90.000
ZERR   16.000   0.0014   0.0019   0.0023    0.000    0.030    0.000
LATT -1
SYMM 1/2+X, -Y, 1/2+Z
SFAC C H N O
UNIT 16 16 16 16
L.S. 10
BOND
LIST 6
FMAP 2
PLAN 20
O001  4  0.72120  0.98559  0.39001 11.00000  0.03390   8.78
N002  3  0.94649  0.80074  0.65935 11.00000  0.03587   7.45
N003  3  0.91876  0.89298  0.56249 11.00000  0.03313   7.32
N004  3  1.03741  1.07895  0.44197 11.00000  0.03903   7.09
N005  3 -0.05849  0.51284  0.45533 11.00000  0.04867   7.00
N006  3  0.82962  1.17241  0.27634 11.00000  0.01819   6.89
O007  4  0.34796  0.75725  0.30785 11.00000  0.03457   6.76
C008  1  0.13343  0.41871  0.62870 11.00000  0.04099   6.42
C009  1  0.74339  0.89411  0.48252 11.00000  0.03602   6.34
C00A  1  0.82144  0.74685  0.72104 11.00000  0.02735   6.15
C00B  1  0.90557  0.65217  0.82312 11.00000  0.03646   5.50
C00C  1  0.14452  0.32591  0.72029 11.00000  0.04979   5.48
C00D  1  0.17911  0.77471  0.28283 11.00000  0.03317   5.40
O00E  4  0.64074  0.74805  0.68877 11.00000  0.07517   5.17
C00F  1  0.08941  0.85500  0.17688 11.00000  0.03819   5.15
C00G  1  0.05088  0.70073  0.33862 11.00000  0.03100   4.74
C00H  1  0.09444  0.60326  0.43966 11.00000  0.04074   4.60
C00I  1  0.25747  0.60652  0.51229 11.00000  0.03329   4.56
C00J  1  0.86787  1.07994  0.36827 11.00000  0.02933   4.50
C00K  1 -0.03829  0.42029  0.55225 11.00000  0.04607   4.24
C00L  1  1.05849  0.98356  0.53785 11.00000  0.03359   3.66
C00M  1  0.29805  0.50637  0.61547 11.00000  0.07485   3.12
O00N  4  0.61962  0.83720  0.50063 11.00000  0.23151   3.04
HKLF 4
END
