TITL 1_expF_1_0_expS_1_0_1_a.res in P2(1)
REM Old TITL 1 in P2
REM SHELXT solution in P2(1): R1 0.213, Rweak 0.123, Alpha 0.019
REM <I/s>   3.894 for    3 systematic absences,  Orientation as input
REM Formula found by SHELXT:  C17 O

CELL  0.71073   8.0000   5.0200  16.0200   90.000  103.140   90.000
ZERR   12.000   0.0016   0.0010   0.0032    0.000    0.030    0.000
LATT -1
SYMM -X, 1/2+Y, -Z
SFAC C N O
UNIT 12 12 12
L.S. 10
BOND
LIST 6
FMAP 2
PLAN 20
O001  3  0.85209  0.85176  0.74725 11.00000  0.05328   7.04
C002  1  0.79878  0.43698  0.62105 11.00000  0.03888   6.49
C003  1  0.83539  0.41674  0.71201 11.00000  0.02912   6.39
C004  1  0.69700  0.24047  0.57369 11.00000  0.03903   6.37
C005  1  0.45899  0.57653  0.77761 11.00000  0.04247   6.33
C006  1  0.72802  0.45455  0.44091 11.00000  0.04318   6.27
C007  1  0.83854  0.63506  0.48843 11.00000  0.04191   6.06
C008  1  0.85372  0.62056  0.76835 11.00000  0.04070   5.99
C009  1  1.04763  0.66600  0.91370 11.00000  0.04386   5.88
C00A  1  0.86829  0.63089  0.57870 11.00000  0.03906   5.83
C00B  1  0.65509  0.25741  0.48161 11.00000  0.04325   5.75
C00C  1  0.88059  0.55189  0.86104 11.00000  0.03351   5.72
C00D  1  0.31445  0.42730  0.74178 11.00000  0.04638   5.44
C00E  1  0.72679  0.64753  0.89488 11.00000  0.03834   5.36
C00F  1  0.36883  0.14824  0.86575 11.00000  0.05506   5.35
C00G  1  0.26490  0.21651  0.78578 11.00000  0.04897   5.32
C00H  1  0.55609  0.50210  0.85834 11.00000  0.03753   5.15
C00I  1  0.51611  0.28314  0.90269 11.00000  0.04676   5.01
HKLF 4
END
