TITL 0620_expF_1_1_expS_0_6_0620_a.res in I-4
REM Old TITL 0620 in I4(1)/a
REM SHELXT solution in I-4: R1 0.341, Rweak 0.048, Alpha 0.161
REM <I/s>   0.000 for    0 systematic absences,  Orientation as input
REM Flack x = -7.592 ( 9.990 ) from   124 Parsons' quotients
REM Formula found by SHELXT:  C68 N29 O8

CELL  0.71073  26.6550  26.6550   7.5900   90.000   90.000   90.000
ZERR  108.000   0.0038   0.0038   0.0015    0.000    0.000    0.000
LATT -2
SYMM -X, -Y, Z
SYMM Y, -X, -Z
SYMM -Y, X, -Z
SFAC C H N O
UNIT 108 108 108 108
L.S. 10
BOND
LIST 6
FMAP 2
PLAN 20
N001  3  0.91029  0.46090  0.13153 11.00000  0.20370   9.52
C002  1  0.87018  0.53791  0.00716 11.00000  0.18147   8.87
N003  3  1.00000  0.50000 -0.25000 10.25000  0.13782   8.00
N004  3  0.94445  0.46342 -0.00383 11.00000  0.18306   7.75
N005  3  0.87497  0.49577  0.10229 11.00000  0.27167   7.61
N006  3  0.57887  0.46169  1.39959 11.00000  0.19156   7.26
C007  1  0.95466  0.50529 -0.12441 11.00000  0.14487   7.23
N008  3  0.73965  0.51897  0.45364 11.00000  0.21546   6.96
N009  3  0.79233  0.49295  0.49766 11.00000  0.21889   6.81
C00A  1  0.91071  0.53685 -0.14518 11.00000  0.12766   6.50
C00B  1  0.69832  0.53060  0.56927 11.00000  0.22960   6.49
C00C  1  0.66684  0.47734  1.00808 11.00000  0.16359   6.42
C00D  1  0.58979  0.52292  1.09994 11.00000  0.16740   6.06
C00E  1  0.61783  0.48565  1.12475 11.00000  0.18281   5.80
C00F  1  0.74397  0.47318  0.80297 11.00000  0.22972   5.56
C00G  1  0.53998  0.49212  1.36748 11.00000  0.18637   5.30
C00H  1  0.61163  0.45963  1.25811 11.00000  0.14434   5.19
C00I  1  0.83202  0.48411  0.32915 11.00000  0.26561   5.04
C00J  1  0.73622  0.54237  0.28574 11.00000  0.18299   4.92
C00K  1  0.79432  0.47888  0.65775 11.00000  0.27625   4.21
C00L  1  0.89315  0.45100  0.24623 11.00000  0.31667   3.93
C00M  1  0.74769  0.45007  0.97764 11.00000  0.27077   3.75
O00N  4  0.65811  0.50561  0.84950 11.00000  0.31999   3.73
C00O  1  0.54110  0.53613  1.22146 11.00000  0.23223   3.66
N00P  3  0.84298  0.34141  0.10532 11.00000  0.38727   3.36
O00Q  4  0.87152  0.45759  0.46357 11.00000  0.34096   3.34
C00R  1  0.72225  0.51214  0.70638 11.00000  0.33581   3.16
HKLF 4
END
