TITL 0620_expF_1_1_expS_0_8_0620_a.res in I4(1)
REM Old TITL 0620 in I4(1)/a
REM SHELXT solution in I4(1): R1 0.344, Rweak 0.044, Alpha 0.190
REM <I/s>   0.000 for    0 systematic absences,  Orientation as input
REM Flack x = -9.990 ( 9.990 ) from   117 Parsons' quotients
REM Formula found by SHELXT:  C31 N24 O6

CELL  0.71073  26.6550  26.6550   7.5900   90.000   90.000   90.000
ZERR  108.000   0.0038   0.0038   0.0015    0.000    0.000    0.000
LATT -2
SYMM 1/2-X, 1/2-Y, 1/2+Z
SYMM -Y, 1/2+X, 1/4+Z
SYMM 1/2+Y, -X, 3/4+Z
SFAC C H N O
UNIT 108 108 108 108
L.S. 10
BOND
LIST 6
FMAP 2
PLAN 20
N001  3  0.96828  0.58108  1.15691 11.00000  0.20738   9.27
C002  1  1.01973  0.62897  1.14467 11.00000  0.16665   8.97
N003  3  1.04130  0.62218  1.02085 11.00000  0.18133   8.89
N004  3  0.96939  0.55051  1.02692 11.00000  0.15303   8.77
N005  3  0.91686  0.54020  0.68247 11.00000  0.16708   8.66
N006  3  0.87991  0.54603  0.56194 11.00000  0.21621   8.39
N007  3  0.95384  0.50294  0.66195 11.00000  0.18170   8.07
N008  3  1.00578  0.54220  0.90138 11.00000  0.17404   7.77
N009  3  0.75787  0.46355 -0.26472 11.00000  0.22792   7.54
N00A  3  0.91222  0.46817  0.39909 11.00000  0.18139   7.47
C00B  1  0.70863  0.52539 -0.03580 11.00000  0.17707   7.07
N00C  3  0.82730  0.49900  0.19159 11.00000  0.29690   7.00
C00D  1  1.03745  0.58252  0.88330 11.00000  0.15039   6.56
C00E  1  0.82391  0.52818  0.32405 11.00000  0.23998   6.48
C00F  1  0.87309  0.50682  0.40989 11.00000  0.17709   6.29
C00G  1  0.74376  0.52091  0.08187 11.00000  0.15906   6.09
C00H  1  0.71611  0.48936 -0.20100 11.00000  0.20910   6.07
C00I  1  0.95139  0.46168  0.53162 11.00000  0.14963   5.92
O00J  4  0.75875  0.45466 -0.44282 11.00000  0.29408   5.37
C00K  1  0.79175  0.49379  0.03727 11.00000  0.17561   5.29
C00L  1  1.01319  0.66666  1.28199 11.00000  0.14154   5.24
C00M  1  1.00000  0.50000  0.79525 10.50000  0.16039   5.13
O00N  4  0.74821  0.54498  0.24214 11.00000  0.23910   4.50
N00O  3  0.98936  0.60864  1.19529 11.00000  0.22447   4.44
C00P  1  0.78972  0.46888 -0.12204 11.00000  0.20608   4.31
C00Q  1  0.96305  0.58625  1.34365 11.00000  0.31449   4.03
O00R  4  0.65711  0.55005  0.01088 11.00000  0.43031   3.43
C00S  1  0.84372  0.45992  0.17080 11.00000  0.30590   3.36
C00T  1  0.86375  0.46826  0.04401 11.00000  0.25387   3.36
N00U  3  0.77956  0.64899 -0.15654 11.00000  0.40739   3.33
C00V  1  0.99985  0.65507  1.44282 11.00000  0.20305   3.20
HKLF 4
END
