TITL 0620_expF_1_5_expS_0_5_0620_b.res in I4(1)
REM Old TITL 0620 in I4(1)/a
REM SHELXT solution in I4(1): R1 0.456, Rweak 0.023, Alpha 0.172
REM <I/s>   0.000 for    0 systematic absences,  Orientation as input
REM Flack x = -9.990 ( 9.990 ) from   124 Parsons' quotients
REM Formula found by SHELXT:  C39 N8 O14

CELL  0.71073  26.6550  26.6550   7.5900   90.000   90.000   90.000
ZERR  108.000   0.0038   0.0038   0.0015    0.000    0.000    0.000
LATT -2
SYMM 1/2-X, 1/2-Y, 1/2+Z
SYMM -Y, 1/2+X, 1/4+Z
SYMM 1/2+Y, -X, 3/4+Z
SFAC C H N O
UNIT 108 108 108 108
L.S. 10
BOND
LIST 6
FMAP 2
PLAN 20
O001  4  0.52157  0.40515  0.62933 11.00000  0.30522   9.50
N002  3  0.48077  0.37546  0.67548 11.00000  0.34833   8.91
O003  4  0.61255  0.46229  1.23608 11.00000  0.33142   8.49
O004  4  0.58064  0.46445  1.09684 11.00000  0.27031   7.52
O005  4  0.52736  0.29761  0.12818 11.00000  0.37473   7.40
N006  3  0.51992  0.25879 -0.01303 11.00000  0.31067   7.30
C007  1  0.50000  0.50000  1.01521 10.50000  0.23933   6.56
C008  1  0.55017  0.50107  1.15442 11.00000  0.22505   6.54
C009  1  0.53386  0.44809  0.75953 11.00000  0.25262   6.22
C00A  1  0.50168  0.29006  0.24392 11.00000  0.29314   6.04
C00B  1  0.46260  0.41322  0.92109 11.00000  0.21898   6.04
C00C  1  0.45246  0.37913  0.79086 11.00000  0.24013   5.98
C00D  1  0.49247  0.45950  0.88821 11.00000  0.22063   5.88
N00E  3  0.58675  0.53479  1.38121 11.00000  0.30757   5.86
C00F  1  0.62697  0.49750  1.34829 11.00000  0.29669   5.48
C00G  1  0.46879  0.24542  0.33117 11.00000  0.26489   5.09
C00H  1  0.66565  0.51090  1.61984 11.00000  0.36392   5.03
O00I  4  0.53553  0.25835 -0.17316 11.00000  0.44363   4.99
C00J  1  0.67113  0.47639  1.50272 11.00000  0.37269   4.98
C00K  1  0.48048  0.33694  0.54108 11.00000  0.30517   4.82
O00L  4  0.50407  0.22607  0.02703 11.00000  0.37819   4.64
C00M  1  0.55117  0.53703  1.27544 11.00000  0.24131   4.59
C00N  1  0.64029  0.53253  1.75631 11.00000  0.29601   4.27
C00O  1  0.45702  0.24267  0.48310 11.00000  0.29563   4.26
N00P  3  0.64949  0.22959 -0.75631 11.00000  0.38683   4.26
C00Q  1  0.59488  0.54098  1.51796 11.00000  0.34395   4.17
C00R  1  0.64171  0.32293 -0.37062 11.00000  0.45746   3.86
O00S  4  0.64860  0.26048 -0.54232 11.00000  0.53591   3.64
C00T  1  0.50197  0.33275  0.38364 11.00000  0.29045   3.41
C00U  1  0.47339  0.21381  0.20774 11.00000  0.29586   3.10
C00V  1  0.66623  0.25921 -0.30038 11.00000  0.51710   3.01
HKLF 4
END
