TITL 0620_expF_1_0_expS_1_2_0620_b.res in I4(1)
REM Old TITL 0620 in I4(1)/a
REM SHELXT solution in I4(1): R1 0.352, Rweak 0.185, Alpha 0.225
REM <I/s>   0.000 for    0 systematic absences,  Orientation as input
REM Flack x = -0.824 ( 9.990 ) from    90 Parsons' quotients
REM Formula found by SHELXT:  C27 N12 O14

CELL  0.71073  26.6550  26.6550   7.5900   90.000   90.000   90.000
ZERR  108.000   0.0038   0.0038   0.0015    0.000    0.000    0.000
LATT -2
SYMM 1/2-X, 1/2-Y, 1/2+Z
SYMM -Y, 1/2+X, 1/4+Z
SYMM 1/2+Y, -X, 3/4+Z
SFAC C H N O
UNIT 108 108 108 108
L.S. 10
BOND
LIST 6
FMAP 2
PLAN 20
O001  4  0.58318  0.03090 -0.00327 11.00000  0.15260  10.04
O002  4  0.54583  0.08349  0.48248 11.00000  0.16700   9.93
N003  3  0.62742 -0.00350 -0.00950 11.00000  0.14237   8.61
N004  3  0.50651  0.04371  0.49517 11.00000  0.14785   8.55
O005  4  0.62266 -0.03301  0.11902 11.00000  0.18285   7.98
N006  3  0.47554  0.24061  1.41554 11.00000  0.13287   7.68
O007  4  0.55156  0.02587  0.14049 11.00000  0.15798   7.63
N008  3  0.51339  0.16778  0.85963 11.00000  0.16709   7.17
N009  3  0.55252  0.11916  0.60447 11.00000  0.11328   7.07
C00A  1  0.46188  0.04827  0.64632 11.00000  0.10001   6.93
C00B  1  0.54286 -0.00324  0.26209 11.00000  0.08284   6.70
C00C  1  0.47979  0.09221  0.77158 11.00000  0.10354   6.70
C00D  1  0.49697  0.17288  0.96745 11.00000  0.12110   6.58
C00E  1  0.58222 -0.03794  0.26789 11.00000  0.09495   6.08
C00F  1  0.48205  0.20980  1.27476 11.00000  0.13762   5.95
C00G  1  0.50010  0.20439  1.11369 11.00000  0.13711   5.93
C00H  1  0.52461  0.25922  1.08032 11.00000  0.20100   5.58
C00I  1  0.50000  0.00000  0.36968 10.50000  0.10171   5.47
N00J  3  0.51231  0.11996  0.72408 11.00000  0.17885   5.34
C00K  1  0.52948  0.29904  1.19199 11.00000  0.13258   5.12
O00L  4  0.54374  0.24927  0.89969 11.00000  0.21018   5.12
O00M  4  0.50394  0.28579  1.36655 11.00000  0.21266   4.57
O00N  4  0.44997  0.23311  1.57385 11.00000  0.21946   4.25
C00O  1  0.70406 -0.14226 -0.57385 11.00000  0.20925   3.48
C00P  1  0.68050 -0.02098 -0.12136 11.00000  0.20217   3.27
C00Q  1  0.49271  0.15512  1.05523 11.00000  0.13919   3.06
C00R  1  0.66726 -0.13435 -0.43414 11.00000  0.25806   3.05
HKLF 4
END
