TITL 0620_expF_1_3_expS_1_1_0620_b.res in I-4
REM Old TITL 0620 in I4(1)/a
REM SHELXT solution in I-4: R1 0.421, Rweak 0.064, Alpha 0.195
REM <I/s>   0.000 for    0 systematic absences,  Orientation as input
REM Flack x = -9.990 ( 9.990 ) from    83 Parsons' quotients
REM Formula found by SHELXT:  C77 N21 O24

CELL  0.71073  26.6550  26.6550   7.5900   90.000   90.000   90.000
ZERR  108.000   0.0038   0.0038   0.0015    0.000    0.000    0.000
LATT -2
SYMM -X, -Y, Z
SYMM Y, -X, -Z
SYMM -Y, X, -Z
SFAC C H N O
UNIT 108 108 108 108
L.S. 10
BOND
LIST 6
FMAP 2
PLAN 20
O001  4  0.55078  0.62365  1.26445 11.00000  0.29083  10.16
O002  4  0.53426  0.58339  1.39826 11.00000  0.26914   9.08
N003  3  0.52994  0.75581  0.79708 11.00000  0.23149   8.57
C004  1  0.50000  0.50000  1.50000 10.25000  0.18305   8.53
O005  4  0.47297  0.58844  1.08796 11.00000  0.28257   8.32
C006  1  0.49491  0.54526  1.35850 11.00000  0.16006   7.24
N007  3  0.46758  0.54700  1.21680 11.00000  0.23295   7.23
N008  3  0.50000  1.00000 -0.25000 10.25000  0.18759   7.18
N009  3  0.53228  0.91649  0.11861 11.00000  0.20381   7.08
C00A  1  0.47635  0.74047  0.45581 11.00000  0.20990   6.98
N00B  3  0.49617  0.71958  0.74783 11.00000  0.29761   6.98
C00C  1  0.48226  0.83095  0.22577 11.00000  0.21738   6.37
C00D  1  0.48921  0.96091 -0.12862 11.00000  0.17466   6.19
C00E  1  0.51283  0.62506  1.15014 11.00000  0.20968   6.19
C00F  1  0.45972  0.91346 -0.13888 11.00000  0.13201   6.16
C00G  1  0.47103  0.70728  0.58898 11.00000  0.24022   6.10
C00H  1  0.49748  0.87993  0.12154 11.00000  0.21099   6.10
C00I  1  0.51689  0.79215  0.67783 11.00000  0.18851   6.04
C00J  1  0.54642  0.75043  0.96064 11.00000  0.21262   5.64
C00K  1  0.53668  0.94945  0.00004 11.00000  0.14785   5.28
C00L  1  0.45577  0.88188 -0.00869 11.00000  0.15663   5.19
O00M  4  0.45955  0.73362  0.28159 11.00000  0.28078   5.10
C00N  1  0.49956  0.82479  0.36909 11.00000  0.21493   4.40
C00O  1  0.50031  0.79109  0.51400 11.00000  0.19928   4.23
O00P  4  0.65483  0.65166  0.89178 11.00000  0.39119   3.95
C00Q  1  0.65105  0.66016  0.70830 11.00000  0.31075   3.80
N00R  3  0.63986  0.74505  0.51285 11.00000  0.39495   3.73
C00S  1  0.40489  0.84532  0.59811 11.00000  0.29855   3.63
C00T  1  0.39160  0.84476  0.44315 11.00000  0.36002   3.59
O00U  4  0.54017  0.91671  0.25333 11.00000  0.43572   3.17
C00V  1  0.52013  0.66791  1.00247 11.00000  0.21550   3.17
C00W  1  0.47862  0.65055  0.82030 11.00000  0.26090   3.16
HKLF 4
END
