TITL 0620_expF_1_5_expS_0_5_0620_a.res in I-4
REM Old TITL 0620 in I4(1)/a
REM SHELXT solution in I-4: R1 0.449, Rweak 0.013, Alpha 0.177
REM <I/s>   0.000 for    0 systematic absences,  Orientation as input
REM Flack x = -9.990 ( 9.990 ) from   126 Parsons' quotients
REM Formula found by SHELXT:  C35 N18 O6

CELL  0.71073  26.6550  26.6550   7.5900   90.000   90.000   90.000
ZERR  108.000   0.0038   0.0038   0.0015    0.000    0.000    0.000
LATT -2
SYMM -X, -Y, Z
SYMM Y, -X, -Z
SYMM -Y, X, -Z
SFAC C H N O
UNIT 108 108 108 108
L.S. 10
BOND
LIST 6
FMAP 2
PLAN 20
N001  3  0.53571  0.08200 -0.17440 11.00000  0.24324   8.65
N002  3  0.54009  0.11222 -0.03017 11.00000  0.29063   8.51
N003  3  0.47475  0.08731  0.15139 11.00000  0.28921   8.36
N004  3  0.52124  0.25579  0.43329 11.00000  0.29110   8.03
N005  3  0.50693  0.12059  0.10992 11.00000  0.31598   7.67
N006  3  0.53115  0.41461  1.11616 11.00000  0.25187   7.64
N007  3  0.45688  0.37192  1.25561 11.00000  0.24673   7.16
C008  1  0.50000  0.50000  1.50000 10.25000  0.21391   7.09
C009  1  0.49410  0.37521  1.13587 11.00000  0.26949   6.71
N00A  3  0.49361  0.45497  1.36288 11.00000  0.25547   6.68
C00B  1  0.50263  0.04380 -0.13093 11.00000  0.22969   6.45
C00C  1  0.46251  0.41615  1.38787 11.00000  0.20262   6.30
C00D  1  0.50000  0.00000 -0.25000 10.25000  0.27677   6.24
O00E  4  0.47397  0.24474  0.76819 11.00000  0.36589   6.20
O00F  4  0.47582  0.21252  0.60643 11.00000  0.43928   6.19
C00G  1  0.49571  0.22493  0.49095 11.00000  0.31001   6.16
C00H  1  0.46873  0.32795  1.05466 11.00000  0.35842   6.13
C00I  1  0.54639  0.25080  0.28687 11.00000  0.28640   5.76
C00J  1  0.54061  0.45235  1.23127 11.00000  0.20543   5.55
C00K  1  0.47006  0.05057 -0.00013 11.00000  0.24001   5.46
C00L  1  0.52194  0.28935  0.57280 11.00000  0.24779   5.14
N00M  3  0.64936  0.24780  0.75876 11.00000  0.41445   5.07
C00N  1  0.49749  0.32748  0.91452 11.00000  0.28463   4.93
C00O  1  0.49596  0.29595  0.74041 11.00000  0.26673   4.67
O00P  4  0.45973  0.23805  0.94014 11.00000  0.39532   4.31
C00Q  1  0.66241  0.22823  0.55490 11.00000  0.39027   4.27
C00R  1  0.49233  0.16126  0.37801 11.00000  0.28673   4.03
C00S  1  0.45763  0.16252  0.69736 11.00000  0.40397   4.00
C00T  1  0.54121  0.40429  0.97987 11.00000  0.31622   3.80
C00U  1  0.53113  0.36873  0.78752 11.00000  0.32828   3.76
C00V  1  0.52087  0.16706  0.23426 11.00000  0.25389   3.75
HKLF 4
END
