TITL 0620_expF_1_3_expS_0_9_0620_a.res in I-4
REM Old TITL 0620 in I4(1)/a
REM SHELXT solution in I-4: R1 0.361, Rweak 0.043, Alpha 0.200
REM <I/s>   0.000 for    0 systematic absences,  Orientation as input
REM Flack x = -9.990 ( 9.990 ) from   101 Parsons' quotients
REM Formula found by SHELXT:  C85 N53 O8

CELL  0.71073  26.6550  26.6550   7.5900   90.000   90.000   90.000
ZERR  108.000   0.0038   0.0038   0.0015    0.000    0.000    0.000
LATT -2
SYMM -X, -Y, Z
SYMM Y, -X, -Z
SYMM -Y, X, -Z
SFAC C H N O
UNIT 108 108 108 108
L.S. 10
BOND
LIST 6
FMAP 2
PLAN 20
N001  3  0.47846  0.09326  0.84522 11.00000  0.27870  11.00
N002  3  0.54917  0.12297  1.01741 11.00000  0.22889  10.18
N003  3  0.50159  0.04012  1.12577 11.00000  0.20898   9.18
N004  3  0.51042  0.12761  0.91288 11.00000  0.27415   8.86
N005  3  0.50277  0.20561  0.52137 11.00000  0.27630   8.72
N006  3  0.46251  0.41960 -0.40732 11.00000  0.20816   8.55
N007  3  0.52340  0.40845 -0.11811 11.00000  0.19781   8.23
N008  3  0.53393  0.09097  1.17535 11.00000  0.25149   7.76
N009  3  0.46407  0.05493  0.98790 11.00000  0.24140   7.53
N00A  3  0.47877  0.24763  0.20581 11.00000  0.25229   7.35
C00B  1  0.50000  0.00000  1.25000 10.25000  0.12788   7.22
N00C  3  0.52783  0.29311  0.42434 11.00000  0.26079   7.04
N00D  3  0.49372  0.37800 -0.14309 11.00000  0.23093   6.94
N00E  3  0.50000  0.50000 -0.50000 10.25000  0.24289   6.89
C00F  1  0.48028  0.21047  0.32148 11.00000  0.24568   6.54
C00G  1  0.52651  0.09019  1.07870 11.00000  0.27654   6.21
C00H  1  0.49468  0.17088  0.62130 11.00000  0.26645   6.20
C00I  1  0.52300  0.25758  0.55661 11.00000  0.23450   6.17
C00J  1  0.52194  0.18291  0.77729 11.00000  0.26649   6.12
N00K  3  0.48613  0.33608 -0.01286 11.00000  0.22605   5.51
C00L  1  0.49496  0.45622 -0.37111 11.00000  0.20802   5.41
C00M  1  0.46209  0.39109 -0.26919 11.00000  0.20672   5.38
C00N  1  0.51403  0.28773  0.27129 11.00000  0.19159   5.15
C00O  1  0.43787  0.08503  0.85690 11.00000  0.37949   4.78
C00P  1  0.53190  0.44879 -0.22950 11.00000  0.20214   4.63
C00Q  1  0.52300  0.40236 -0.31993 11.00000  0.31675   4.47
C00R  1  0.50850  0.20624  0.42727 11.00000  0.38073   4.46
C00S  1  0.45230  0.24757  0.04139 11.00000  0.24985   4.28
C00T  1  0.50314  0.33688  0.14225 11.00000  0.28109   4.22
C00U  1  0.53813  0.26978  0.70908 11.00000  0.24955   4.16
C00V  1  0.76337  0.13482  1.01116 11.00000  0.37232   4.07
C00W  1  0.59551  0.16976  0.37726 11.00000  0.30588   3.96
O00X  4  0.53901  0.40717  0.01499 11.00000  0.41385   3.68
C00Y  1  0.42928  0.10581  0.64298 11.00000  0.40205   3.49
C00Z  1  0.53091  0.36692  0.22049 11.00000  0.32916   3.39
C010  1  0.63139  0.17046  0.53330 11.00000  0.41450   3.32
C011  1  0.49539  0.29964  0.09818 11.00000  0.36640   3.22
O012  4  0.69781  0.12772  0.67195 11.00000  0.65610   3.14
HKLF 4
END
