TITL 0620_expF_1_1_expS_1_0_0620_b.res in I-4
REM Old TITL 0620 in I4(1)/a
REM SHELXT solution in I-4: R1 0.380, Rweak 0.142, Alpha 0.205
REM <I/s>   0.000 for    0 systematic absences,  Orientation as input
REM Flack x = -9.990 ( 9.990 ) from   112 Parsons' quotients
REM Formula found by SHELXT:  C84 N13 O8

CELL  0.71073  26.6550  26.6550   7.5900   90.000   90.000   90.000
ZERR  108.000   0.0038   0.0038   0.0015    0.000    0.000    0.000
LATT -2
SYMM -X, -Y, Z
SYMM Y, -X, -Z
SYMM -Y, X, -Z
SFAC C H N O
UNIT 108 108 108 108
L.S. 10
BOND
LIST 6
FMAP 2
PLAN 20
N001  3  0.12410  0.45634 -0.02744 11.00000  0.20501   8.21
N002  3  0.08624  0.52563  0.14614 11.00000  0.19028   7.89
N003  3  0.05045  0.53495  0.01843 11.00000  0.17614   7.66
N004  3  0.00000  0.50000 -0.25000 10.25000  0.15862   7.46
C005  1  0.12556  0.48942  0.10832 11.00000  0.15844   7.30
C006  1  0.08000  0.46052 -0.14394 11.00000  0.14456   6.80
C007  1  0.04826  0.49518 -0.10992 11.00000  0.14023   6.60
C008  1  0.41275  0.53949  1.39652 11.00000  0.16014   6.47
C009  1  0.24928  0.47511  0.46200 11.00000  0.18812   6.24
C00A  1  0.41151  0.46810  1.10292 11.00000  0.17575   6.23
C00B  1  0.16728  0.50382  0.37394 11.00000  0.17568   5.88
C00C  1  0.45643  0.50687  1.39578 11.00000  0.15129   5.81
C00D  1  0.20113  0.49992  0.48695 11.00000  0.16647   5.68
C00E  1  0.20429  0.52744  0.67006 11.00000  0.21484   5.15
C00F  1  0.28871  0.48034  0.58468 11.00000  0.21950   5.13
C00G  1  0.37900  0.54641  1.24907 11.00000  0.17415   4.78
C00H  1  0.37665  0.50431  1.12516 11.00000  0.20628   4.57
C00I  1  0.14028  0.52935  0.44564 11.00000  0.23818   4.52
C00J  1  0.32214  0.52039  1.00934 11.00000  0.22274   4.50
C00K  1  0.23847  0.52607  0.80388 11.00000  0.19065   4.49
C00L  1  0.27661  0.49994  0.73104 11.00000  0.19920   4.43
O00M  4  0.26713  0.64489  0.49399 11.00000  0.34640   4.10
O00N  4  0.25886  0.45726  0.27597 11.00000  0.28750   3.93
C00O  1  0.16262  0.48584  0.24017 11.00000  0.19795   3.89
C00P  1  0.24853  0.55068  0.95485 11.00000  0.23879   3.86
C00Q  1  0.44777  0.46580  1.25049 11.00000  0.17552   3.28
C00R  1  0.27377  0.67394  0.65292 11.00000  0.45665   3.00
HKLF 4
END
