TITL 0620_expF_1_0_expS_0_8_0620_a.res in I-4
REM Old TITL 0620 in I4(1)/a
REM SHELXT solution in I-4: R1 0.339, Rweak 0.078, Alpha 0.151
REM <I/s>   0.000 for    0 systematic absences,  Orientation as input
REM Flack x = -9.304 ( 9.990 ) from   132 Parsons' quotients
REM Formula found by SHELXT:  C27 N12 O8

CELL  0.71073  26.6550  26.6550   7.5900   90.000   90.000   90.000
ZERR  108.000   0.0038   0.0038   0.0015    0.000    0.000    0.000
LATT -2
SYMM -X, -Y, Z
SYMM Y, -X, -Z
SYMM -Y, X, -Z
SFAC C H N O
UNIT 108 108 108 108
L.S. 10
BOND
LIST 6
FMAP 2
PLAN 20
N001  3  0.46509  0.08907  0.13437 11.00000  0.14586   9.67
N002  3  0.54439  0.11998 -0.01834 11.00000  0.16154   9.43
O003  4  0.49849  0.21328  0.50812 11.00000  0.21387   8.64
N004  3  0.46735  0.06016  0.00487 11.00000  0.18678   8.23
N005  3  0.53630  0.09009 -0.14350 11.00000  0.13777   8.05
O006  4  0.45935  0.42034  1.39020 11.00000  0.20787   7.51
C007  1  0.51950  0.26336  0.44247 11.00000  0.17151   7.11
N008  3  0.49817  0.45452  1.37254 11.00000  0.17800   7.04
C009  1  0.50170  0.11534  0.11241 11.00000  0.16369   7.01
O00A  4  0.52487  0.29632  0.57945 11.00000  0.21342   7.01
C00B  1  0.50692  0.03898 -0.11885 11.00000  0.11579   6.65
C00C  1  0.47341  0.25326  0.78165 11.00000  0.12001   6.44
C00D  1  0.48516  0.19669  0.40177 11.00000  0.27401   6.34
C00E  1  0.52333  0.40670  1.08896 11.00000  0.14105   6.06
C00F  1  0.49133  0.37226  1.13000 11.00000  0.14152   5.88
C00G  1  0.50000  0.50000  1.50000 10.25000  0.10526   5.73
C00H  1  0.45862  0.38082  1.24886 11.00000  0.14743   5.42
C00I  1  0.53314  0.45749  1.23307 11.00000  0.10426   5.41
C00J  1  0.54350  0.25971  0.28848 11.00000  0.16228   5.30
C00K  1  0.48121  0.32083  1.02022 11.00000  0.17513   5.27
N00L  3  0.50124  0.17165  0.30744 11.00000  0.26320   5.10
C00M  1  0.47894  0.22000  0.67464 11.00000  0.18848   4.80
C00N  1  0.51880  0.35005  0.83178 11.00000  0.19555   4.26
C00O  1  0.50000  0.00000 -0.25000 10.25000  0.20086   4.05
O00P  4  0.46576  0.23706  0.92940 11.00000  0.34052   3.62
HKLF 4
END
