TITL 0620_expF_1_3_expS_0_7_0620_a.res in I4(1)
REM Old TITL 0620 in I4(1)/a
REM SHELXT solution in I4(1): R1 0.414, Rweak 0.074, Alpha 0.214
REM <I/s>   0.000 for    0 systematic absences,  Orientation as input
REM Flack x = -9.990 ( 9.990 ) from   117 Parsons' quotients
REM Formula found by SHELXT:  C47 N14 O4

CELL  0.71073  26.6550  26.6550   7.5900   90.000   90.000   90.000
ZERR  108.000   0.0038   0.0038   0.0015    0.000    0.000    0.000
LATT -2
SYMM 1/2-X, 1/2-Y, 1/2+Z
SYMM -Y, 1/2+X, 1/4+Z
SYMM 1/2+Y, -X, 3/4+Z
SFAC C H N O
UNIT 108 108 108 108
L.S. 10
BOND
LIST 6
FMAP 2
PLAN 20
N001  3  0.52945  0.40718 -0.26637 11.00000  0.23939   9.77
N002  3  0.49161  0.38515 -0.21583 11.00000  0.23105   9.24
N003  3  0.53843  0.48981  0.28265 11.00000  0.20315   7.54
N004  3  0.46460  0.38428 -0.08409 11.00000  0.20742   7.53
N005  3  0.80143  0.46889  0.96875 11.00000  0.21951   7.25
C006  1  0.47380  0.41553  0.05265 11.00000  0.18865   7.24
C007  1  0.52907  0.42622 -0.11076 11.00000  0.26324   7.07
C008  1  0.50000  0.50000  0.16289 10.50000  0.16877   6.78
N009  3  0.62242  0.44585  0.38270 11.00000  0.26400   6.76
N00A  3  0.58535  0.46056  0.25966 11.00000  0.19080   6.63
C00B  1  0.75904  0.47270  0.87042 11.00000  0.23043   6.50
C00C  1  0.78817  0.47722  1.11032 11.00000  0.27653   6.32
C00D  1  0.74583  0.51439  1.20529 11.00000  0.21341   5.95
C00E  1  0.58902  0.52776  0.55238 11.00000  0.21506   5.87
C00F  1  0.49859  0.46266  0.02025 11.00000  0.20287   5.66
C00G  1  0.62575  0.49209  0.49463 11.00000  0.29335   5.48
C00H  1  0.52983  0.46588 -0.14874 11.00000  0.32437   5.27
C00I  1  0.67413  0.50147  0.77569 11.00000  0.24863   5.16
C00J  1  0.55035  0.53320  0.40803 11.00000  0.20022   5.14
C00K  1  0.66292  0.48188  0.62750 11.00000  0.25738   5.08
C00L  1  0.81329  0.51205  1.40365 11.00000  0.29410   4.97
C00M  1  0.71051  0.50082  0.91706 11.00000  0.20949   4.80
C00N  1  0.71517  0.51672  1.07940 11.00000  0.25035   3.88
O00O  4  0.75438  0.45811  0.70201 11.00000  0.38053   3.85
C00P  1  0.79332  0.49651  1.19887 11.00000  0.29539   3.82
C00Q  1  0.73649  0.54385  1.36295 11.00000  0.24134   3.74
C00R  1  0.63969  0.52074  0.86176 11.00000  0.35046   3.58
C00S  1  0.70945  0.31671 -0.05476 11.00000  0.49741   3.22
O00T  4  0.63316  0.28999 -0.40365 11.00000  0.59301   3.13
C00U  1  0.67089  0.40757  0.08000 11.00000  0.37591   3.09
C00V  1  0.65594  0.33278 -0.20039 11.00000  0.46317   3.05
C00W  1  0.66578  0.38497 -0.21186 11.00000  0.35405   3.03
C00X  1  0.66679  0.39838 -0.05040 11.00000  0.26343   3.01
HKLF 4
END
