TITL 0620_expF_0_9_expS_1_4_0620_b.res in I4(1)
REM Old TITL 0620 in I4(1)/a
REM SHELXT solution in I4(1): R1 0.382, Rweak 0.191, Alpha 0.273
REM <I/s>   0.000 for    0 systematic absences,  Orientation as input
REM Flack x = -5.665 ( 9.990 ) from    11 Parsons' quotients
REM Formula found by SHELXT:  C31 N12 O6

CELL  0.71073  26.6550  26.6550   7.5900   90.000   90.000   90.000
ZERR  108.000   0.0038   0.0038   0.0015    0.000    0.000    0.000
LATT -2
SYMM 1/2-X, 1/2-Y, 1/2+Z
SYMM -Y, 1/2+X, 1/4+Z
SYMM 1/2+Y, -X, 3/4+Z
SFAC C H N O
UNIT 108 108 108 108
L.S. 10
BOND
LIST 6
FMAP 2
PLAN 20
O001  4  0.46574  0.58677  0.54849 11.00000  0.13438   8.92
O002  4  0.46629  0.55303  0.66874 11.00000  0.12415   8.22
N003  3  0.50750  0.62557  0.54126 11.00000  0.10643   8.20
N004  3  0.62157  0.44711  1.16337 11.00000  0.10904   8.00
N005  3  0.59083  0.45076  1.04320 11.00000  0.11944   7.68
N006  3  0.53404  0.58417  0.80906 11.00000  0.06961   7.22
N007  3  0.54357  0.49653  1.03815 11.00000  0.11375   7.16
N008  3  0.54026  0.61765  0.66485 11.00000  0.09999   6.87
C009  1  0.46451  0.73842 -0.11440 11.00000  0.11505   6.49
C00A  1  0.58786  0.52087  1.32409 11.00000  0.09207   6.01
C00B  1  0.50106  0.54661  0.78418 11.00000  0.08173   5.49
C00C  1  0.50283  0.79528 -0.07676 11.00000  0.09950   5.47
C00D  1  0.52020  0.78863  0.09931 11.00000  0.12190   5.46
C00E  1  0.51556  0.75790  0.22528 11.00000  0.06589   5.34
C00F  1  0.61823  0.49165  1.27131 11.00000  0.13026   5.20
C00G  1  0.55023  0.52668  1.18587 11.00000  0.13793   5.10
O00H  4  0.45605  0.74283 -0.28990 11.00000  0.12888   4.93
C00I  1  0.50000  0.50000  0.89225 10.50000  0.07800   4.86
C00J  1  0.51123  0.67064  0.43740 11.00000  0.16155   4.67
C00K  1  0.47113  0.70271 -0.00316 11.00000  0.11113   4.42
C00L  1  0.48519  0.82901 -0.32409 11.00000  0.09972   4.03
C00M  1  0.62304  0.49321  1.13391 11.00000  0.17767   3.82
C00N  1  0.50530  0.83939 -0.18460 11.00000  0.13031   3.59
C00O  1  0.49156  0.66564  0.25933 11.00000  0.14959   3.56
C00P  1  0.50015  0.71930  0.15277 11.00000  0.16344   3.02
HKLF 4
END
