TITL 0620_expF_1_3_expS_1_1_0620_a.res in I4(1)
REM Old TITL 0620 in I4(1)/a
REM SHELXT solution in I4(1): R1 0.418, Rweak 0.021, Alpha 0.189
REM <I/s>   0.000 for    0 systematic absences,  Orientation as input
REM Flack x = -9.990 ( 9.990 ) from    82 Parsons' quotients
REM Formula found by SHELXT:  C34 N17 O10

CELL  0.71073  26.6550  26.6550   7.5900   90.000   90.000   90.000
ZERR  108.000   0.0038   0.0038   0.0015    0.000    0.000    0.000
LATT -2
SYMM 1/2-X, 1/2-Y, 1/2+Z
SYMM -Y, 1/2+X, 1/4+Z
SYMM 1/2+Y, -X, 3/4+Z
SFAC C H N O
UNIT 108 108 108 108
L.S. 10
BOND
LIST 6
FMAP 2
PLAN 20
O001  4  0.40818 -0.02532 -0.13861 11.00000  0.26005   8.67
C002  1  0.52916  0.12373  0.52107 11.00000  0.27146   8.44
N003  3  0.44817 -0.03418 -0.00060 11.00000  0.18229   7.26
N004  3  0.53610  0.08318  0.33501 11.00000  0.19039   7.26
N005  3  0.46361  0.24226  1.28538 11.00000  0.24529   7.05
N006  3  0.50000  0.00000  0.23186 10.50000  0.24360   7.05
N007  3  0.52338  0.29149  1.08363 11.00000  0.27573   6.63
C008  1  0.36763  0.01346 -0.13245 11.00000  0.21807   6.58
C009  1  0.50191  0.04588  0.38117 11.00000  0.17612   6.48
C00A  1  0.51902  0.25467  0.94351 11.00000  0.22482   6.47
C00B  1  0.45842  0.00579  0.11367 11.00000  0.15024   6.30
C00C  1  0.41739  0.04245  0.12653 11.00000  0.16863   6.26
N00D  3  0.65829  0.15977  0.86388 11.00000  0.38473   5.55
C00E  1  0.52351  0.17414  0.71949 11.00000  0.24767   5.55
C00F  1  0.61829  0.16381  1.05416 11.00000  0.30395   5.41
O00G  4  0.49490  0.28659  1.24581 11.00000  0.31695   5.19
C00H  1  0.46867  0.08506  0.64863 11.00000  0.17586   5.19
N00I  3  0.50607  0.12230  0.61188 11.00000  0.25871   5.15
C00J  1  0.37746  0.04898  0.00328 11.00000  0.22076   5.12
C00K  1  0.54295  0.25655  0.77083 11.00000  0.22580   5.02
C00L  1  0.49430  0.20682  0.97701 11.00000  0.23361   4.58
C00M  1  0.64418  0.25276  1.26300 11.00000  0.27348   4.56
O00N  4  0.45234  0.24470  1.43903 11.00000  0.29898   4.53
N00O  3  0.54519  0.11928  0.45625 11.00000  0.23500   4.51
C00P  1  0.46661  0.04670  0.51995 11.00000  0.18725   4.40
O00Q  4  0.47037  0.20816  1.15965 11.00000  0.35656   4.11
C00R  1  0.49888  0.16873  0.85378 11.00000  0.24100   3.82
C00S  1  0.34713 -0.01425 -0.44403 11.00000  0.24376   3.34
C00T  1  0.33172  0.01371 -0.27370 11.00000  0.19848   3.13
N00U  3  0.64032  0.26438  1.44403 11.00000  0.36590   3.04
O00V  4  0.64718  0.22307  1.05406 11.00000  0.54337   3.03
HKLF 4
END
