TITL 0620_expF_1_0_expS_0_6_0620_b.res in I-4
REM Old TITL 0620 in I4(1)/a
REM SHELXT solution in I-4: R1 0.415, Rweak 0.124, Alpha 0.216
REM <I/s>   0.000 for    0 systematic absences,  Orientation as input
REM Flack x = -9.990 ( 9.990 ) from   136 Parsons' quotients
REM Formula found by SHELXT:  C61 N25 O12

CELL  0.71073  26.6550  26.6550   7.5900   90.000   90.000   90.000
ZERR  108.000   0.0038   0.0038   0.0015    0.000    0.000    0.000
LATT -2
SYMM -X, -Y, Z
SYMM Y, -X, -Z
SYMM -Y, X, -Z
SFAC C H N O
UNIT 108 108 108 108
L.S. 10
BOND
LIST 6
FMAP 2
PLAN 20
N001  3  0.05121  0.52463  0.99196 11.00000  0.22116   8.14
N002  3  0.46197  0.50617 -0.36797 11.00000  0.18460   7.97
O003  4  0.41015  0.47425 -0.09907 11.00000  0.24496   7.55
N004  3  0.08833  0.52051  0.86877 11.00000  0.18159   7.52
C005  1  0.12350  0.46554  1.01326 11.00000  0.26702   7.30
C006  1  0.09040  0.45794  1.15974 11.00000  0.21086   7.26
N007  3  0.00000  0.50000  1.25000 10.25000  0.17144   6.86
C008  1  0.25557  0.46467  0.53956 11.00000  0.15909   6.71
N009  3  0.41423  0.53341 -0.39780 11.00000  0.15406   6.59
N00A  3  0.05367  0.49836  1.13476 11.00000  0.18766   6.44
C00B  1  0.37455  0.50721 -0.16676 11.00000  0.17323   6.39
C00C  1  0.28665  0.47896  0.42478 11.00000  0.18277   6.04
C00D  1  0.44413  0.46247 -0.24265 11.00000  0.15556   6.03
C00E  1  0.38295  0.54666 -0.26317 11.00000  0.12856   5.83
C00F  1  0.24469  0.51274  0.22994 11.00000  0.23032   5.23
C00G  1  0.16651  0.48616  0.76832 11.00000  0.19105   5.12
C00H  1  0.11673  0.48962  0.86894 11.00000  0.16072   5.08
C00I  1  0.16175  0.49790  0.62096 11.00000  0.21364   4.66
C00J  1  0.31909  0.51927 -0.02725 11.00000  0.21714   4.65
C00K  1  0.21842  0.50774  0.49816 11.00000  0.22171   4.54
O00L  4  0.24675  0.54886  0.04610 11.00000  0.36971   4.15
C00M  1  0.29020  0.50882  0.27205 11.00000  0.18889   4.15
O00N  4  0.24502  0.46056  0.69237 11.00000  0.29993   3.89
N00O  3  0.09507  0.49900  1.03898 11.00000  0.23187   3.71
C00P  1  0.50000  0.50000 -0.50000 10.25000  0.13116   3.52
C00Q  1  0.32734  0.50272  0.14405 11.00000  0.26759   3.45
HKLF 4
END
