TITL 0620_expF_1_3_expS_1_5_0620_b.res in I-4
REM Old TITL 0620 in I4(1)/a
REM SHELXT solution in I-4: R1 0.578, Rweak 0.343, Alpha 0.129
REM <I/s>   0.000 for    0 systematic absences,  Orientation as input
REM Flack x = -9.990 ( 9.990 ) from    73 Parsons' quotients
REM Formula found by SHELXT:  C72 N13 O8

CELL  0.71073  26.6550  26.6550   7.5900   90.000   90.000   90.000
ZERR  108.000   0.0038   0.0038   0.0015    0.000    0.000    0.000
LATT -2
SYMM -X, -Y, Z
SYMM Y, -X, -Z
SYMM -Y, X, -Z
SFAC C H N O
UNIT 108 108 108 108
L.S. 10
BOND
LIST 6
FMAP 2
PLAN 20
N001  3  0.50000  0.50000  1.50000 10.25000  0.13593   9.83
O002  4  0.53063  0.41942  1.10152 11.00000  0.26005   8.46
C003  1  0.50025  0.37759  1.13585 11.00000  0.14460   7.24
N004  3  0.46121  0.38142  1.26974 11.00000  0.16434   7.13
N005  3  0.53674  0.44877  1.23426 11.00000  0.15009   6.82
C006  1  0.49076  0.45826  1.35519 11.00000  0.13668   6.49
C007  1  0.45903  0.41632  1.38781 11.00000  0.10579   5.70
C008  1  0.53926  0.08503 -0.15720 11.00000  0.18237   5.44
C009  1  0.52403  0.30012  0.56257 11.00000  0.17219   5.31
C00A  1  0.51009  0.30891  0.72144 11.00000  0.22719   5.23
C00B  1  0.52209  0.26024  0.44131 11.00000  0.19428   4.86
C00C  1  0.47430  0.23646  0.75332 11.00000  0.14815   4.75
O00D  4  0.48029  0.09343  0.11430 11.00000  0.23829   4.59
C00E  1  0.50399  0.03518 -0.14265 11.00000  0.18465   4.48
C00F  1  0.51318  0.16424  0.26028 11.00000  0.20730   4.47
C00G  1  0.49613  0.32413  0.87278 11.00000  0.18289   3.98
C00H  1  0.55964  0.12446 -0.00529 11.00000  0.20578   3.92
C00I  1  0.51441  0.14274  0.14352 11.00000  0.23966   3.79
C00J  1  0.54657  0.25638  0.26585 11.00000  0.18153   3.63
N00K  3  0.65026  0.21489 -0.28516 11.00000  0.22608   3.55
C00L  1  0.47535  0.21374  0.63936 11.00000  0.17915   3.54
C00M  1  0.50494  0.34386  0.79116 11.00000  0.26721   3.45
C00N  1  0.49824  0.21351  0.47947 11.00000  0.15313   3.20
C00O  1  0.48870  0.32971  1.01556 11.00000  0.20477   3.04
HKLF 4
END
