TITL 0620_expF_1_1_expS_1_4_0620_a.res in I4(1)
REM Old TITL 0620 in I4(1)/a
REM SHELXT solution in I4(1): R1 0.373, Rweak 0.144, Alpha 0.198
REM <I/s>   0.000 for    0 systematic absences,  Orientation as input
REM Flack x = -4.055 ( 9.990 ) from    71 Parsons' quotients
REM Formula found by SHELXT:  C36 N27 O6

CELL  0.71073  26.6550  26.6550   7.5900   90.000   90.000   90.000
ZERR  108.000   0.0038   0.0038   0.0015    0.000    0.000    0.000
LATT -2
SYMM 1/2-X, 1/2-Y, 1/2+Z
SYMM -Y, 1/2+X, 1/4+Z
SYMM 1/2+Y, -X, 3/4+Z
SFAC C H N O
UNIT 108 108 108 108
L.S. 10
BOND
LIST 6
FMAP 2
PLAN 20
N001  3  0.59160  0.02196 -0.25642 11.00000  0.13333  12.33
N002  3  0.53772  0.08490  0.25739 11.00000  0.12030  10.53
N003  3  0.52542  0.12709  0.41845 11.00000  0.18784  10.43
C004  1  0.53162  0.25948  0.86443 11.00000  0.12724   9.31
N005  3  0.52761  0.29384  0.97056 11.00000  0.15908   8.93
N006  3  0.61814 -0.01147 -0.20681 11.00000  0.17652   8.61
O007  4  0.54784  0.03670 -0.11515 11.00000  0.17594   8.42
N008  3  0.53942 -0.00746  0.02037 11.00000  0.12647   8.02
N009  3  0.49832  0.28110  1.13704 11.00000  0.24314   7.82
N00A  3  0.50274  0.04826  0.27576 11.00000  0.13431   7.77
N00B  3  0.48953  0.33015  1.39386 11.00000  0.21306   7.32
N00C  3  0.58274 -0.04488  0.04183 11.00000  0.13366   7.20
N00D  3  0.50087  0.13017  0.53068 11.00000  0.16754   7.11
N00E  3  0.61645 -0.04874 -0.08573 11.00000  0.12616   7.11
N00F  3  0.50000  0.00000  0.14498 10.50000  0.14669   7.09
N00G  3  0.46636  0.08310  0.53112 11.00000  0.17588   6.80
C00H  1  0.47113  0.04905  0.39551 11.00000  0.11369   6.29
C00I  1  0.48541  0.24262  1.20124 11.00000  0.11717   6.23
C00J  1  0.45783  0.24679  1.36882 11.00000  0.15852   5.85
C00K  1  0.50972  0.33693  1.24712 11.00000  0.14971   5.76
O00L  4  0.54431  0.26327  0.69276 11.00000  0.24481   5.38
C00M  1  0.55440  0.11735  0.36692 11.00000  0.25166   5.22
O00N  4  0.64501  0.08623 -0.25732 11.00000  0.44713   5.20
C00O  1  0.50254  0.16522  0.75929 11.00000  0.22531   5.09
C00P  1  0.50080  0.21012  0.89351 11.00000  0.14730   4.57
C00Q  1  0.55529  0.33806  0.96104 11.00000  0.26221   4.50
C00R  1  0.47614  0.13792  0.88031 11.00000  0.21174   4.49
C00S  1  0.56761  0.15711  0.32978 11.00000  0.37129   4.48
C00T  1  0.51609  0.30174  1.11291 11.00000  0.30638   4.32
C00U  1  0.48329  0.21098  1.06318 11.00000  0.17316   4.30
C00V  1  0.51709  0.17215  0.62780 11.00000  0.14566   4.14
C00W  1  0.63546  0.16395 -0.05188 11.00000  0.36171   4.00
C00X  1  0.67643  0.13952 -0.23301 11.00000  0.28994   3.84
C00Y  1  0.69940  0.13818 -0.39386 11.00000  0.23804   3.21
C00Z  1  0.64038  0.22364  0.13017 11.00000  0.20049   3.21
HKLF 4
END
