TITL 0620_expF_1_1_expS_0_6_0620_b.res in I4(1)
REM Old TITL 0620 in I4(1)/a
REM SHELXT solution in I4(1): R1 0.353, Rweak 0.062, Alpha 0.203
REM <I/s>   0.000 for    0 systematic absences,  Orientation as input
REM Flack x = -9.990 ( 9.990 ) from   123 Parsons' quotients
REM Formula found by SHELXT:  C29 N16 O10

CELL  0.71073  26.6550  26.6550   7.5900   90.000   90.000   90.000
ZERR  108.000   0.0038   0.0038   0.0015    0.000    0.000    0.000
LATT -2
SYMM 1/2-X, 1/2-Y, 1/2+Z
SYMM -Y, 1/2+X, 1/4+Z
SYMM 1/2+Y, -X, 3/4+Z
SFAC C H N O
UNIT 108 108 108 108
L.S. 10
BOND
LIST 6
FMAP 2
PLAN 20
O001  4  0.09423  0.53007  0.36059 11.00000  0.25339   8.57
N002  3  0.03607  0.61380  0.99858 11.00000  0.24383   8.32
N003  3  0.12462  0.48300  0.37266 11.00000  0.23272   7.97
N004  3  0.04168  0.58140  0.84270 11.00000  0.17591   7.71
N005  3 -0.03532  0.54402  1.00634 11.00000  0.15997   7.27
N006  3  0.25569  0.47140  0.02966 11.00000  0.25411   7.21
C007  1  0.00471  0.54501  0.87290 11.00000  0.15843   7.13
C008  1 -0.03279  0.58688  1.13800 11.00000  0.15851   6.96
N009  3  0.08917  0.46382  0.63656 11.00000  0.18726   6.68
N00A  3  0.12253  0.45609  0.50867 11.00000  0.16979   6.67
C00B  1  0.04503  0.49260  0.61684 11.00000  0.17624   6.10
N00C  3  0.20889  0.49796 -0.01891 11.00000  0.26637   6.04
C00D  1  0.20936  0.52727 -0.16673 11.00000  0.19051   5.88
C00E  1 -0.00380  0.62409  1.10462 11.00000  0.20013   5.72
C00F  1  0.00291  0.66668  1.25172 11.00000  0.23639   5.61
C00G  1  0.00000  0.50000  0.75876 10.50000  0.16959   5.59
C00H  1  0.23995  0.51652 -0.30219 11.00000  0.20947   5.29
O00I  4  0.31436  0.47160 -0.07882 11.00000  0.33559   5.17
C00J  1 -0.01843  0.66111  1.40862 11.00000  0.25020   5.00
C00K  1  0.06627  0.54013  0.49216 11.00000  0.21835   4.93
O00L  4  0.24231  0.53600 -0.47816 11.00000  0.31621   4.77
C00M  1  0.06006  0.65366  0.93802 11.00000  0.29800   4.23
O00N  4  0.25122  0.44860  0.18947 11.00000  0.32466   4.15
C00O  1  0.28522  0.49132 -0.24070 11.00000  0.23381   4.08
C00P  1  0.16712  0.47012  0.25731 11.00000  0.22195   4.01
C00Q  1  0.16234  0.50666  0.10082 11.00000  0.28025   3.87
O00R  4 -0.04923  0.60828  1.25890 11.00000  0.35611   3.57
C00S  1 -0.04331  0.62370  1.47816 11.00000  0.31497   3.27
HKLF 4
END
