TITL 0620_expF_1_0_expS_1_4_0620_b.res in I-4
REM Old TITL 0620 in I4(1)/a
REM SHELXT solution in I-4: R1 0.441, Rweak 0.162, Alpha 0.196
REM <I/s>   0.000 for    0 systematic absences,  Orientation as input
REM Flack x = -9.990 ( 9.990 ) from    39 Parsons' quotients
REM Formula found by SHELXT:  C72 N13 O8

CELL  0.71073  26.6550  26.6550   7.5900   90.000   90.000   90.000
ZERR  108.000   0.0038   0.0038   0.0015    0.000    0.000    0.000
LATT -2
SYMM -X, -Y, Z
SYMM Y, -X, -Z
SYMM -Y, X, -Z
SFAC C H N O
UNIT 108 108 108 108
L.S. 10
BOND
LIST 6
FMAP 2
PLAN 20
N001  3  0.50000  0.50000 -0.50000 10.25000  0.06847   7.32
N002  3  0.53562  0.62265 -0.26159 11.00000  0.11248   6.87
N003  3  0.46558  0.59124 -0.11523 11.00000  0.20702   6.83
N004  3  0.53791  0.58535 -0.37607 11.00000  0.10172   6.68
C005  1  0.50424  0.54080 -0.35917 11.00000  0.12928   6.16
C006  1  0.50859  0.61890 -0.14047 11.00000  0.14879   5.97
C007  1  0.46752  0.55040 -0.23833 11.00000  0.06417   5.87
C008  1  0.48020  0.74569  0.56631 11.00000  0.13575   5.77
C009  1  0.44065  0.88059  1.00591 11.00000  0.15331   5.49
C00A  1  0.46466  0.91478  1.15701 11.00000  0.10658   5.32
C00B  1  0.49997  0.95343  1.12571 11.00000  0.11337   5.22
C00C  1  0.49385  0.87233  0.88663 11.00000  0.16966   4.96
C00D  1  0.52543  0.91157  0.86646 11.00000  0.05878   4.75
C00E  1  0.52061  0.78775  0.34940 11.00000  0.15802   4.46
C00F  1  0.45634  0.74221  0.73478 11.00000  0.10857   4.42
C00G  1  0.49671  0.69911  0.30032 11.00000  0.21312   4.41
C00H  1  0.47624  0.70243  0.44273 11.00000  0.12145   4.23
C00I  1  0.48349  0.83196  0.74960 11.00000  0.11261   4.09
C00J  1  0.53457  0.92214  0.98337 11.00000  0.14759   4.00
C00K  1  0.52223  0.76086  0.23985 11.00000  0.12904   3.86
O00L  4  0.34101  0.79413  0.27865 11.00000  0.25743   3.73
O00M  4  0.50077  0.65702  0.16812 11.00000  0.26405   3.67
C00N  1  0.50213  0.78398  0.50372 11.00000  0.10782   3.51
C00O  1  0.34643  0.79631  0.44555 11.00000  0.37646   3.06
HKLF 4
END
