TITL 0620_expF_1_2_expS_0_8_0620_a.res in I4(1)
REM Old TITL 0620 in I4(1)/a
REM SHELXT solution in I4(1): R1 0.381, Rweak 0.038, Alpha 0.222
REM <I/s>   0.000 for    0 systematic absences,  Orientation as input
REM Flack x = -9.990 ( 9.990 ) from   112 Parsons' quotients
REM Formula found by SHELXT:  C43 N19 O6

CELL  0.71073  26.6550  26.6550   7.5900   90.000   90.000   90.000
ZERR  108.000   0.0038   0.0038   0.0015    0.000    0.000    0.000
LATT -2
SYMM 1/2-X, 1/2-Y, 1/2+Z
SYMM -Y, 1/2+X, 1/4+Z
SYMM 1/2+Y, -X, 3/4+Z
SFAC C H N O
UNIT 108 108 108 108
L.S. 10
BOND
LIST 6
FMAP 2
PLAN 20
N001  3  0.52625  0.41099  0.43181 11.00000  0.16604  12.58
N002  3  0.49388  0.37309  0.43574 11.00000  0.19281  12.20
O003  4  0.58209  0.46296  0.90392 11.00000  0.22005   9.12
C004  1  0.50856  0.39145  0.32928 11.00000  0.25680   8.07
N005  3  0.50000  0.50000  0.84450 10.50000  0.23029   8.05
N006  3  0.54262  0.49460  0.95049 11.00000  0.18794   7.77
N007  3  0.44783  0.37429  0.59582 11.00000  0.20315   7.69
N008  3  0.52558  0.25969 -0.23053 11.00000  0.22983   7.60
N009  3  0.62366  0.48953  1.15288 11.00000  0.28952   7.16
C00A  1  0.46237  0.41328  0.70750 11.00000  0.14325   7.07
N00B  3  0.61165  0.45815  1.02732 11.00000  0.22979   7.00
N00C  3  0.51948  0.29473 -0.10031 11.00000  0.24599   6.83
N00D  3  0.49501  0.45798  0.69368 11.00000  0.19469   6.66
C00E  1  0.47652  0.38613  0.53248 11.00000  0.20865   6.41
C00F  1  0.52926  0.44640  0.57669 11.00000  0.15353   5.83
C00G  1  0.70741  0.50242  1.56337 11.00000  0.19910   5.68
C00H  1  0.47564  0.24574  0.11693 11.00000  0.20770   5.67
C00I  1  0.48306  0.32373  0.34528 11.00000  0.19406   5.60
C00J  1  0.66714  0.47825  1.32774 11.00000  0.22783   5.56
C00K  1  0.49249  0.29836  0.13850 11.00000  0.28971   5.53
C00L  1  0.59214  0.52349  1.20378 11.00000  0.19233   5.45
C00M  1  0.47423  0.20362 -0.00405 11.00000  0.18182   4.81
C00N  1  0.54754  0.53849  1.09001 11.00000  0.16527   4.36
C00O  1  0.50419  0.29009  0.02653 11.00000  0.18557   3.94
C00P  1  0.62757  0.53460  1.56361 11.00000  0.26365   3.85
O00Q  4  0.45445  0.23459  0.27857 11.00000  0.24339   3.83
C00R  1  0.54227  0.25068 -0.39949 11.00000  0.25275   3.73
C00S  1  0.65809  0.50733  1.46441 11.00000  0.20538   3.57
C00T  1  0.50000  0.50000  0.79357 10.50000  0.23207   3.42
C00U  1  0.60348  0.57058  1.27064 11.00000  0.31469   3.31
C00V  1  0.66901  0.31539 -0.56361 11.00000  0.32952   3.25
C00W  1  0.50418  0.33517  0.22654 11.00000  0.24787   3.25
C00X  1  0.70604  0.30248 -0.40527 11.00000  0.35084   3.14
C00Y  1  0.60355  0.55946  1.43432 11.00000  0.29965   3.09
O00Z  4  0.54392  0.37870 -0.13010 11.00000  0.58350   3.02
HKLF 4
END
