TITL 0620_expF_1_1_expS_1_5_0620_b.res in I4(1)
REM Old TITL 0620 in I4(1)/a
REM SHELXT solution in I4(1): R1 0.452, Rweak 0.109, Alpha 0.173
REM <I/s>   0.000 for    0 systematic absences,  Orientation as input
REM Flack x = -9.990 ( 9.990 ) from    44 Parsons' quotients
REM Formula found by SHELXT:  C39 N16 O4

CELL  0.71073  26.6550  26.6550   7.5900   90.000   90.000   90.000
ZERR  108.000   0.0038   0.0038   0.0015    0.000    0.000    0.000
LATT -2
SYMM 1/2-X, 1/2-Y, 1/2+Z
SYMM -Y, 1/2+X, 1/4+Z
SYMM 1/2+Y, -X, 3/4+Z
SFAC C H N O
UNIT 108 108 108 108
L.S. 10
BOND
LIST 6
FMAP 2
PLAN 20
N001  3  0.11768  0.48472  0.58693 11.00000  0.13465   9.55
N002  3  0.08572  0.52888  0.55900 11.00000  0.17604   9.02
N003  3  0.11523  0.45609  0.70826 11.00000  0.16190   8.55
N004  3  0.08058  0.46558  0.85363 11.00000  0.13534   8.02
N005  3  0.04766  0.62566  1.17410 11.00000  0.13063   7.50
C006  1  0.04163  0.58543  1.04759 11.00000  0.07738   7.28
C007  1  0.24228  0.53138 -0.12088 11.00000  0.09227   6.86
N008  3  0.04287  0.49681  0.82292 11.00000  0.14268   6.80
N009  3  0.00617  0.54374  1.07170 11.00000  0.11371   6.61
C00A  1 -0.02779  0.59006  1.31517 11.00000  0.08469   6.23
C00B  1  0.00000  0.50000  0.96238 10.50000  0.07547   6.15
C00C  1 -0.03125  0.55845  1.17788 11.00000  0.10583   6.08
C00D  1  0.04248  0.53113  0.67232 11.00000  0.09456   5.87
C00E  1  0.20255  0.52873  0.00371 11.00000  0.10435   5.86
C00F  1  0.20971  0.50501  0.21471 11.00000  0.12125   5.80
O00G  4  0.24681  0.54358 -0.28144 11.00000  0.14683   5.78
C00H  1  0.09529  0.46818  0.76111 11.00000  0.18015   5.48
C00I  1  0.00296  0.62673  1.30795 11.00000  0.16016   5.37
C00J  1  0.32343  0.51504 -0.31517 11.00000  0.14798   5.05
C00K  1  0.25676  0.48661  0.20136 11.00000  0.12363   5.02
C00L  1  0.33162  0.49659 -0.18167 11.00000  0.17015   5.00
C00M  1  0.15868  0.48926  0.44305 11.00000  0.14667   4.63
C00N  1  0.29126  0.48237  0.09973 11.00000  0.14644   4.39
O00O  4  0.12297  0.57348  0.50867 11.00000  0.43505   3.69
C00P  1  0.19026  0.52335  0.14614 11.00000  0.23872   3.52
C00Q  1  0.29303  0.50479 -0.04212 11.00000  0.16831   3.50
C00R  1  0.15292  0.49296  0.28091 11.00000  0.14960   3.44
C00S  1  0.36476  0.47651 -0.10594 11.00000  0.17409   3.30
C00T  1  0.16937  0.53862  0.31666 11.00000  0.21035   3.21
N00U  3  0.30007  0.66607  0.12065 11.00000  0.27746   3.09
HKLF 4
END
