TITL 0620_expF_1_1_expS_1_3_0620_a.res in I4(1)
REM Old TITL 0620 in I4(1)/a
REM SHELXT solution in I4(1): R1 0.410, Rweak 0.144, Alpha 0.250
REM <I/s>   0.000 for    0 systematic absences,  Orientation as input
REM Flack x = -9.990 ( 9.990 ) from    98 Parsons' quotients
REM Formula found by SHELXT:  C26 N22 O7

CELL  0.71073  26.6550  26.6550   7.5900   90.000   90.000   90.000
ZERR  108.000   0.0038   0.0038   0.0015    0.000    0.000    0.000
LATT -2
SYMM 1/2-X, 1/2-Y, 1/2+Z
SYMM -Y, 1/2+X, 1/4+Z
SYMM 1/2+Y, -X, 3/4+Z
SFAC C H N O
UNIT 108 108 108 108
L.S. 10
BOND
LIST 6
FMAP 2
PLAN 20
N001  3  0.38212  0.53841 -0.17254 11.00000  0.15029  10.53
N002  3  0.08906  0.52504  0.92636 11.00000  0.16186   9.94
N003  3  0.24663  0.52280  0.28055 11.00000  0.14972   9.89
N004  3  0.03964  0.49385  1.19302 11.00000  0.10527   9.58
N005  3  0.41377  0.47494 -0.05344 11.00000  0.14718   9.41
N006  3  0.41766  0.53059 -0.31235 11.00000  0.16249   9.15
O007  4  0.00000  0.50000  1.31235 10.50000  0.15994   8.66
N008  3  0.12096  0.49246  0.96981 11.00000  0.15567   8.43
N009  3  0.04784  0.53903  1.05317 11.00000  0.13924   7.74
N00A  3  0.28574  0.49187  0.35795 11.00000  0.17799   7.42
N00B  3  0.08149  0.45869  1.23945 11.00000  0.18020   7.41
C00C  1  0.37190  0.50962 -0.05925 11.00000  0.13502   7.04
N00D  3  0.32954  0.51244  0.05411 11.00000  0.20718   6.79
O00E  4  0.24152  0.54398  0.11671 11.00000  0.17446   6.31
C00F  1  0.44885  0.49538 -0.29633 11.00000  0.14082   6.13
O00G  4  0.20414  0.51716  0.41607 11.00000  0.20078   6.11
C00H  1  0.29578  0.47597  0.50465 11.00000  0.15841   5.86
C00I  1  0.44521  0.46683 -0.17978 11.00000  0.12058   5.75
C00J  1  0.17132  0.49740  0.71225 11.00000  0.17938   5.44
C00K  1  0.12455  0.45534  1.08700 11.00000  0.13114   5.33
O00L  4  0.41895  0.45425 -0.00960 11.00000  0.38138   5.25
C00M  1  0.25849  0.47972  0.61091 11.00000  0.18108   4.93
C00N  1  0.15257  0.51921  0.62222 11.00000  0.17758   4.80
C00O  1  0.20477  0.50046  0.58435 11.00000  0.09915   4.78
C00P  1  0.32936  0.49265  0.20996 11.00000  0.23636   4.64
C00Q  1  0.17278  0.48000  0.84188 11.00000  0.16574   3.91
C00R  1  0.03146  0.50266  1.04544 11.00000  0.23590   3.83
C00S  1  0.09753  0.45461  1.17411 11.00000  0.21420   3.00
HKLF 4
END
