TITL 0620_expF_1_2_expS_1_4_0620_b.res in I4(1)
REM Old TITL 0620 in I4(1)/a
REM SHELXT solution in I4(1): R1 0.456, Rweak 0.196, Alpha 0.161
REM <I/s>   0.000 for    0 systematic absences,  Orientation as input
REM Flack x = -9.990 ( 9.990 ) from    92 Parsons' quotients
REM Formula found by SHELXT:  C35 N16 O4

CELL  0.71073  26.6550  26.6550   7.5900   90.000   90.000   90.000
ZERR  108.000   0.0038   0.0038   0.0015    0.000    0.000    0.000
LATT -2
SYMM 1/2-X, 1/2-Y, 1/2+Z
SYMM -Y, 1/2+X, 1/4+Z
SYMM 1/2+Y, -X, 3/4+Z
SFAC C H N O
UNIT 108 108 108 108
L.S. 10
BOND
LIST 6
FMAP 2
PLAN 20
N001  3  0.97189  0.38389  1.19783 11.00000  0.18439   8.76
N002  3  0.90897  0.48002  0.54457 11.00000  0.18327   7.75
N003  3  0.94846  0.46579  0.68238 11.00000  0.16619   7.06
N004  3  0.95687  0.50634  0.80828 11.00000  0.14993   6.82
N005  3  0.99296  0.38051  1.31388 11.00000  0.19626   6.79
C006  1  0.86795  0.50792  0.57363 11.00000  0.16561   6.44
N007  3  0.96784  0.41793  1.03603 11.00000  0.15196   6.43
C008  1  0.91415  0.54606  0.81884 11.00000  0.11655   6.19
N009  3  0.75510  0.48933 -0.11291 11.00000  0.24279   6.10
C00A  1  0.99906  0.45655  1.05943 11.00000  0.16456   6.04
C00B  1  1.03001  0.41400  1.33025 11.00000  0.16994   5.62
C00C  1  0.78609  0.48485  0.03324 11.00000  0.16568   5.58
C00D  1  0.70486  0.51102 -0.05857 11.00000  0.21450   5.17
C00E  1  0.68166  0.48835 -0.33025 11.00000  0.21301   5.16
C00F  1  0.87663  0.55440  0.69641 11.00000  0.14226   5.10
C00G  1  0.75386  0.45132 -0.29668 11.00000  0.17918   5.08
C00H  1  0.74239  0.52783  0.22364 11.00000  0.11877   4.88
C00I  1  1.00000  0.50000  0.92813 10.50000  0.13024   4.79
C00J  1  1.02565  0.45236  1.19142 11.00000  0.17591   4.53
C00K  1  0.83142  0.50167  0.31660 11.00000  0.20889   4.50
O00L  4  0.94868  0.37979  1.13839 11.00000  0.33153   4.30
N00M  3  0.85470  0.47996  0.22979 11.00000  0.27204   4.22
C00N  1  0.67442  0.50413 -0.20236 11.00000  0.28687   4.02
C00O  1  0.83630  0.51825  0.44753 11.00000  0.16088   3.88
C00P  1  0.70256  0.53188  0.11472 11.00000  0.14775   3.86
C00Q  1  0.78815  0.50191  0.17817 11.00000  0.13614   3.56
C00R  1  0.74472  0.53979  0.38264 11.00000  0.16755   3.40
O00S  4  0.83682  0.41669  0.53354 11.00000  0.45268   3.27
HKLF 4
END
