TITL 0620_expF_1_2_expS_0_9_0620_c.res in I-4
REM Old TITL 0620 in I4(1)/a
REM SHELXT solution in I-4: R1 0.385, Rweak 0.023, Alpha 0.148
REM <I/s>   0.000 for    0 systematic absences,  Orientation as input
REM Flack x = -9.990 ( 9.990 ) from   106 Parsons' quotients
REM Formula found by SHELXT:  C29 N22 O4

CELL  0.71073  26.6550  26.6550   7.5900   90.000   90.000   90.000
ZERR  108.000   0.0038   0.0038   0.0015    0.000    0.000    0.000
LATT -2
SYMM -X, -Y, Z
SYMM Y, -X, -Z
SYMM -Y, X, -Z
SFAC C H N O
UNIT 108 108 108 108
L.S. 10
BOND
LIST 6
FMAP 2
PLAN 20
N001  3  0.11993  0.45003  1.02391 11.00000  0.22685   9.21
N002  3  0.08697  0.52770  0.87187 11.00000  0.21872   8.62
N003  3  0.08667  0.45895  1.15284 11.00000  0.17746   8.47
N004  3  0.04255  0.49117  1.14548 11.00000  0.21906   8.20
N005  3  0.40512  0.47698 -0.09323 11.00000  0.23961   7.11
N006  3  0.24209  0.52547  0.21283 11.00000  0.24587   6.84
N007  3  0.45371  0.46530 -0.22574 11.00000  0.20527   6.84
N008  3  0.20825  0.50269  0.50164 11.00000  0.24799   6.69
C009  1  0.30400  0.46920  0.43413 11.00000  0.25705   6.48
C00A  1  0.37590  0.50983 -0.12995 11.00000  0.20010   6.44
C00B  1  0.12946  0.49034  0.88376 11.00000  0.20462   6.43
C00C  1  0.00000  0.50000  1.25000 10.25000  0.20181   6.43
C00D  1  0.41820  0.53692 -0.39492 11.00000  0.18763   6.13
C00E  1  0.25423  0.47182  0.56266 11.00000  0.25733   5.68
C00F  1  0.21042  0.52782  0.33999 11.00000  0.20947   5.57
C00G  1  0.05427  0.53229  1.01364 11.00000  0.17458   5.29
C00H  1  0.15772  0.50888  0.59933 11.00000  0.22310   5.21
C00I  1  0.37906  0.53967 -0.25427 11.00000  0.16720   5.16
C00J  1  0.45692  0.50302 -0.35836 11.00000  0.15780   5.07
C00K  1  0.33445  0.51652  0.00373 11.00000  0.24473   4.99
C00L  1  0.16498  0.49175  0.74668 11.00000  0.22592   4.94
O00M  4  0.24660  0.54532  0.05055 11.00000  0.37005   4.66
C00N  1  0.50000  0.50000 -0.50000 10.25000  0.20844   4.63
C00O  1  0.28095  0.50301  0.28611 11.00000  0.30948   4.36
O00P  4  0.09979  0.56045  0.79053 11.00000  0.55280   4.12
N00Q  3  0.26022  0.45490  0.73488 11.00000  0.22415   4.02
C00R  1  0.35793  0.46990  0.17993 11.00000  0.32453   3.61
N00S  3  0.27314  0.64323  0.47329 11.00000  0.46121   3.02
N00T  3  0.19688  0.64733  0.82274 11.00000  0.46802   3.02
HKLF 4
END
