TITL 0620_expF_1_4_expS_1_3_0620_a.res in I-4
REM Old TITL 0620 in I4(1)/a
REM SHELXT solution in I-4: R1 0.531, Rweak 0.140, Alpha 0.160
REM <I/s>   0.000 for    0 systematic absences,  Orientation as input
REM Flack x = -9.990 ( 9.990 ) from    71 Parsons' quotients
REM Formula found by SHELXT:  C69 N17 O20

CELL  0.71073  26.6550  26.6550   7.5900   90.000   90.000   90.000
ZERR  108.000   0.0038   0.0038   0.0015    0.000    0.000    0.000
LATT -2
SYMM -X, -Y, Z
SYMM Y, -X, -Z
SYMM -Y, X, -Z
SFAC C H N O
UNIT 108 108 108 108
L.S. 10
BOND
LIST 6
FMAP 2
PLAN 20
O001  4  0.51684  0.40746  1.10210 11.00000  0.29218   9.22
O002  4  0.46226  0.38246  1.26779 11.00000  0.24534   8.48
N003  3  0.50000  0.50000  1.50000 10.25000  0.18481   8.04
N004  3  0.50564  0.29756  0.72709 11.00000  0.25723   7.76
O005  4  0.49039  0.37265  1.13959 11.00000  0.25930   7.60
N006  3  0.49124  0.45532  1.35647 11.00000  0.21383   7.41
N007  3  0.53457  0.08562 -0.15061 11.00000  0.20024   6.85
C008  1  0.53387  0.44898  1.22933 11.00000  0.16156   6.48
C009  1  0.47249  0.08664  0.13849 11.00000  0.16311   6.45
C00A  1  0.45630  0.41772  1.39140 11.00000  0.15761   6.32
N00B  3  0.48253  0.21815  0.64272 11.00000  0.26437   6.20
C00C  1  0.50628  0.11825  0.08858 11.00000  0.23089   6.03
C00D  1  0.47444  0.24303  0.76929 11.00000  0.18536   5.96
C00E  1  0.52305  0.25854  0.43246 11.00000  0.24367   5.67
C00F  1  0.52296  0.29763  0.57336 11.00000  0.19554   5.64
C00G  1  0.49674  0.33339  0.88357 11.00000  0.21219   5.46
C00H  1  0.50000  0.00000 -0.25000 10.25000  0.13310   5.33
C00I  1  0.50624  0.17872  0.23348 11.00000  0.25064   5.23
C00J  1  0.50563  0.03164 -0.14424 11.00000  0.16425   4.75
C00K  1  0.55381  0.12055 -0.02450 11.00000  0.18621   4.20
C00L  1  0.44765  0.24294  0.94319 11.00000  0.24414   4.12
C00M  1  0.50052  0.21533  0.48883 11.00000  0.17089   4.05
C00N  1  0.48952  0.33924  1.01787 11.00000  0.21899   4.02
C00O  1  0.65178  0.22849  0.72351 11.00000  0.29180   3.84
O00P  4  0.54712  0.25335  0.25945 11.00000  0.30981   3.58
O00Q  4  0.49548  0.17915  0.39982 11.00000  0.35293   3.53
C00R  1  0.52826  0.35859  0.78318 11.00000  0.28258   3.18
C00S  1  0.46602  0.06533  0.00026 11.00000  0.26335   3.04
HKLF 4
END
