TITL 0620_expF_1_2_expS_0_8_0620_b.res in I-4
REM Old TITL 0620 in I4(1)/a
REM SHELXT solution in I-4: R1 0.401, Rweak 0.116, Alpha 0.139
REM <I/s>   0.000 for    0 systematic absences,  Orientation as input
REM Flack x = -6.174 ( 9.990 ) from   113 Parsons' quotients
REM Formula found by SHELXT:  C60 N33 O16

CELL  0.71073  26.6550  26.6550   7.5900   90.000   90.000   90.000
ZERR  108.000   0.0038   0.0038   0.0015    0.000    0.000    0.000
LATT -2
SYMM -X, -Y, Z
SYMM Y, -X, -Z
SYMM -Y, X, -Z
SFAC C H N O
UNIT 108 108 108 108
L.S. 10
BOND
LIST 6
FMAP 2
PLAN 20
N001  3  0.50000  1.00000  1.25000 10.25000  0.11573  14.44
N002  3  0.49812  0.87768  0.87552 11.00000  0.19583  13.12
N003  3  0.52774  0.90371  0.84230 11.00000  0.22227  11.64
O004  4  0.46285  0.92167  1.15051 11.00000  0.21370   9.43
N005  3  0.53328  0.89731  0.71423 11.00000  0.29352   9.16
O006  4  0.46855  0.87890  1.00076 11.00000  0.25321   8.79
N007  3  0.53408  0.80084  0.26535 11.00000  0.27968   8.36
N008  3  0.49270  0.97202  1.15008 11.00000  0.19503   8.20
N009  3  0.53077  0.94935  0.99548 11.00000  0.19927   7.35
N00A  3  0.50764  0.54560 -0.36968 11.00000  0.25896   6.67
C00B  1  0.46645  0.59197 -0.14965 11.00000  0.19009   6.44
C00C  1  0.53648  0.59181 -0.39455 11.00000  0.18892   6.15
C00D  1  0.48185  0.75472  0.53708 11.00000  0.20880   6.13
C00E  1  0.51330  0.76521  0.17646 11.00000  0.20489   6.10
C00F  1  0.51663  0.80307  0.45478 11.00000  0.28744   5.28
C00G  1  0.49353  0.71764  0.25802 11.00000  0.20280   5.24
C00H  1  0.55129  0.62116 -0.27265 11.00000  0.19806   4.85
C00I  1  0.51808  0.84450  0.58726 11.00000  0.25615   4.84
C00J  1  0.51892  0.67206  0.00561 11.00000  0.27028   4.68
C00K  1  0.48846  0.83857  0.76215 11.00000  0.28029   4.56
C00L  1  0.52233  0.59854 -0.14066 11.00000  0.37256   4.47
C00M  1  0.51926  0.79299  0.33623 11.00000  0.21416   4.00
C00N  1  0.54588  0.75372  0.04214 11.00000  0.22333   3.73
O00O  4  0.46914  0.73548  0.72726 11.00000  0.39018   3.65
C00P  1  0.50008  0.63095 -0.17524 11.00000  0.39491   3.54
O00Q  4  0.67715  0.70431  0.29950 11.00000  0.54654   3.48
C00R  1  0.62311  0.73551  0.47240 11.00000  0.34469   3.27
N00S  3  0.80093  0.70376  0.36510 11.00000  0.50737   3.16
HKLF 4
END
