TITL 0620_expF_1_4_expS_1_5_0620_b.res in I-4
REM Old TITL 0620 in I4(1)/a
REM SHELXT solution in I-4: R1 0.573, Rweak 0.186, Alpha 0.121
REM <I/s>   0.000 for    0 systematic absences,  Orientation as input
REM Flack x = -4.655 ( 9.990 ) from    64 Parsons' quotients
REM Formula found by SHELXT:  C77 N33 O8

CELL  0.71073  26.6550  26.6550   7.5900   90.000   90.000   90.000
ZERR  108.000   0.0038   0.0038   0.0015    0.000    0.000    0.000
LATT -2
SYMM -X, -Y, Z
SYMM Y, -X, -Z
SYMM -Y, X, -Z
SFAC C H N O
UNIT 108 108 108 108
L.S. 10
BOND
LIST 6
FMAP 2
PLAN 20
N001  3  0.50000  0.50000 -0.50000 10.25000  0.14474  12.86
N002  3  0.48512  0.58171 -0.11290 11.00000  0.21401  10.61
N003  3  0.51001  0.61930 -0.14314 11.00000  0.17101  10.16
N004  3  0.54420  0.61872 -0.26788 11.00000  0.19700   9.26
N005  3  0.51265  0.54349 -0.38473 11.00000  0.18974   8.41
N006  3  0.54012  0.58113 -0.40016 11.00000  0.17591   7.65
N007  3  0.49108  0.69486  0.25805 11.00000  0.19527   7.27
C008  1  0.48950  0.59013 -0.30443 11.00000  0.19162   7.15
C009  1  0.47081  0.54783 -0.24024 11.00000  0.14593   7.02
N00A  3  0.47415  0.70853  0.41171 11.00000  0.17332   6.89
C00B  1  0.51014  0.89942  0.87401 11.00000  0.26245   6.44
C00C  1  0.46752  0.91766  1.14351 11.00000  0.18011   6.26
C00D  1  0.52909  0.75764  0.24105 11.00000  0.18470   6.18
C00E  1  0.50217  0.67496  0.13902 11.00000  0.16859   5.50
C00F  1  0.48234  0.82256  0.73649 11.00000  0.24001   5.42
C00G  1  0.49540  0.96313  1.11663 11.00000  0.17925   5.18
C00H  1  0.47699  0.73774  0.53720 11.00000  0.20231   5.13
C00I  1  0.51680  0.78266  0.35663 11.00000  0.21639   5.00
C00J  1  0.49605  0.78139  0.51562 11.00000  0.19559   4.61
N00K  3  0.35795  0.76718  1.25946 11.00000  0.25169   4.56
C00L  1  0.48802  0.87287  0.90130 11.00000  0.27690   4.55
C00M  1  0.50000  1.00000  1.25000 10.25000  0.17136   4.20
C00N  1  0.47140  0.63790  0.17679 11.00000  0.26372   4.15
O00O  4  0.56050  0.83508  1.01394 11.00000  0.53631   4.01
C00P  1  0.51040  0.65593 -0.00978 11.00000  0.20110   4.00
C00Q  1  0.49488  0.76434  0.39507 11.00000  0.27937   3.78
C00R  1  0.45012  0.75106  0.70624 11.00000  0.21926   3.66
C00S  1  0.37104  0.92435  0.92050 11.00000  0.28269   3.52
O00T  4  0.33322  0.73002  0.80987 11.00000  0.45861   3.44
C00U  1  0.45217  0.87899  1.00816 11.00000  0.24123   3.36
C00V  1  0.35187  0.65063  0.90951 11.00000  0.40799   3.17
HKLF 4
END
