TITL 0620_expF_1_2_expS_1_2_0620_b.res in I4(1)
REM Old TITL 0620 in I4(1)/a
REM SHELXT solution in I4(1): R1 0.403, Rweak 0.068, Alpha 0.198
REM <I/s>   0.000 for    0 systematic absences,  Orientation as input
REM Flack x = -2.597 ( 9.990 ) from    97 Parsons' quotients
REM Formula found by SHELXT:  C43 N14 O6

CELL  0.71073  26.6550  26.6550   7.5900   90.000   90.000   90.000
ZERR  108.000   0.0038   0.0038   0.0015    0.000    0.000    0.000
LATT -2
SYMM 1/2-X, 1/2-Y, 1/2+Z
SYMM -Y, 1/2+X, 1/4+Z
SYMM 1/2+Y, -X, 3/4+Z
SFAC C H N O
UNIT 108 108 108 108
L.S. 10
BOND
LIST 6
FMAP 2
PLAN 20
N001  3  0.91016  0.46978  0.55585 11.00000  0.19160   8.21
N002  3  0.74702  0.51717  0.23794 11.00000  0.17148   8.11
O003  4  0.88144  0.54374  0.70720 11.00000  0.19974   7.78
O004  4  0.91738  0.53632  0.83211 11.00000  0.21276   7.76
C005  1  0.97347  0.58732  1.32548 11.00000  0.13514   7.43
C006  1  1.01039  0.54004  1.05728 11.00000  0.13424   7.42
N007  3  1.00717  0.62413  1.30796 11.00000  0.18273   7.38
N008  3  0.79090  0.49497  0.17170 11.00000  0.23209   7.30
C009  1  1.03766  0.58317  1.04280 11.00000  0.13730   7.27
C00A  1  1.03716  0.62406  1.19038 11.00000  0.15892   6.86
N00B  3  0.97024  0.55696  1.18144 11.00000  0.21269   6.83
C00C  1  0.95809  0.50121  0.81360 11.00000  0.16226   6.53
C00D  1  1.00000  0.50000  0.96146 10.50000  0.12343   6.22
C00E  1  0.70562  0.52318  0.10665 11.00000  0.15442   6.18
C00F  1  0.95622  0.46146  0.67443 11.00000  0.14199   5.81
C00G  1  0.88237  0.50967  0.58243 11.00000  0.17445   5.42
C00H  1  0.75829  0.46401 -0.10864 11.00000  0.15288   5.41
C00I  1  0.78236  0.47163  0.00810 11.00000  0.19854   5.32
C00J  1  0.83862  0.48834  0.29366 11.00000  0.24886   5.27
C00K  1  0.75098  0.54215  0.39347 11.00000  0.16596   5.24
C00L  1  0.83642  0.51459  0.45192 11.00000  0.21246   5.13
C00M  1  0.71150  0.49918 -0.04253 11.00000  0.22593   4.89
C00N  1  0.67334  0.48165 -0.32548 11.00000  0.21883   4.85
C00O  1  0.97995  0.63483  1.18910 11.00000  0.27366   4.70
N00P  3  0.76724  0.63464 -0.04270 11.00000  0.35796   4.49
C00Q  1  0.67118  0.49817 -0.17970 11.00000  0.23438   4.29
C00R  1  0.88730  0.45213  0.19610 11.00000  0.27512   4.12
O00S  4  0.76832  0.45442 -0.27087 11.00000  0.27674   3.96
C00T  1  0.90242  0.47626  0.45163 11.00000  0.26633   3.79
C00U  1  0.65072  0.54582  0.08716 11.00000  0.28711   3.28
N00V  3  0.84678  0.65598  0.32238 11.00000  0.32872   3.26
C00W  1  0.63884  0.52640 -0.08995 11.00000  0.18337   3.09
HKLF 4
END
