TITL 0620_expF_1_2_expS_0_6_0620_b.res in I4(1)
REM Old TITL 0620 in I4(1)/a
REM SHELXT solution in I4(1): R1 0.405, Rweak 0.024, Alpha 0.160
REM <I/s>   0.000 for    0 systematic absences,  Orientation as input
REM Flack x = -9.990 ( 9.990 ) from   127 Parsons' quotients
REM Formula found by SHELXT:  C40 N7 O10

CELL  0.71073  26.6550  26.6550   7.5900   90.000   90.000   90.000
ZERR  108.000   0.0038   0.0038   0.0015    0.000    0.000    0.000
LATT -2
SYMM 1/2-X, 1/2-Y, 1/2+Z
SYMM -Y, 1/2+X, 1/4+Z
SYMM 1/2+Y, -X, 3/4+Z
SFAC C H N O
UNIT 108 108 108 108
L.S. 10
BOND
LIST 6
FMAP 2
PLAN 20
N001  3  1.02967  0.40996  1.04400 11.00000  0.22236   8.79
N002  3  0.95934  0.38074  0.88280 11.00000  0.20574   8.12
O003  4  0.91514  0.53943  0.53661 11.00000  0.23413   7.77
C004  1  0.99058  0.37716  0.98592 11.00000  0.19359   7.31
O005  4  0.88083  0.55024  0.40337 11.00000  0.26844   7.19
C006  1  0.95955  0.50920  0.51232 11.00000  0.17396   6.95
C007  1  0.74278  0.52905 -0.08074 11.00000  0.23570   6.71
C008  1  0.96313  0.41711  0.74457 11.00000  0.17258   6.57
N009  3  1.00000  0.50000  0.63213 10.50000  0.23128   6.53
C00A  1  1.03166  0.44633  0.89806 11.00000  0.16868   6.31
C00B  1  0.71152  0.52843 -0.17331 11.00000  0.22325   6.01
C00C  1  1.00023  0.45615  0.77367 11.00000  0.18024   5.63
C00D  1  0.75303  0.47727 -0.40511 11.00000  0.18781   5.47
C00E  1  0.90817  0.47480  0.24262 11.00000  0.23156   5.41
C00F  1  0.97056  0.32557  1.12106 11.00000  0.28602   5.36
C00G  1  0.87792  0.50938  0.24406 11.00000  0.27171   5.18
C00H  1  0.84648  0.47887 -0.02884 11.00000  0.24098   5.01
C00I  1  0.72003  0.50797 -0.32990 11.00000  0.28121   4.98
C00J  1  0.95989  0.46395  0.37468 11.00000  0.20649   4.92
C00K  1  0.75821  0.45416 -0.56980 11.00000  0.22131   4.89
C00L  1  0.79137  0.47620 -0.25184 11.00000  0.22960   4.36
C00M  1  0.79259  0.49734 -0.08662 11.00000  0.20267   4.20
C00N  1  0.83478  0.51073  0.10689 11.00000  0.25586   3.98
C00O  1  0.84606  0.57305  0.54453 11.00000  0.32323   3.97
O00P  4  0.73993  0.53809  0.08840 11.00000  0.35766   3.92
O00Q  4  0.85082  0.60744  0.37023 11.00000  0.55411   3.41
N00R  3  0.83514  0.26936  1.56980 11.00000  0.53268   3.36
O00S  4  0.86855  0.34238  1.41431 11.00000  0.56686   3.25
C00T  1  0.83252  0.35391  1.24851 11.00000  0.29339   3.11
HKLF 4
END
