TITL 0620_expF_1_3_expS_0_6_0620_a.res in I4(1)
REM Old TITL 0620 in I4(1)/a
REM SHELXT solution in I4(1): R1 0.363, Rweak 0.035, Alpha 0.179
REM <I/s>   0.000 for    0 systematic absences,  Orientation as input
REM Flack x = -9.990 ( 9.821 ) from   121 Parsons' quotients
REM Formula found by SHELXT:  C39 N12 O12

CELL  0.71073  26.6550  26.6550   7.5900   90.000   90.000   90.000
ZERR  108.000   0.0038   0.0038   0.0015    0.000    0.000    0.000
LATT -2
SYMM 1/2-X, 1/2-Y, 1/2+Z
SYMM -Y, 1/2+X, 1/4+Z
SYMM 1/2+Y, -X, 3/4+Z
SFAC C H N O
UNIT 108 108 108 108
L.S. 10
BOND
LIST 6
FMAP 2
PLAN 20
O001  4  0.38560  0.04287 -0.09483 11.00000  0.23801   9.53
N002  3  0.41069 -0.03052 -0.25701 11.00000  0.23262   9.12
N003  3  0.47614  0.24572  1.17970 11.00000  0.26026   8.76
O004  4  0.41834  0.03521  0.03124 11.00000  0.23576   8.14
N005  3  0.47164  0.09163  0.51117 11.00000  0.20858   7.55
O006  4  0.38075  0.01130 -0.22772 11.00000  0.30391   7.54
N007  3  0.50729  0.28946  1.11142 11.00000  0.29221   7.46
C008  1  0.50202  0.04615  0.26226 11.00000  0.18387   7.22
N009  3  0.53480  0.08297  0.23317 11.00000  0.22166   7.17
N00A  3  0.46415  0.04697  0.40754 11.00000  0.21757   7.13
C00B  1  0.48665  0.15717  0.78981 11.00000  0.26500   6.43
C00C  1  0.50633  0.13023  0.47827 11.00000  0.26764   6.19
C00D  1  0.50000  0.00000  0.13007 10.50000  0.18217   6.15
C00E  1  0.46179  0.00687  0.00450 11.00000  0.17480   5.79
C00F  1  0.52832  0.29823  0.95575 11.00000  0.27495   5.69
C00G  1  0.47375  0.20514  1.06256 11.00000  0.23700   5.64
C00H  1  0.45013  0.25225  1.34310 11.00000  0.30547   5.62
C00I  1  0.51313  0.16684  0.61940 11.00000  0.25030   5.49
C00J  1  0.54201  0.12539  0.38532 11.00000  0.23530   5.39
C00K  1  0.45031  0.11895  0.83088 11.00000  0.28370   5.33
C00L  1  0.47264  0.32666  1.39922 11.00000  0.29115   5.30
C00M  1  0.51863  0.25364  0.83342 11.00000  0.24490   5.13
O00N  4  0.42432 -0.04176 -0.39922 11.00000  0.45107   4.60
C00O  1  0.44599 -0.03303 -0.10678 11.00000  0.21360   4.25
C00P  1  0.49051  0.21328  0.90368 11.00000  0.22807   3.90
C00Q  1  0.71862  0.33822  0.65515 11.00000  0.42142   3.49
C00R  1  0.50747  0.33265  1.22699 11.00000  0.29297   3.41
C00S  1  0.46131  0.09279  0.31266 11.00000  0.32096   3.32
O00T  4  0.54250  0.26182  0.66015 11.00000  0.30492   3.25
C00U  1  0.46897  0.14665  1.00296 11.00000  0.37779   3.19
C00V  1  0.65424  0.33255  0.48393 11.00000  0.45232   3.17
O00W  4  0.56021  0.15837  0.28915 11.00000  0.44844   3.13
HKLF 4
END
