TITL 0620_expF_1_4_expS_1_4_0620_a.res in I4(1)/a
REM Old TITL 0620 in I4(1)/a
REM SHELXT solution in I4(1)/a: R1 0.606, Rweak 0.060, Alpha 0.149
REM <I/s>   0.000 for    0 systematic absences,  Orientation as input
REM Formula found by SHELXT:  C33 N12 O8

CELL  0.71073  26.6550  26.6550   7.5900   90.000   90.000   90.000
ZERR  108.000   0.0038   0.0038   0.0015    0.000    0.000    0.000
LATT  2
SYMM 1/2-X, -Y, 1/2+Z
SYMM 3/4-Y, 1/4+X, 1/4+Z
SYMM 3/4+Y, 3/4-X, 3/4+Z
SFAC C H N O
UNIT 108 108 108 108
L.S. 10
BOND
LIST 6
FMAP 2
PLAN 20
N001  3  0.45916  0.12934  0.62495 11.00000  0.20115   7.09
N002  3  0.46291  0.16176  0.76420 11.00000  0.16925   6.84
N003  3  0.52002  0.15767  0.60832 11.00000  0.31728   6.73
C004  1  0.49221  0.12541  0.50336 11.00000  0.14649   6.40
C005  1  0.52366  0.00911 -0.15699 11.00000  0.18498   6.22
C006  1  0.49880  0.20671  0.73870 11.00000  0.14831   6.02
C007  1  0.50000  0.25000  0.87500 10.25000  0.14189   5.43
C008  1  0.53383  0.20045  0.60139 11.00000  0.15677   5.18
C009  1  0.52382  0.04079 -0.04392 11.00000  0.17501   5.18
C00A  1  0.50433  0.04247  0.11769 11.00000  0.16318   4.94
C00B  1  0.48837  0.08503  0.39213 11.00000  0.19366   4.73
C00C  1  0.50091  0.08222  0.22311 11.00000  0.22385   4.33
O00D  4  0.54096 -0.00147 -0.35097 11.00000  0.35036   4.30
O00E  4  0.52792  0.16431  0.47279 11.00000  0.22769   3.05
HKLF 4
END
