TITL 0620_expF_1_4_expS_1_5_0620_a.res in I4(1)
REM Old TITL 0620 in I4(1)/a
REM SHELXT solution in I4(1): R1 0.562, Rweak 0.260, Alpha 0.170
REM <I/s>   0.000 for    0 systematic absences,  Orientation as input
REM Flack x = -9.990 ( 9.990 ) from    66 Parsons' quotients
REM Formula found by SHELXT:  C34 N19 O8

CELL  0.71073  26.6550  26.6550   7.5900   90.000   90.000   90.000
ZERR  108.000   0.0038   0.0038   0.0015    0.000    0.000    0.000
LATT -2
SYMM 1/2-X, 1/2-Y, 1/2+Z
SYMM -Y, 1/2+X, 1/4+Z
SYMM 1/2+Y, -X, 3/4+Z
SFAC C H N O
UNIT 108 108 108 108
L.S. 10
BOND
LIST 6
FMAP 2
PLAN 20
N001  3  0.52124  0.41072  0.92417 11.00000  0.18077  10.34
N002  3  0.48686  0.37429  0.95485 11.00000  0.16724   9.04
N003  3  0.50000  0.50000  1.33043 10.50000  0.17297   7.20
N004  3  0.46649  0.24561  0.58845 11.00000  0.21105   7.19
N005  3  0.50462  0.29755  0.56019 11.00000  0.19749   7.14
N006  3  0.53482  0.08575 -0.33043 11.00000  0.16463   7.05
N007  3  0.46124  0.41674  1.21976 11.00000  0.19991   7.01
N008  3  0.54232  0.11258 -0.18945 11.00000  0.22458   6.97
N009  3  0.52534  0.28918  0.39887 11.00000  0.20735   6.95
C00A  1  0.50188  0.04767 -0.28279 11.00000  0.17398   6.91
N00B  3  0.51126  0.17145  0.05553 11.00000  0.21192   6.77
C00C  1  0.45456  0.37961  1.08466 11.00000  0.15879   6.70
C00D  1  0.50269  0.17795  0.20330 11.00000  0.18006   6.25
C00E  1  0.49211  0.46549  1.19592 11.00000  0.12918   6.07
C00F  1  0.49754  0.36469  0.79806 11.00000  0.32335   5.73
C00G  1  0.50669  0.12612 -0.07804 11.00000  0.17857   5.55
C00H  1  0.53226  0.44326  1.08210 11.00000  0.19527   5.48
C00I  1  0.48139  0.08606 -0.04031 11.00000  0.19966   5.46
C00J  1  0.50342  0.21701  0.31343 11.00000  0.18557   5.08
O00K  4  0.47839  0.21994  0.48389 11.00000  0.29814   4.92
C00L  1  0.52310  0.26020  0.25436 11.00000  0.18408   4.46
C00M  1  0.46690  0.04357 -0.14164 11.00000  0.17951   4.19
O00N  4  0.54487  0.25693  0.08572 11.00000  0.26315   4.02
O00O  4  0.64370  0.34377 -0.03951 11.00000  0.46535   3.95
C00P  1  0.46935  0.13526  0.28228 11.00000  0.24460   3.69
O00Q  4  0.44765  0.23138  0.75694 11.00000  0.34903   3.67
C00R  1  0.73317  0.33807  0.20929 11.00000  0.25076   3.58
C00S  1  0.50424  0.33887  0.65040 11.00000  0.21592   3.38
C00T  1  0.48230  0.33055  0.80865 11.00000  0.21730   3.34
C00U  1  0.72849  0.35569  0.31288 11.00000  0.18630   3.28
C00V  1  0.67787  0.36554  0.16390 11.00000  0.27277   3.21
HKLF 4
END
