TITL 0620_expF_0_9_expS_1_4_0620_a.res in I-4
REM Old TITL 0620 in I4(1)/a
REM SHELXT solution in I-4: R1 0.351, Rweak 0.203, Alpha 0.265
REM <I/s>   0.000 for    0 systematic absences,  Orientation as input
REM Flack x = -9.990 ( 9.990 ) from    10 Parsons' quotients
REM Formula found by SHELXT:  C48 N53 O8

CELL  0.71073  26.6550  26.6550   7.5900   90.000   90.000   90.000
ZERR  108.000   0.0038   0.0038   0.0015    0.000    0.000    0.000
LATT -2
SYMM -X, -Y, Z
SYMM Y, -X, -Z
SYMM -Y, X, -Z
SFAC C H N O
UNIT 108 108 108 108
L.S. 10
BOND
LIST 6
FMAP 2
PLAN 20
O001  4  0.58347  0.46210 -0.39788 11.00000  0.12106  10.37
N002  3  0.91021  0.47636  0.86205 11.00000  0.10247  10.32
N003  3  0.87330  0.50824  0.86302 11.00000  0.10213   9.76
C004  1  0.62244  0.45891 -0.25836 11.00000  0.11307   9.17
N005  3  1.00000  0.50000  1.25000 10.25000  0.05197   8.83
N006  3  0.95070  0.50126  1.13071 11.00000  0.10533   8.73
N007  3  0.87366  0.54665  1.01616 11.00000  0.12823   8.72
N008  3  0.95100  0.46785  0.99972 11.00000  0.10669   8.28
N009  3  0.58558  0.52996 -0.11896 11.00000  0.14814   8.04
N00A  3  0.91243  0.54151  1.12151 11.00000  0.08357   7.64
N00B  3  0.61812  0.49793 -0.14775 11.00000  0.21232   7.02
N00C  3  0.75322  0.48744  0.18107 11.00000  0.15509   6.97
N00D  3  0.74253  0.52212  0.52636 11.00000  0.10096   6.73
N00E  3  0.55487  0.53225 -0.24163 11.00000  0.12322   6.69
N00F  3  0.88964  0.52939  0.97145 11.00000  0.16401   6.59
C00G  1  0.71498  0.52433  0.38984 11.00000  0.14306   6.46
C00H  1  0.54449  0.49215 -0.36142 11.00000  0.05427   6.45
C00I  1  0.79893  0.47938  0.29914 11.00000  0.10785   6.45
C00J  1  0.82637  0.52061  0.74790 11.00000  0.11460   6.18
C00K  1  0.78978  0.49676  0.43070 11.00000  0.17513   5.77
C00L  1  0.84402  0.50219  0.60598 11.00000  0.21674   5.41
C00M  1  0.70987  0.50238  0.23598 11.00000  0.04384   4.72
C00N  1  0.75933  0.45835  0.02327 11.00000  0.10676   4.42
O00O  4  0.74471  0.54422  0.71111 11.00000  0.19881   4.36
C00P  1  0.66835  0.49440 -0.00201 11.00000  0.13709   4.12
C00Q  1  0.67286  0.51452  0.15729 11.00000  0.11131   3.64
N00R  3  0.71952  0.36203  0.49229 11.00000  0.19147   3.58
C00S  1  0.73046  0.40178  0.02273 11.00000  0.21037   3.29
HKLF 4
END
