TITL 0620_expF_1_0_expS_0_6_0620_a.res in I4(1)
REM Old TITL 0620 in I4(1)/a
REM SHELXT solution in I4(1): R1 0.367, Rweak 0.074, Alpha 0.209
REM <I/s>   0.000 for    0 systematic absences,  Orientation as input
REM Flack x = -9.990 ( 9.990 ) from   138 Parsons' quotients
REM Formula found by SHELXT:  C24 N19 O10

CELL  0.71073  26.6550  26.6550   7.5900   90.000   90.000   90.000
ZERR  108.000   0.0038   0.0038   0.0015    0.000    0.000    0.000
LATT -2
SYMM 1/2-X, 1/2-Y, 1/2+Z
SYMM -Y, 1/2+X, 1/4+Z
SYMM 1/2+Y, -X, 3/4+Z
SFAC C H N O
UNIT 108 108 108 108
L.S. 10
BOND
LIST 6
FMAP 2
PLAN 20
N001  3  0.54287  0.53543  1.14230 11.00000  0.20475  10.78
N002  3  0.58807  0.52921  1.23899 11.00000  0.15001  10.70
N003  3  0.49286  0.45684  0.72300 11.00000  0.17267   9.58
O004  4  0.45667  0.41640  0.75696 11.00000  0.20087   8.99
N005  3  0.61861  0.46467  1.10838 11.00000  0.16106   8.82
N006  3  0.62387  0.49319  1.22231 11.00000  0.16941   8.46
N007  3  0.54519  0.49551  0.97296 11.00000  0.17649   8.26
N008  3  0.46173  0.24220  0.15331 11.00000  0.21053   7.78
O009  4  0.46111  0.37878  0.61674 11.00000  0.25785   7.48
C00A  1  0.58387  0.46690  0.96382 11.00000  0.14169   7.36
N00B  3  0.52439  0.40529  0.49208 11.00000  0.25796   7.26
N00C  3  0.50000  0.50000  0.83647 10.50000  0.21506   7.18
N00D  3  0.66633  0.47626  1.34673 11.00000  0.26635   6.66
C00E  1  0.53470  0.45387  0.61108 11.00000  0.13314   6.43
C00F  1  0.46417  0.20773  0.04723 11.00000  0.17273   6.40
C00G  1  0.51303  0.34910  0.20109 11.00000  0.15727   6.24
C00H  1  0.56906  0.52527  1.07715 11.00000  0.22157   5.93
C00I  1  0.51839  0.25207 -0.18213 11.00000  0.12240   5.82
C00J  1  0.49101  0.37366  0.46706 11.00000  0.17608   5.66
C00K  1  0.49247  0.29104  0.13279 11.00000  0.14857   5.19
C00L  1  0.54489  0.25177 -0.34673 11.00000  0.17114   5.15
O00M  4  0.45448  0.24467  0.31642 11.00000  0.27018   4.95
O00N  4  0.58581  0.52950  1.31959 11.00000  0.37890   4.73
C00O  1  0.51897  0.28368 -0.04099 11.00000  0.19476   4.64
C00P  1  0.48700  0.33356  0.33667 11.00000  0.17283   4.39
C00Q  1  0.43973  0.37311  0.69727 11.00000  0.31346   3.96
O00R  4  0.42086  0.36658  0.56672 11.00000  0.45144   3.00
HKLF 4
END
