TITL 0620_expF_1_4_expS_1_3_0620_b.res in I4(1)
REM Old TITL 0620 in I4(1)/a
REM SHELXT solution in I4(1): R1 0.538, Rweak 0.178, Alpha 0.154
REM <I/s>   0.000 for    0 systematic absences,  Orientation as input
REM Flack x = -9.990 ( 9.990 ) from    73 Parsons' quotients
REM Formula found by SHELXT:  C33 N12 O6

CELL  0.71073  26.6550  26.6550   7.5900   90.000   90.000   90.000
ZERR  108.000   0.0038   0.0038   0.0015    0.000    0.000    0.000
LATT -2
SYMM 1/2-X, 1/2-Y, 1/2+Z
SYMM -Y, 1/2+X, 1/4+Z
SYMM 1/2+Y, -X, 3/4+Z
SFAC C H N O
UNIT 108 108 108 108
L.S. 10
BOND
LIST 6
FMAP 2
PLAN 20
O001  4  0.58404  0.53014  1.29028 11.00000  0.25473   9.58
N002  3  0.62315  0.49170  1.27927 11.00000  0.22029   8.59
N003  3  0.45966  0.41541  0.80662 11.00000  0.16686   7.34
N004  3  0.44472  0.38239  0.68772 11.00000  0.21229   7.06
C005  1  0.50000  0.50000  0.89183 10.50000  0.13863   6.95
N006  3  0.47249  0.20581  0.07859 11.00000  0.27026   6.94
C007  1  0.49246  0.45740  0.77375 11.00000  0.18170   6.75
C008  1  0.47321  0.23818  0.20593 11.00000  0.23413   6.47
C009  1  0.53689  0.49568  1.03352 11.00000  0.18303   5.71
C00A  1  0.49045  0.33862  0.41948 11.00000  0.18916   5.65
C00B  1  0.48947  0.21293 -0.09195 11.00000  0.23161   5.62
C00C  1  0.55689  0.52623  1.14768 11.00000  0.19071   5.58
C00D  1  0.49804  0.32486  0.28831 11.00000  0.18769   5.57
C00E  1  0.51972  0.40530  0.52507 11.00000  0.22796   5.54
C00F  1  0.58186  0.46333  1.00892 11.00000  0.20251   5.46
C00G  1  0.61869  0.46356  1.14199 11.00000  0.16757   5.26
C00H  1  0.49740  0.29345  0.16053 11.00000  0.20344   4.57
C00I  1  0.53570  0.45348  0.62869 11.00000  0.18254   4.34
C00J  1  0.48574  0.37293  0.57774 11.00000  0.25107   4.24
O00K  4  0.45869  0.24553  0.38205 11.00000  0.34966   4.22
C00L  1  0.51333  0.35455  0.21511 11.00000  0.25128   4.16
C00M  1  0.51931  0.25391 -0.12059 11.00000  0.19460   3.80
N00N  3  0.36787  0.19743  0.64531 11.00000  0.47090   3.71
C00O  1  0.51699  0.28662 -0.01403 11.00000  0.22951   3.29
N00P  3  0.35246  0.28016  0.88109 11.00000  0.55648   3.27
O00Q  4  0.54015  0.25934 -0.29028 11.00000  0.32534   3.16
HKLF 4
END
