TITL 0620_expF_1_0_expS_1_0_0620_a.res in I-4
REM Old TITL 0620 in I4(1)/a
REM SHELXT solution in I-4: R1 0.342, Rweak 0.123, Alpha 0.290
REM <I/s>   0.000 for    0 systematic absences,  Orientation as input
REM Flack x =  0.431 ( 0.603 ) from   126 Parsons' quotients
REM Formula found by SHELXT:  C61 N42 O12 Cl13

CELL  0.71073  26.6550  26.6550   7.5900   90.000   90.000   90.000
ZERR  108.000   0.0038   0.0038   0.0015    0.000    0.000    0.000
LATT -2
SYMM -X, -Y, Z
SYMM Y, -X, -Z
SYMM -Y, X, -Z
SFAC C H N O CL
UNIT 108 108 108 108 0
L.S. 10
BOND
LIST 6
FMAP 2
PLAN 20
CL01  5  0.50000  0.50000  1.50000 10.25000  0.18276  16.14
CL02  5  0.48995  0.46241  1.38873 11.00000  0.22536  13.48
CL03  5  0.45488  0.38039  1.27359 11.00000  0.22136  13.46
CL04  5  0.51916  0.40943  1.11545 11.00000  0.27635  12.65
N005  3  0.48000  0.38092  1.15361 11.00000  0.17023  10.27
N006  3  0.46073  0.41766  1.40862 11.00000  0.11580   9.21
N007  3  0.50667  0.28861  0.73875 11.00000  0.13609   9.14
N008  3  0.50000  0.50000  1.32262 10.50000  0.20398   9.01
N009  3  0.52197  0.29277  0.58256 11.00000  0.14315   8.95
N00A  3  0.51566  0.25624  0.45133 11.00000  0.12717   8.92
O00B  4  0.53848  0.08512 -0.14339 11.00000  0.14434   8.63
N00C  3  0.47595  0.24407  0.77631 11.00000  0.11375   8.01
N00D  3  0.53011  0.45542  1.23914 11.00000  0.11182   7.71
N00E  3  0.50757  0.17722  0.27740 11.00000  0.18212   7.24
N00F  3  0.49634  0.16380  0.41870 11.00000  0.19465   6.54
C00G  1  0.48724  0.42101  1.31548 11.00000  0.17508   6.47
C00H  1  0.47402  0.20315  0.68623 11.00000  0.13444   6.11
C00I  1  0.48094  0.23697  0.94332 11.00000  0.16777   5.77
C00J  1  0.46679  0.08609  0.13979 11.00000  0.07280   5.74
C00K  1  0.50235  0.04597 -0.12041 11.00000  0.13169   5.53
C00L  1  0.49638  0.21056  0.48138 11.00000  0.14315   5.49
C00M  1  0.49574  0.11447  0.11456 11.00000  0.13565   4.86
C00N  1  0.48320  0.23454  0.60695 11.00000  0.20897   4.78
C00O  1  0.46415  0.06571  0.00652 11.00000  0.11422   4.64
C00P  1  0.44431  0.09825  0.24856 11.00000  0.18847   4.53
O00Q  4  0.54848  0.26085  0.27737 11.00000  0.20666   4.12
O00R  4  0.40553  0.32821  0.64842 11.00000  0.23510   3.94
C00S  1  0.47838  0.33025  1.03478 11.00000  0.14836   3.70
C00T  1  0.65163  0.22228  0.74814 11.00000  0.16575   3.66
C00U  1  0.50000  0.00000 -0.25000 10.25000  0.12393   3.51
C00V  1  0.64295  0.18572  0.62871 11.00000  0.28369   3.45
C00W  1  0.67107  0.25450  0.62821 11.00000  0.23635   3.40
N00X  3  0.53840  0.38685  0.79958 11.00000  0.23457   3.01
C00Y  1  0.39346  0.34118  0.82977 11.00000  0.22657   3.00
HKLF 4
END
