TITL 0620_expF_1_3_expS_1_0_0620_a.res in I4(1)
REM Old TITL 0620 in I4(1)/a
REM SHELXT solution in I4(1): R1 0.414, Rweak 0.042, Alpha 0.132
REM <I/s>   0.000 for    0 systematic absences,  Orientation as input
REM Flack x = -9.990 ( 9.990 ) from    89 Parsons' quotients
REM Formula found by SHELXT:  C35 N8 O14

CELL  0.71073  26.6550  26.6550   7.5900   90.000   90.000   90.000
ZERR  108.000   0.0038   0.0038   0.0015    0.000    0.000    0.000
LATT -2
SYMM 1/2-X, 1/2-Y, 1/2+Z
SYMM -Y, 1/2+X, 1/4+Z
SYMM 1/2+Y, -X, 3/4+Z
SFAC C H N O
UNIT 108 108 108 108
L.S. 10
BOND
LIST 6
FMAP 2
PLAN 20
O001  4  0.96782  0.58681  1.06350 11.00000  0.24896  10.62
O002  4  0.87289  0.54935  0.42805 11.00000  0.26767  10.28
N003  3  1.00299  0.62492  1.03639 11.00000  0.23094   9.65
O004  4  0.90769  0.54348  0.56358 11.00000  0.24111   8.75
O005  4  0.96743  0.55456  0.93332 11.00000  0.23960   8.28
N006  3  0.73885  0.52654 -0.02385 11.00000  0.23153   8.13
O007  4  0.69932  0.53055 -0.16503 11.00000  0.26026   7.86
C008  1  0.99505  0.54434  0.79989 11.00000  0.19455   7.09
N009  3  0.95771  0.51154  0.54133 11.00000  0.20977   6.88
C00A  1  1.00000  0.50000  0.66614 10.50000  0.25505   6.20
C00B  1  1.04476  0.61590  0.90475 11.00000  0.21172   6.02
C00C  1  0.74636  0.54683  0.13277 11.00000  0.21750   5.87
C00D  1  0.87255  0.51124  0.33153 11.00000  0.23351   5.81
C00E  1  1.03080  0.58185  0.77772 11.00000  0.20641   5.80
C00F  1  0.75683  0.46616 -0.32199 11.00000  0.26360   5.44
C00G  1  0.71413  0.50652 -0.33350 11.00000  0.30983   5.43
C00H  1  0.84091  0.52687  0.21074 11.00000  0.20144   5.42
C00I  1  0.82647  0.50415  0.10730 11.00000  0.20248   5.25
O00J  4  0.75732  0.46107 -0.53172 11.00000  0.35411   4.75
C00K  1  0.85530  0.74712  1.39104 11.00000  0.28750   4.67
C00L  1  0.91349  0.47177  0.26355 11.00000  0.22393   4.51
C00M  1  0.84623  0.60325  0.83859 11.00000  0.26721   4.39
N00N  3  0.85177  0.72304  1.18528 11.00000  0.33240   4.37
C00O  1  0.78897  0.49890 -0.08253 11.00000  0.24767   4.37
C00P  1  0.84489  0.67107  1.04449 11.00000  0.33073   4.34
C00Q  1  0.95873  0.46401  0.39994 11.00000  0.20200   4.31
C00R  1  0.85090  0.76556  1.53172 11.00000  0.34175   4.00
C00S  1  0.85551  0.70502  1.29510 11.00000  0.34909   3.81
O00T  4  0.85388  0.48662 -0.02795 11.00000  0.32415   3.68
HKLF 4
END
