TITL 0620_expF_1_5_expS_1_0_0620_b.res in I4(1)
REM Old TITL 0620 in I4(1)/a
REM SHELXT solution in I4(1): R1 0.552, Rweak 0.311, Alpha 0.288
REM <I/s>   0.000 for    0 systematic absences,  Orientation as input
REM Flack x = -9.990 ( 9.990 ) from    94 Parsons' quotients
REM Formula found by SHELXT:  C30 N26 O5

CELL  0.71073  26.6550  26.6550   7.5900   90.000   90.000   90.000
ZERR  108.000   0.0038   0.0038   0.0015    0.000    0.000    0.000
LATT -2
SYMM 1/2-X, 1/2-Y, 1/2+Z
SYMM -Y, 1/2+X, 1/4+Z
SYMM 1/2+Y, -X, 3/4+Z
SFAC C H N O
UNIT 108 108 108 108
L.S. 10
BOND
LIST 6
FMAP 2
PLAN 20
O001  4  0.41271  0.49056  1.08414 11.00000  0.32245  11.15
O002  4  0.50000  0.50000  0.66391 10.50000  0.31936  10.31
N003  3  0.36618  0.51410  1.01059 11.00000  0.32686  10.01
N004  3  0.47148  0.51458  0.82505 11.00000  0.26621   9.03
N005  3  0.50431  0.22828 -0.15031 11.00000  0.33285   8.61
N006  3  0.49388  0.38802  0.35483 11.00000  0.27056   8.21
N007  3  0.41944  0.53398  0.78307 11.00000  0.25078   7.62
N008  3  0.43571  0.19266  0.06199 11.00000  0.50953   7.10
N009  3  0.46331  0.40663  0.54980 11.00000  0.31059   7.06
N00A  3  0.49264  0.44951  0.58301 11.00000  0.32782   6.98
C00B  1  0.47357  0.24603 -0.06488 11.00000  0.25065   6.94
N00C  3  0.40789  0.46671  1.32650 11.00000  0.31793   6.94
C00D  1  0.43041  0.47979  0.91179 11.00000  0.28898   6.33
C00E  1  0.52519  0.25737 -0.32650 11.00000  0.20315   6.19
C00F  1  0.50006  0.27765 -0.21887 11.00000  0.30707   5.66
N00G  3  0.49348  0.29933 -0.04541 11.00000  0.31998   5.63
C00H  1  0.34933  0.50322  1.17271 11.00000  0.41840   5.23
C00I  1  0.33838  0.29694  1.03205 11.00000  0.33233   5.16
C00J  1  0.46709  0.32675  0.13430 11.00000  0.31253   5.15
C00K  1  0.45770  0.35499  0.16536 11.00000  0.41928   4.41
C00L  1  0.45069  0.13514 -0.03710 11.00000  0.45170   4.34
C00M  1  0.54836  0.40810  0.66817 11.00000  0.21125   4.20
C00N  1  0.52780  0.37583 -0.02691 11.00000  0.25891   4.02
C00O  1  0.53125  0.40211  0.11876 11.00000  0.28380   3.94
O00P  4  0.38885  0.23191  0.49246 11.00000  0.41159   3.76
C00Q  1  0.36711  0.34453  0.81742 11.00000  0.26673   3.74
N00R  3  0.35372  0.27352  0.67979 11.00000  0.28628   3.55
C00S  1  0.50024  0.36462  0.21041 11.00000  0.24826   3.26
N00T  3  0.32777  0.63707  1.23861 11.00000  0.44726   3.17
N00U  3  0.27277  0.66464  0.76900 11.00000  0.51194   3.01
C00V  1  0.40945  0.26676  0.35284 11.00000  0.37166   3.00
HKLF 4
END
