TITL 0620_expF_1_2_expS_0_7_0620_a.res in I-4
REM Old TITL 0620 in I4(1)/a
REM SHELXT solution in I-4: R1 0.371, Rweak 0.022, Alpha 0.174
REM <I/s>   0.000 for    0 systematic absences,  Orientation as input
REM Flack x = -9.243 ( 9.990 ) from   125 Parsons' quotients
REM Formula found by SHELXT:  C41 N12 O6

CELL  0.71073  26.6550  26.6550   7.5900   90.000   90.000   90.000
ZERR  108.000   0.0038   0.0038   0.0015    0.000    0.000    0.000
LATT -2
SYMM -X, -Y, Z
SYMM Y, -X, -Z
SYMM -Y, X, -Z
SFAC C H N O
UNIT 108 108 108 108
L.S. 10
BOND
LIST 6
FMAP 2
PLAN 20
N001  3  0.54685  0.62238 -0.23622 11.00000  0.27248   9.71
N002  3  0.47004  0.59203 -0.10513 11.00000  0.22252   8.90
N003  3  0.53732  0.58720 -0.38677 11.00000  0.23289   7.86
C004  1  0.50876  0.62204 -0.13237 11.00000  0.20350   7.34
N005  3  0.50014  0.54417 -0.39490 11.00000  0.27512   7.23
N006  3  0.49208  0.70533  0.25336 11.00000  0.29331   7.05
C007  1  0.53260  0.75508  0.18026 11.00000  0.21672   6.55
C008  1  0.50000  1.00000  1.25000 10.25000  0.14652   6.38
C009  1  0.52795  0.79869  0.32038 11.00000  0.25098   6.21
C00A  1  0.46056  0.55069 -0.25294 11.00000  0.22425   6.14
C00B  1  0.52982  0.91170  0.85189 11.00000  0.20633   6.11
C00C  1  0.46147  0.92097  1.15948 11.00000  0.13829   5.88
C00D  1  0.53359  0.95090  0.98693 11.00000  0.17412   5.78
C00E  1  0.47528  0.73773  0.53014 11.00000  0.20988   5.50
C00F  1  0.47310  0.86845  0.93678 11.00000  0.23949   5.33
C00G  1  0.54419  0.76088  0.01579 11.00000  0.22035   5.11
C00H  1  0.49126  0.96213  1.12108 11.00000  0.13106   5.03
C00I  1  0.49036  0.66389  0.15847 11.00000  0.24001   4.77
C00J  1  0.47663  0.82467  0.76406 11.00000  0.23295   4.71
C00K  1  0.50000  0.50000 -0.50000 10.25000  0.21269   4.41
C00L  1  0.52063  0.66646 -0.01340 11.00000  0.24021   4.27
C00M  1  0.50362  0.83585  0.65341 11.00000  0.28640   4.05
N00N  3  0.54149  0.86980  0.53286 11.00000  0.36797   3.95
C00O  1  0.47020  0.70982  0.40619 11.00000  0.22136   3.92
O00P  4  0.44574  0.59935  0.04597 11.00000  0.48824   3.87
O00Q  4  0.45142  0.73776  0.69491 11.00000  0.34237   3.76
C00R  1  0.45621  0.88762  1.03380 11.00000  0.16426   3.36
O00S  4  0.33774  0.63188 -0.34450 11.00000  0.52080   3.27
C00T  1  0.34605  0.65314 -0.13879 11.00000  0.32112   3.08
C00U  1  0.50314  0.88259  0.84743 11.00000  0.26321   3.05
C00V  1  0.49876  0.78807  0.48561 11.00000  0.22025   3.01
HKLF 4
END
