TITL 0620_expF_1_0_expS_0_7_0620_a.res in I4(1)
REM Old TITL 0620 in I4(1)/a
REM SHELXT solution in I4(1): R1 0.355, Rweak 0.102, Alpha 0.209
REM <I/s>   0.000 for    0 systematic absences,  Orientation as input
REM Flack x = -5.551 ( 9.990 ) from   138 Parsons' quotients
REM Formula found by SHELXT:  C29 N16 O8

CELL  0.71073  26.6550  26.6550   7.5900   90.000   90.000   90.000
ZERR  108.000   0.0038   0.0038   0.0015    0.000    0.000    0.000
LATT -2
SYMM 1/2-X, 1/2-Y, 1/2+Z
SYMM -Y, 1/2+X, 1/4+Z
SYMM 1/2+Y, -X, 3/4+Z
SFAC C H N O
UNIT 108 108 108 108
L.S. 10
BOND
LIST 6
FMAP 2
PLAN 20
N001  3  0.40961 -0.03103 -0.27010 11.00000  0.18936  10.48
N002  3  0.54360  0.12249  0.39096 11.00000  0.16669   9.69
N003  3  0.38521  0.00371 -0.20574 11.00000  0.18888   8.83
N004  3  0.45541 -0.03634 -0.10143 11.00000  0.16091   8.58
O005  4  0.52997  0.29795  0.97502 11.00000  0.24393   8.26
N006  3  0.54147  0.08855  0.26173 11.00000  0.12385   7.85
N007  3  0.42248  0.03604  0.05404 11.00000  0.18474   7.35
N008  3  0.52356  0.16890  0.63531 11.00000  0.26393   7.27
C009  1  0.45637 -0.00034  0.02300 11.00000  0.13504   7.26
C00A  1  0.50948  0.04818  0.28395 11.00000  0.12259   6.70
C00B  1  0.53291  0.25995  0.84686 11.00000  0.12977   6.52
C00C  1  0.48627  0.23890  1.19917 11.00000  0.18210   6.21
C00D  1  0.38385  0.03605 -0.07852 11.00000  0.13611   6.14
C00E  1  0.46871  0.09140  0.53316 11.00000  0.12861   6.13
C00F  1  0.50274  0.27607  1.15470 11.00000  0.24593   6.12
C00G  1  0.48830  0.16170  0.80098 11.00000  0.18977   5.65
O00H  4  0.54012  0.26460  0.67943 11.00000  0.27355   5.46
C00I  1  0.50000  0.00000  0.15061 10.50000  0.19416   5.41
C00J  1  0.50673  0.12876  0.51659 11.00000  0.14432   5.27
C00K  1  0.46907  0.05728  0.41235 11.00000  0.15778   4.69
C00L  1  0.50485  0.20894  0.89324 11.00000  0.17560   4.46
C00M  1  0.48026  0.20936  1.05902 11.00000  0.18676   3.84
O00N  4  0.45534  0.24820  1.35948 11.00000  0.28121   3.79
N00O  3  0.52862  0.29755  1.14418 11.00000  0.32855   3.70
O00P  4  0.54271  0.34323  0.92603 11.00000  0.42438   3.47
C00Q  1  0.33026  0.00298 -0.35948 11.00000  0.21080   3.35
C00R  1  0.46519  0.13317  0.95314 11.00000  0.24670   3.04
HKLF 4
END
