TITL 0620_expF_1_0_expS_0_7_0620_b.res in I-4
REM Old TITL 0620 in I4(1)/a
REM SHELXT solution in I-4: R1 0.383, Rweak 0.129, Alpha 0.222
REM <I/s>   0.000 for    0 systematic absences,  Orientation as input
REM Flack x = -9.990 ( 9.990 ) from   134 Parsons' quotients
REM Formula found by SHELXT:  C56 N41 O4

CELL  0.71073  26.6550  26.6550   7.5900   90.000   90.000   90.000
ZERR  108.000   0.0038   0.0038   0.0015    0.000    0.000    0.000
LATT -2
SYMM -X, -Y, Z
SYMM Y, -X, -Z
SYMM -Y, X, -Z
SFAC C H N O
UNIT 108 108 108 108
L.S. 10
BOND
LIST 6
FMAP 2
PLAN 20
N001  3  0.53552  0.61568  1.25837 11.00000  0.20127   8.49
N002  3  0.47639  0.58522  1.10437 11.00000  0.16854   8.26
N003  3  0.54215  0.58355  1.40267 11.00000  0.16702   7.56
C004  1  0.50753  0.90818  0.12248 11.00000  0.24152   7.13
N005  3  0.54191  0.91781  0.17542 11.00000  0.30913   7.04
N006  3  0.50000  1.00000 -0.25000 10.25000  0.13102   6.79
N007  3  0.47084  0.90855 -0.13816 11.00000  0.23866   6.77
C008  1  0.51010  0.54493  1.37904 11.00000  0.15067   6.76
N009  3  0.50006  0.70824  0.76499 11.00000  0.15783   6.64
C00A  1  0.44410  0.87755 -0.02993 11.00000  0.17028   6.58
N00B  3  0.47122  0.74294  0.48738 11.00000  0.21318   6.55
C00C  1  0.53888  0.94377  0.01644 11.00000  0.13987   6.47
C00D  1  0.46851  0.55700  1.23004 11.00000  0.15016   5.76
N00E  3  0.49819  0.62018  1.14427 11.00000  0.18079   5.72
C00F  1  0.50251  0.94833 -0.09921 11.00000  0.14522   5.67
C00G  1  0.48795  0.71520  0.61112 11.00000  0.20904   5.62
C00H  1  0.52702  0.80142  0.68720 11.00000  0.22157   5.37
C00I  1  0.51135  0.76089  0.77872 11.00000  0.25793   5.27
C00J  1  0.48627  0.81524  0.25057 11.00000  0.18863   5.06
C00K  1  0.54633  0.75659  0.95830 11.00000  0.20375   4.90
C00L  1  0.49714  0.66496  0.88664 11.00000  0.21464   4.83
C00M  1  0.51283  0.65851  1.02689 11.00000  0.14719   4.05
O00N  4  0.45973  0.75489  0.32153 11.00000  0.35291   3.79
N00O  3  0.48724  0.87369  0.09655 11.00000  0.21710   3.71
C00P  1  0.50809  0.77645  0.53092 11.00000  0.26166   3.19
N00Q  3  0.49793  0.82529  0.39898 11.00000  0.24930   3.17
HKLF 4
END
