TITL 0620_expF_1_2_expS_0_7_0620_b.res in I4(1)
REM Old TITL 0620 in I4(1)/a
REM SHELXT solution in I4(1): R1 0.373, Rweak 0.020, Alpha 0.189
REM <I/s>   0.000 for    0 systematic absences,  Orientation as input
REM Flack x = -9.990 ( 9.990 ) from   123 Parsons' quotients
REM Formula found by SHELXT:  C31 N18 O8

CELL  0.71073  26.6550  26.6550   7.5900   90.000   90.000   90.000
ZERR  108.000   0.0038   0.0038   0.0015    0.000    0.000    0.000
LATT -2
SYMM 1/2-X, 1/2-Y, 1/2+Z
SYMM -Y, 1/2+X, 1/4+Z
SYMM 1/2+Y, -X, 3/4+Z
SFAC C H N O
UNIT 108 108 108 108
L.S. 10
BOND
LIST 6
FMAP 2
PLAN 20
N001  3  0.54527  0.61236  0.27812 11.00000  0.20888   9.40
N002  3  0.74708  0.52638  1.56101 11.00000  0.21910   8.67
O003  4  0.59095  0.52915  0.87081 11.00000  0.30789   8.23
N004  3  0.53939  0.58482  0.40171 11.00000  0.16324   7.62
N005  3  0.54427  0.53467  0.76585 11.00000  0.18738   7.57
N006  3  0.54454  0.49817  0.63297 11.00000  0.17805   7.17
C007  1  0.57515  0.46061  0.57861 11.00000  0.17449   7.09
C008  1  0.47371  0.58952  0.11198 11.00000  0.12163   7.08
C009  1  0.62275  0.48944  0.85656 11.00000  0.20137   6.77
N00A  3  0.47063  0.70973 -0.25236 11.00000  0.32473   6.61
N00B  3  0.51331  0.62624  0.15452 11.00000  0.24754   6.58
C00C  1  0.51327  0.53954  0.37816 11.00000  0.15826   5.86
C00D  1  0.63411  0.45750  0.76082 11.00000  0.22894   5.38
O00E  4  0.74655  0.54990  1.71780 11.00000  0.24377   5.31
C00F  1  0.67362  0.47725  0.98476 11.00000  0.25062   5.11
C00G  1  0.50000  0.50000  0.51143 10.50000  0.15543   5.06
C00H  1  0.66716  0.50517  1.12931 11.00000  0.22315   5.05
C00I  1  0.46482  0.55448  0.24995 11.00000  0.17729   4.61
C00J  1  0.51617  0.67040  0.00732 11.00000  0.17000   4.53
N00K  3  0.60402  0.46820  0.69714 11.00000  0.32417   4.49
C00L  1  0.70714  0.49741  1.24836 11.00000  0.13548   4.19
O00M  4  0.45595  0.72877 -0.71780 11.00000  0.30074   4.18
C00N  1  0.48010  0.70784 -0.41330 11.00000  0.27874   4.04
C00O  1  0.70534  0.51714  1.40196 11.00000  0.18522   3.85
C00P  1  0.46919  0.73677 -0.54515 11.00000  0.23677   3.77
C00Q  1  0.62860  0.53660  1.21135 11.00000  0.24852   3.54
C00R  1  0.48831  0.65993 -0.14207 11.00000  0.22442   3.32
N00S  3  0.75735  0.63258  1.24847 11.00000  0.44476   3.26
O00T  4  0.45258  0.59194 -0.01345 11.00000  0.47094   3.22
HKLF 4
END
