TITL 0620_expF_1_3_expS_1_5_0620_a.res in I4(1)
REM Old TITL 0620 in I4(1)/a
REM SHELXT solution in I4(1): R1 0.534, Rweak 0.166, Alpha 0.198
REM <I/s>   0.000 for    0 systematic absences,  Orientation as input
REM Flack x = -9.990 ( 9.990 ) from    73 Parsons' quotients
REM Formula found by SHELXT:  C43 N6 O2

CELL  0.71073  26.6550  26.6550   7.5900   90.000   90.000   90.000
ZERR  108.000   0.0038   0.0038   0.0015    0.000    0.000    0.000
LATT -2
SYMM 1/2-X, 1/2-Y, 1/2+Z
SYMM -Y, 1/2+X, 1/4+Z
SYMM 1/2+Y, -X, 3/4+Z
SFAC C H N O
UNIT 108 108 108 108
L.S. 10
BOND
LIST 6
FMAP 2
PLAN 20
C001  1  0.52807  0.41333 -0.30415 11.00000  0.13752   8.03
N002  3  0.53072  0.44644 -0.18729 11.00000  0.21055   7.13
N003  3  0.63045  0.43936  0.29207 11.00000  0.26616   7.12
N004  3  0.63006  0.48387  0.43325 11.00000  0.22937   6.66
C005  1  0.58275  0.46317  0.16600 11.00000  0.16692   6.32
C006  1  0.49596  0.45114 -0.04541 11.00000  0.15464   6.18
C007  1  0.45499  0.41136 -0.04828 11.00000  0.13644   6.16
C008  1  0.58723  0.51219  0.45180 11.00000  0.17813   5.75
C009  1  0.70493  0.49958  0.82914 11.00000  0.17323   5.57
C00A  1  0.54046  0.49488  0.20600 11.00000  0.14309   5.54
C00B  1  0.45663  0.38382 -0.18268 11.00000  0.10748   5.49
C00C  1  0.76026  0.46331  0.79104 11.00000  0.19669   5.40
C00D  1  0.74511  0.51808  1.10392 11.00000  0.15571   5.22
C00E  1  0.50000  0.50000  0.08907 10.50000  0.15534   5.16
C00F  1  0.49132  0.37900 -0.29320 11.00000  0.12848   4.90
C00G  1  0.79045  0.47070  0.87833 11.00000  0.23890   4.76
C00H  1  0.71195  0.52388  0.97102 11.00000  0.16805   4.63
C00I  1  0.82706  0.50276  1.30415 11.00000  0.22555   4.37
C00J  1  0.75033  0.54404  1.28030 11.00000  0.21455   4.34
C00K  1  0.83396  0.49054  1.14225 11.00000  0.20155   3.93
C00L  1  0.78462  0.49374  1.06367 11.00000  0.22500   3.83
C00M  1  0.66405  0.48445  0.57133 11.00000  0.15509   3.81
C00N  1  0.65617  0.49827  0.72078 11.00000  0.18375   3.70
C00O  1  0.50248  0.37747 -0.13473 11.00000  0.24423   3.25
O00P  4  0.76222  0.44835  0.62170 11.00000  0.31994   3.11
C00Q  1  0.55360  0.53748  0.31304 11.00000  0.18289   3.07
HKLF 4
END
