TITL 11_a.res in P1
REM Old TITL 11 in P1
REM SHELXT solution in P1: R1 0.345, Rweak 0.437, Alpha 0.000
REM <I/s>   0.000 for    0 systematic absences,  Orientation as input
REM Flack x =  0.380 ( 0.369 ) from   405 Parsons' quotients
REM Formula found by SHELXT:  C42 N22 O16 Cl5

CELL  0.71073   4.8700  11.6300  19.7100   90.000   84.080   90.000
ZERR   15.000   0.0010   0.0023   0.0039    0.030    0.030    0.030
LATT -1
SFAC C N O CL
UNIT 15 15 15 15
L.S. 10
BOND
LIST 6
FMAP 2
PLAN 20
CL01  4  0.60865 -0.14396  0.86667 11.00000  0.04744  19.18
CL02  4  0.44001 -0.21585  0.85245 11.00000  0.05658  16.37
CL03  4  1.09764 -0.35588  0.70755 11.00000  0.08480  16.00
CL04  4 -0.80095  1.35588  0.22871 11.00000  0.07489  15.61
CL05  4  0.60678 -0.17702  0.79465 11.00000  0.07816  13.94
C006  1  0.23948  1.15977  0.47726 11.00000  0.01728  13.18
N007  2  0.57164  0.41501  0.75086 11.00000  0.03332  11.78
O008  3  0.90547 -0.02068  0.89440 11.00000  0.01482  11.76
N009  2  0.75397 -0.08144  0.81145 11.00000  0.00010  11.55
O00A  3 -0.46974  1.20169  0.25386 11.00000  0.02844  11.50
N00B  2 -0.44151  0.79985  0.11402 11.00000  0.00010  10.96
O00C  3  0.63122  0.66365  0.44660 11.00000  0.07155  10.17
O00D  3  0.38110  0.46678  0.32087 11.00000  0.03070   9.93
O00E  3 -0.82147  0.78716  0.38173 11.00000  0.06331   9.92
N00F  2  0.61224 -0.23413  0.85374 11.00000  0.03736   9.79
N00G  2 -0.29758  0.72269  0.12788 11.00000  0.02669   9.38
O00H  3 -0.85633  0.82889  0.29455 11.00000  0.08188   9.31
O00I  3  0.24442 -0.28118  0.87766 11.00000  0.05127   9.20
N00J  2  0.49479  0.45228  0.70015 11.00000  0.02538   9.08
N00K  2 -0.53413  0.88950  0.10089 11.00000  0.01105   9.04
O00L  3  0.45993  0.51072  0.64418 11.00000  0.01710   8.98
O00M  3  0.01078  0.59632  0.32541 11.00000  0.03891   8.84
O00N  3  0.30114 -0.27268  0.93764 11.00000  0.04655   8.78
O00O  3  0.06260  0.22561  0.84869 11.00000  0.05272   8.66
N00P  2  0.34584  0.08915  0.82729 11.00000  0.02340   8.58
O00Q  3  0.51802  0.43113  0.26704 11.00000  0.05896   8.23
O00R  3  0.19354  0.54836  0.26730 11.00000  0.07581   8.20
O00S  3 -0.63165  1.26995  0.24992 11.00000  0.05447   8.19
N00T  2  0.79177  0.34945  0.76904 11.00000  0.02118   8.10
N00U  2  0.73266 -0.09245  0.92010 11.00000  0.01465   7.96
C00V  1 -0.64188  0.91584  0.13900 11.00000  0.01378   7.71
N00W  2  1.43700  0.50876  0.83385 11.00000  0.04376   7.65
C00X  1  0.11194  0.06324  0.82293 11.00000  0.02939   7.49
N00Y  2  1.68206  0.40906  0.92781 11.00000  0.03836   7.37
N00Z  2 -0.31525  0.60308  0.13405 11.00000  0.05196   7.31
N010  2  0.69690  0.15833  0.75637 11.00000  0.12200   7.23
N011  2 -0.20839  0.68335  0.27659 11.00000  0.01586   7.15
N012  2 -0.85820  1.03148  0.25172 11.00000  0.03163   7.14
N013  2 -0.04379  0.72157  0.51945 11.00000  0.02956   7.10
O014  3 -0.05273  0.68795  0.02734 11.00000  0.06788   6.98
N015  2 -0.36184  0.81330  0.29174 11.00000  0.07538   6.87
N016  2  0.68154  0.08856  0.89491 11.00000  0.05756   6.80
N017  2  0.53423  0.39213  0.46747 11.00000  0.01650   6.59
N018  2  0.41880 -0.15392  0.94067 11.00000  0.02169   6.57
N019  2  2.14820  0.25043  0.99069 11.00000  0.06640   6.54
C01A  1  0.44016  0.68678  0.54636 11.00000  0.01546   6.48
C01B  1  0.85955 -0.04892  0.99874 11.00000  0.01617   6.42
C01C  1  0.29823  0.49244  0.14616 11.00000  0.03817   6.20
C01D  1  0.41140  0.23481  0.75355 11.00000  0.00761   6.08
C01E  1 -1.14820  1.30951  0.33308 11.00000  0.04703   6.06
C01F  1  0.73597  0.59813  0.57972 11.00000  0.01214   5.98
O01G  3 -0.02490  1.17543  0.49046 11.00000  0.16522   5.95
C01H  1  1.10932  0.52037  0.79781 11.00000  0.02864   5.82
C01I  1 -0.53365  1.31272  0.14605 11.00000  0.02490   5.80
C01J  1  0.70407  0.11800  1.00226 11.00000  0.02673   5.78
C01K  1  0.47611  0.86227  0.47101 11.00000  0.06946   5.61
C01L  1  0.30693  0.40210  0.38492 11.00000  0.00803   5.51
C01M  1  0.28598  1.04566  0.53732 11.00000  0.02322   5.47
C01N  1 -0.54575  0.81477  0.21766 11.00000  0.07191   5.41
C01O  1 -0.12297  0.51718  0.24156 11.00000  0.01720   5.32
C01P  1  0.63049  0.36551  0.67982 11.00000  0.03948   5.23
C01Q  1  1.42504  0.40585  0.87447 11.00000  0.09068   5.22
C01R  1  0.89992 -0.28804  0.73659 11.00000  0.01121   5.20
C01S  1  0.05076  0.58460 -0.00226 11.00000  0.06435   5.09
C01T  1  0.15790  1.06419  0.68724 11.00000  0.02268   5.06
C01U  1  0.08243  0.64232  0.11143 11.00000  0.00230   5.02
C01V  1 -0.51271  1.02104  0.32207 11.00000  0.02219   4.90
C01W  1 -0.30715  1.11876  0.20883 11.00000  0.00912   4.85
C01X  1  0.37019  0.19981  0.81873 11.00000  0.01860   4.71
C01Y  1 -0.21869  1.03816  0.62002 11.00000  0.05645   4.66
C01Z  1  0.15165  0.44346  0.44985 11.00000  0.02656   4.34
C020  1  1.02894  0.41182  0.74083 11.00000  0.04066   4.09
C021  1  1.25775  0.44912  0.78467 11.00000  0.02603   4.06
C022  1 -0.12461  0.68351  0.31512 11.00000  0.04731   4.00
C023  1  1.84216  0.38554  0.97101 11.00000  0.05924   3.88
C024  1  0.12354  0.75443  0.58236 11.00000  0.04179   3.83
C025  1  0.75547  0.04832  0.80877 11.00000  0.03153   3.76
C026  1 -1.02533  0.91468  0.46375 11.00000  0.07782   3.74
C027  1 -0.50795  1.04611  0.27055 11.00000  0.03551   3.71
C028  1 -0.03382  0.93850  0.64388 11.00000  0.02702   3.44
C029  1  0.95377  0.46602  0.84224 11.00000  0.03974   3.42
C02A  1 -0.68953  0.96981  0.21522 11.00000  0.00317   3.33
C02B  1  0.82909  0.30545  0.71404 11.00000  0.04702   3.28
C02C  1  0.80681  0.45324  0.54916 11.00000  0.05720   3.26
C02D  1 -1.11124  1.13224  0.33550 11.00000  0.02164   3.07
HKLF 4
END
