TITL 12_a.res in P1
REM Old TITL 12 in P1
REM SHELXT solution in P1: R1 0.351, Rweak 0.421, Alpha 0.000
REM <I/s>   0.000 for    0 systematic absences,  Orientation as input
REM Flack x =  0.243 ( 0.393 ) from   444 Parsons' quotients
REM Formula found by SHELXT:  C43 N14 O29 Cl7

CELL  0.71073   4.8700  11.6100  19.6600   90.000   83.810   90.000
ZERR   15.000   0.0010   0.0023   0.0039    0.030    0.030    0.030
LATT -1
SFAC C N O CL
UNIT 15 15 15 15
L.S. 10
BOND
LIST 6
FMAP 2
PLAN 20
CL01  4  0.20478  0.09909  0.69198 11.00000  0.07290  16.40
CL02  4  0.53871  0.25274  0.68563 11.00000  0.04835  15.52
CL03  4  0.33368  0.19077  0.69914 11.00000  0.06340  14.75
CL04  4  0.06816 -0.06122  0.44085 11.00000  0.08977  14.70
CL05  4  0.47937  0.01459  0.32280 11.00000  0.08693  12.77
N006  2  0.61836  0.28157  0.30615 11.00000  0.00010  11.88
CL07  4  0.15152 -0.02452  0.91998 11.00000  0.07987  11.18
N008  2  1.23633  0.80939  0.23129 11.00000  0.07495  10.94
O009  3 -0.10138 -0.24351  0.35669 11.00000  0.02088  10.91
CL0A  4 -0.19064 -0.41381  0.66268 11.00000  0.09422  10.66
N00B  2  0.22751 -0.11526  0.36013 11.00000  0.04635  10.61
O00C  3  0.43180  0.05236  0.80044 11.00000  0.02128  10.52
O00D  3  0.26416  0.68150  0.89765 11.00000  0.04532  10.47
O00E  3  1.23626  1.26293  0.05636 11.00000  0.01830  10.44
O00F  3  0.71969  0.30394  0.42488 11.00000  0.04481  10.18
O00G  3  1.04074  0.48191  0.19393 11.00000  0.02968  10.12
O00H  3  0.43732 -0.18576  0.39137 11.00000  0.02581  10.10
O00I  3  0.74314  0.66671  0.16460 11.00000  0.06874   9.91
O00J  3  1.22179  0.85707  0.04793 11.00000  0.02629   9.82
O00K  3  0.48651  0.24049  0.36980 11.00000  0.02417   9.48
O00L  3  0.81221  0.24706  0.95760 11.00000  0.03068   9.40
O00M  3  1.09838  0.50835  0.38351 11.00000  0.04902   9.40
O00N  3  0.45324  0.62280  0.92913 11.00000  0.10876   9.35
O00O  3  0.73855  0.11843  0.23722 11.00000  0.02976   9.18
O00P  3  0.34287  0.13807  0.61210 11.00000  0.01928   9.18
O00Q  3  0.25143  0.09605  0.36466 11.00000  0.01767   8.84
N00R  2  1.32450  0.80222  0.14762 11.00000  0.02773   8.82
O00S  3  0.15783  0.64192  0.77938 11.00000  0.05904   8.66
C00T  1  0.30249  0.70958  0.80861 11.00000  0.01761   8.64
O00U  3 -0.29544 -0.30438  0.46054 11.00000  0.02053   8.63
N00V  2  1.08267  0.87407  0.17404 11.00000  0.02691   8.40
O00W  3  0.37112  0.00898  0.69931 11.00000  0.03095   8.37
O00X  3  0.90903  0.40279  0.46010 11.00000  0.08625   8.36
N00Y  2  0.73717  0.29435  0.32498 11.00000  0.03225   8.27
O00Z  3  0.09800 -0.03979  0.38643 11.00000  0.01728   8.13
O010  3  0.77922  0.18821  0.74363 11.00000  0.04227   8.02
C011  1  0.73266  0.56422  0.14650 11.00000  0.02917   7.86
O012  3  0.61609  0.48993  0.77176 11.00000  0.07154   7.82
O013  3 -0.12088 -0.13275  0.84355 11.00000  0.03900   7.78
C014  1  1.46863 -0.21124  0.55862 11.00000  0.02099   7.73
O015  3  0.50682 -0.33944  0.35771 11.00000  0.02441   7.71
C016  1  0.06727 -0.16990  0.32149 11.00000  0.02104   7.46
O017  3  1.25756  0.43692  0.14769 11.00000  0.02375   7.23
N018  2  0.57920  0.35370  0.21737 11.00000  0.04971   6.95
N019  2  0.43692  0.38094  0.32646 11.00000  0.01900   6.90
N01A  2 -0.11460 -0.02546  0.71576 11.00000  0.02873   6.82
N01B  2 -0.19167 -0.13542  0.45504 11.00000  0.01342   6.75
N01C  2  0.94494  0.94784  0.15662 11.00000  0.01826   6.71
N01D  2  0.59481  0.47123  0.36342 11.00000  0.03311   6.65
N01E  2  0.69104  0.51678  0.88433 11.00000  0.05008   6.57
C01F  1  1.07048  0.49600  0.26675 11.00000  0.02350   6.49
C01G  1  0.90717  0.38861  0.55689 11.00000  0.02240   6.47
C01H  1  0.70572  0.26258  0.23121 11.00000  0.04351   6.36
C01I  1  1.31749 -0.29441  0.59192 11.00000  0.01033   6.32
O01J  3  0.93902  1.23189  0.15834 11.00000  0.00478   6.30
C01K  1  1.26314  1.08010  0.15848 11.00000  0.03464   6.15
C01L  1  1.04219  0.55249  0.32148 11.00000  0.01562   6.13
C01M  1  1.25303  0.69322  0.23116 11.00000  0.03965   6.01
C01N  1  1.51431  1.31894  0.05465 11.00000  0.03209   5.92
C01O  1  1.08732  1.01165  0.08170 11.00000  0.00465   5.88
O01P  3  1.06228  0.28938  0.77604 11.00000  0.18240   5.84
C01Q  1  0.46300  0.63012  0.82991 11.00000  0.02090   5.83
C01R  1 -0.13207 -0.37594  0.56048 11.00000  0.00384   5.83
C01S  1  0.93081  0.38185  0.36965 11.00000  0.01584   5.80
C01T  1  0.91932  0.27568  0.89953 11.00000  0.04883   5.72
C01U  1  1.41573  0.94809  0.14417 11.00000  0.03504   5.51
N01V  2  1.24269  0.17698  0.46566 11.00000  0.03257   5.43
C01W  1 -0.14724 -0.02544  0.83002 11.00000  0.03234   5.40
C01X  1  0.54515  0.28068  0.73070 11.00000  0.06305   5.25
C01Y  1  0.56066  0.06709  0.26700 11.00000  0.01274   5.09
C01Z  1  0.01188 -0.04425  0.95865 11.00000  0.00524   5.03
C020  1  1.38255  0.56997  0.24018 11.00000  0.05703   5.00
C021  1  1.32700 -0.23801  0.64852 11.00000  0.03136   4.83
C022  1 -0.07817  0.02591  0.91011 11.00000  0.00860   4.79
C023  1  0.50877  0.45695  0.91043 11.00000  0.05180   4.74
C024  1  1.61625 -0.03443  0.57605 11.00000  0.05370   4.68
C025  1  0.53428  0.79688  0.74251 11.00000  0.02468   4.60
C026  1  1.19939  0.30374  0.46733 11.00000  0.04035   4.46
C027  1  0.61830  0.77683  0.98722 11.00000  0.02509   4.34
C028  1  1.62201  0.03384  0.44989 11.00000  0.01331   4.13
C029  1  1.07213  0.28267  0.25285 11.00000  0.02826   4.07
C02A  1  1.35247  0.79126  0.10048 11.00000  0.02100   3.94
C02B  1 -0.62201 -0.39402  0.48555 11.00000  0.00375   3.93
C02C  1  1.24867  0.92227  0.11660 11.00000  0.05519   3.93
O02D  3  1.29202 -0.15270  0.53170 11.00000  0.08999   3.77
C02E  1  0.89218  0.38438  0.83126 11.00000  0.02718   3.72
C02F  1  1.20790  1.10911  0.19363 11.00000  0.01927   3.65
C02G  1  1.27903  0.45993  0.26141 11.00000  0.08201   3.61
C02H  1  0.54346  0.28579  0.57960 11.00000  0.04054   3.28
C02I  1  1.08052  1.17251  0.14099 11.00000  0.03704   3.23
C02J  1  0.78647  0.33557  0.78250 11.00000  0.03220   3.14
C02K  1  1.55281  0.05719  0.49224 11.00000  0.01401   3.10
C02L  1  1.04561  1.41381  0.01278 11.00000  0.03751   3.10
HKLF 4
END
