TITL 13_a.res in P1
REM Old TITL 13 in P1
REM SHELXT solution in P1: R1 0.366, Rweak 0.532, Alpha 0.000
REM <I/s>   0.000 for    0 systematic absences,  Orientation as input
REM Flack x = -3.469 ( 5.478 ) from   187 Parsons' quotients
REM Formula found by SHELXT:  C47 N11 O13

CELL  0.71073   4.8700  11.6300  19.5700   90.000   83.370   90.000
ZERR   15.000   0.0010   0.0023   0.0039    0.030    0.030    0.030
LATT -1
SFAC C N O CL
UNIT 15 15 15 15
L.S. 10
BOND
LIST 6
FMAP 2
PLAN 20
N001  2  1.06292  0.26957  0.57282 11.00000  0.09727  11.90
O002  3  1.36145  0.51257  0.26329 11.00000  0.05262  11.52
O003  3  1.03200  0.33578  0.06470 11.00000  0.03941  11.17
N004  2  0.87952  0.23395  0.56281 11.00000  0.06796  10.34
C005  1  1.07122  0.12436  0.52470 11.00000  0.01703   9.95
O006  3  0.35498  0.72947  0.63287 11.00000  0.10111   9.61
C007  1  0.86281  0.16916  0.40833 11.00000  0.01393   9.42
O008  3  1.37864  0.23615  0.00612 11.00000  0.06930   9.38
O009  3  1.19926  0.06855  0.48003 11.00000  0.05697   8.92
N00A  2  0.97715  0.33287  0.54449 11.00000  0.08035   8.91
C00B  1 -0.47931  0.40979  0.94433 11.00000  0.05186   8.43
O00C  3  0.19641  0.51825  0.41515 11.00000  0.04605   8.33
O00D  3  0.74862  0.92469  0.69878 11.00000  0.09335   8.22
O00E  3  0.92323  0.28770  0.11237 11.00000  0.05533   8.21
O00F  3  0.44784  0.45277  0.72881 11.00000  0.12533   8.18
O00G  3 -0.28111  0.47702  0.88224 11.00000  0.08323   8.12
N00H  2  0.67541  0.29142  0.51821 11.00000  0.07688   8.12
O00I  3  0.72894  0.96280  0.76897 11.00000  0.06690   7.94
N00J  2  1.50463  0.61285  0.25856 11.00000  0.04093   7.93
C00K  1  0.45837  0.73910  0.68400 11.00000  0.06993   7.23
O00L  3  1.03974  0.11186  0.34923 11.00000  0.07918   7.12
N00M  2  0.04319  0.23137  0.85796 11.00000  0.03319   6.97
N00N  2 -0.41131  0.41143  0.87214 11.00000  0.08474   6.97
O00O  3 -0.64038  0.45008  0.98606 11.00000  0.08091   6.91
N00P  2  0.44056  0.42338  0.47627 11.00000  0.04186   6.89
C00Q  1  0.85485  0.22394  0.49498 11.00000  0.04184   6.84
N00R  2  0.24070  0.32547  0.73234 11.00000  0.09065   6.74
N00S  2 -0.01976  0.61189  0.85382 11.00000  0.04220   6.60
C00T  1 -0.02107  0.56420  0.78087 11.00000  0.04182   6.46
C00U  1  1.26444  0.16446  0.27238 11.00000  0.05588   6.30
C00V  1 -0.31636  0.90332  0.91060 11.00000  0.03595   6.27
C00W  1  1.73063  0.35445  0.24188 11.00000  0.03235   6.20
C00X  1 -0.59980  0.35945  0.86974 11.00000  0.09607   5.77
C00Y  1  1.50673  0.77458  0.39825 11.00000  0.04135   5.72
C00Z  1  0.35196  0.37141  0.38165 11.00000  0.12233   5.70
C010  1  0.58319  0.35072  0.51852 11.00000  0.06249   5.64
C011  1  1.21026  0.71454  0.15621 11.00000  0.09463   5.56
C012  1  0.73018  0.88442  0.62611 11.00000  0.05797   5.43
C013  1  1.22902  0.09786 -0.05750 11.00000  0.03610   5.42
C014  1  1.57532  0.00733  0.09275 11.00000  0.03709   5.40
C015  1  0.25972  0.69712  0.74251 11.00000  0.05504   5.39
C016  1  0.89205  0.47436  0.51231 11.00000  0.17355   5.31
C017  1  0.90027  0.96287  0.75248 11.00000  0.06607   5.31
C018  1 -0.44040  0.83821  0.89312 11.00000  0.06616   5.28
C019  1  1.30143 -0.07349  0.17137 11.00000  0.09203   5.27
C01A  1 -0.06918  0.66311  0.91797 11.00000  0.08328   5.22
C01B  1  1.44287  0.93521  0.35800 11.00000  0.08405   5.19
C01C  1  1.59252  0.76293  0.27438 11.00000  0.05961   4.94
C01D  1  0.39082  0.75387  0.53715 11.00000  0.08907   4.90
C01E  1  1.83069  0.50719  0.16293 11.00000  0.02135   4.54
N01F  2 -0.83069  0.89941  1.05750 11.00000  0.07698   4.48
C01G  1  1.01017  0.02200  0.22935 11.00000  0.04132   4.38
C01H  1  0.14444  0.79588  0.81477 11.00000  0.06758   4.38
C01I  1  1.81401  0.75593  0.37097 11.00000  0.04969   4.29
C01J  1  0.21107  0.70621  0.90780 11.00000  0.08462   4.20
C01K  1  1.57469  0.25574  0.22250 11.00000  0.03622   4.13
C01L  1  1.38449  0.69512  0.24751 11.00000  0.09025   4.08
C01M  1  1.06223  0.21180  0.17496 11.00000  0.09318   4.03
C01N  1  0.37803  1.07349  0.75852 11.00000  0.03645   3.94
C01O  1  0.67741  0.59096  0.64001 11.00000  0.03983   3.80
C01P  1  0.74728 -0.04541  0.18596 11.00000  0.06342   3.68
C01Q  1  1.54448  0.53717  0.27219 11.00000  0.08315   3.66
C01R  1  1.08736  0.50510  0.61359 11.00000  0.11176   3.44
C01S  1 -0.06055  0.78872  0.89021 11.00000  0.07950   3.42
C01T  1  1.22470  0.19731  0.62487 11.00000  0.06645   3.40
C01U  1 -0.12996  0.34378  0.84623 11.00000  0.05383   3.37
C01V  1  1.04308  0.07732  0.65075 11.00000  0.06874   3.30
C01W  1  0.52800  0.38247  0.41042 11.00000  0.11965   3.21
C01X  1  1.76085  0.67835  0.26882 11.00000  0.03824   3.15
C01Y  1  0.70476  0.52577  0.43130 11.00000  0.10947   3.12
C01Z  1 -0.72808  0.89265  0.94312 11.00000  0.06017   3.04
HKLF 4
END
