TITL 14_a.res in P1
REM Old TITL 14 in P1
REM SHELXT solution in P1: R1 0.349, Rweak 0.483, Alpha 0.000
REM <I/s>   0.000 for    0 systematic absences,  Orientation as input
REM Flack x =  0.406 ( 0.456 ) from   319 Parsons' quotients
REM Formula found by SHELXT:  C38 N13 O30 Cl6

CELL  0.71073   4.8700  11.6300  19.5300   90.000   83.910   90.000
ZERR   15.000   0.0010   0.0023   0.0039    0.030    0.030    0.030
LATT -1
SFAC C N O CL
UNIT 15 15 15 15
L.S. 10
BOND
LIST 6
FMAP 2
PLAN 20
CL01  4 -0.18204  1.71835  0.85900 11.00000  0.12748  15.36
CL02  4 -0.42208  0.88067  0.66765 11.00000  0.10208  15.23
O003  3  0.51007 -0.00816  0.34073 11.00000  0.03862  15.22
CL04  4  0.81422 -0.29896  0.37341 11.00000  0.12940  14.07
C005  1  0.76164  1.37509  0.71196 11.00000  0.01478  13.10
CL06  4 -0.05043  1.71472  0.81041 11.00000  0.11056  12.96
CL07  4  0.18378  0.65798  0.51911 11.00000  0.11114  12.54
O008  3  1.24288 -0.60551  0.21429 11.00000  0.05414  11.93
O009  3  0.28521  1.10292  0.81683 11.00000  0.02924  11.90
O00A  3 -0.31644  0.96037  0.80120 11.00000  0.03876  11.57
CL0B  4  1.19517 -0.35487  0.02600 11.00000  0.14041  11.34
O00C  3  0.98917 -0.36320  0.39196 11.00000  0.02269  11.09
O00D  3  0.66199 -0.56593  0.41500 11.00000  0.11384  11.01
O00E  3 -0.36958  0.78057  0.75509 11.00000  0.07982  10.95
O00F  3  0.30879  0.22675  0.62785 11.00000  0.06641  10.83
O00G  3  0.49220  1.50324  0.64635 11.00000  0.04596  10.77
N00H  2  0.62209  1.44845  0.78638 11.00000  0.07003  10.42
O00I  3  1.57179 -0.51183  0.12085 11.00000  0.04883  10.41
O00J  3  0.29782  0.14238  0.70836 11.00000  0.03686  10.27
O00K  3  0.60915  0.16906  0.49978 11.00000  0.04926  10.15
N00L  2  0.70851  1.38361  0.79849 11.00000  0.06537   9.94
O00M  3  0.14674  0.21126  0.43276 11.00000  0.09879   9.40
O00N  3 -0.58759  0.85339  0.86180 11.00000  0.04927   9.37
N00O  2 -0.48085  0.90630  0.77517 11.00000  0.04896   8.89
O00P  3  0.52172  1.50225  0.55061 11.00000  0.05708   8.83
C00Q  1  0.25332  0.44037  0.48886 11.00000  0.04816   8.71
C00R  1  0.60715 -0.01429  0.40509 11.00000  0.03633   8.69
O00S  3 -0.12247  0.85374  0.48964 11.00000  0.06728   8.69
O00T  3  0.30129  0.11388  0.63807 11.00000  0.01360   8.69
O00U  3  0.96405  1.32999  0.70474 11.00000  0.05869   8.61
O00V  3  0.32113  1.62013  0.74878 11.00000  0.06971   8.47
O00W  3  1.27377 -0.66750  0.11834 11.00000  0.06989   8.45
N00X  2  1.38506 -0.66169  0.17894 11.00000  0.03053   8.42
O00Y  3  0.14127  1.53897  0.70981 11.00000  0.10972   8.29
O00Z  3  0.07626  0.60458  0.58279 11.00000  0.03543   8.18
C010  1  0.67175  1.47294  0.69518 11.00000  0.02717   8.15
C011  1  0.31049  0.11227  0.45475 11.00000  0.06115   8.04
O012  3 -0.23126  0.95530  0.59201 11.00000  0.07069   7.96
C013  1  1.11860 -0.71806  0.24137 11.00000  0.04542   7.95
O014  3  1.68023 -0.56540  0.17859 11.00000  0.04837   7.83
O015  3  0.97777 -0.31633  0.21370 11.00000  0.05005   7.80
O016  3  0.50019  1.28049  0.86589 11.00000  0.03820   7.78
O017  3  0.94115  0.08639  0.27473 11.00000  0.03776   7.66
O018  3  0.88076 -0.71835  0.30861 11.00000  0.12195   7.64
C019  1  0.46272  1.33192  0.79591 11.00000  0.04743   7.39
N01A  2  1.33804 -0.21767  0.15659 11.00000  0.09168   7.38
N01B  2  0.02227  0.98769  0.83920 11.00000  0.06230   7.37
N01C  2  0.20731  1.08395  0.96827 11.00000  0.03526   7.31
N01D  2  0.46094 -0.24062  0.35365 11.00000  0.04477   7.15
N01E  2 -0.21931  0.65829  0.68102 11.00000  0.09416   7.14
N01F  2  0.25585  1.22936  0.92491 11.00000  0.06067   7.11
C01G  1 -0.21362  0.90890  0.52118 11.00000  0.02070   7.09
N01H  2  0.54234  1.39767  0.90183 11.00000  0.04825   6.77
N01I  2  0.40378  0.09260  0.51937 11.00000  0.06352   6.59
C01J  1  0.44440  0.63438  0.44305 11.00000  0.03216   6.48
C01K  1 -0.03800  0.95023  0.94818 11.00000  0.11019   6.36
C01L  1  0.65618 -0.17660  0.38653 11.00000  0.04395   6.18
C01M  1 -0.13363  1.11220  0.60233 11.00000  0.05218   6.14
O01N  3  1.06818 -0.08360  0.17846 11.00000  0.06691   6.13
C01O  1  0.10122  0.23173  0.54151 11.00000  0.06879   6.13
C01P  1  0.30078  0.56040  0.47666 11.00000  0.03028   6.04
C01Q  1  0.17805  1.03993  0.88891 11.00000  0.02092   5.97
C01R  1  0.05315  1.60965  0.84096 11.00000  0.02163   5.90
C01S  1  0.72697 -0.47186  0.34009 11.00000  0.03536   5.60
C01T  1  0.08836  0.96916  0.50129 11.00000  0.06097   5.58
C01U  1  1.15326  0.02458  0.20903 11.00000  0.10515   5.54
C01V  1 -0.23263  0.36236  0.55741 11.00000  0.08254   5.50
C01W  1  0.50392  1.35798  0.97400 11.00000  0.01528   5.33
C01X  1  0.54874  1.17142  0.94653 11.00000  0.05173   5.21
C01Y  1  1.12853 -0.51074  0.30693 11.00000  0.03670   5.19
C01Z  1 -0.68023  0.82815  0.94504 11.00000  0.03440   4.95
C020  1  0.42200  0.25517  0.47673 11.00000  0.04898   4.84
C021  1  0.68923  1.44933  0.85395 11.00000  0.02702   4.69
C022  1  0.62279  1.59637  0.56661 11.00000  0.03137   4.49
C023  1  1.10119 -0.53249  0.24068 11.00000  0.03338   4.43
C024  1  0.70113  1.31014  0.88542 11.00000  0.05707   4.19
C025  1  1.35090 -0.23285  0.07785 11.00000  0.05742   4.07
C026  1 -0.54663  0.93398  0.59478 11.00000  0.05048   4.04
O027  3  0.00523  0.34360  0.48167 11.00000  0.10047   3.99
C028  1  0.16493  0.77532  0.62088 11.00000  0.09601   3.91
C029  1 -0.26939  1.05170  0.67859 11.00000  0.06391   3.73
C02A  1 -0.17088  0.89785  0.72127 11.00000  0.04691   3.71
N02B  2  1.22015 -0.48592  0.35983 11.00000  0.11519   3.61
C02C  1  0.79337 -0.38359  0.27976 11.00000  0.03389   3.35
C02D  1  0.02141  0.74152  0.55021 11.00000  0.13032   3.23
C02E  1  0.33393  1.41035  0.78381 11.00000  0.11257   3.14
C02F  1  1.46510 -0.27571  0.13574 11.00000  0.06219   3.11
HKLF 4
END
