TITL 15_a.res in P1
REM Old TITL 15 in P1
REM SHELXT solution in P1: R1 0.341, Rweak 0.489, Alpha 0.000
REM <I/s>   0.000 for    0 systematic absences,  Orientation as input
REM Flack x =  0.394 ( 0.338 ) from   355 Parsons' quotients
REM Formula found by SHELXT:  C39 N22 O24 Cl10

CELL  0.71073   4.8700  11.6300  19.5600   90.000   83.910   90.000
ZERR   15.000   0.0010   0.0023   0.0039    0.030    0.030    0.030
LATT -1
SFAC C N O CL
UNIT 15 15 15 15
L.S. 10
BOND
LIST 6
FMAP 2
PLAN 20
CL01  4  0.36252  0.55618  0.30080 11.00000  0.09255  19.14
C002  1  0.90803  0.32619  0.06379 11.00000  0.02466  18.31
CL03  4 -0.10763  0.83285  0.35951 11.00000  0.12772  17.95
CL04  4  0.10718  0.87264  0.31799 11.00000  0.08580  17.22
CL05  4  0.76222  0.76027  0.17639 11.00000  0.09800  16.44
CL06  4  0.62817  0.61982  0.14045 11.00000  0.07250  16.44
CL07  4  0.46285  0.35432  0.58664 11.00000  0.07984  15.95
CL08  4  0.51483  0.73760  0.44492 11.00000  0.09860  15.79
CL09  4  0.57317  0.66576  0.19503 11.00000  0.09449  14.79
CL0A  4  0.58866  0.14224  0.08438 11.00000  0.13303  13.97
O00B  3  0.82280  0.32616  0.59858 11.00000  0.05155  12.24
CL0C  4 -0.08101  0.83222  0.30362 11.00000  0.10565  12.10
O00D  3  0.76692  0.63577  0.53707 11.00000  0.03974  11.92
O00E  3  0.53194  0.63425  0.28901 11.00000  0.06842  11.83
N00F  2  0.51142  0.74997  0.58406 11.00000  0.03123  11.72
N00G  2  1.05069  0.51863  0.04900 11.00000  0.00622  11.58
O00H  3  0.78952  1.12715  0.31990 11.00000  0.06728  11.58
O00I  3  0.10872  0.81777  0.75351 11.00000  0.05567  11.47
N00J  2  0.23477  0.64013  0.37516 11.00000  0.03425  11.45
O00K  3  0.54065  0.74485  0.66060 11.00000  0.09717  10.79
O00L  3  0.78771  0.29304  0.50254 11.00000  0.02765  10.75
N00M  2  0.60785  0.63450  0.58688 11.00000  0.05182  10.64
O00N  3  0.29833  0.46758  0.72076 11.00000  0.08842  10.57
O00O  3  1.41192  0.88032  0.15509 11.00000  0.04624  10.55
N00P  2  0.08922  0.70299  0.41422 11.00000  0.05333  10.48
N00Q  2  1.46069 -0.25382  0.96877 11.00000  0.01920  10.28
O00R  3  0.38801  0.83882  0.42678 11.00000  0.04992   9.99
O00S  3  0.22765  0.43520  0.64804 11.00000  0.13117   9.63
N00T  2  0.74502  0.58122  0.19504 11.00000  0.04321   9.52
N00U  2  0.78885  0.57439  0.94083 11.00000  0.04299   9.41
O00V  3  0.33970  0.28945  0.65367 11.00000  0.04774   8.82
O00W  3  0.97410  0.16802  0.09697 11.00000  0.07182   8.81
N00X  2  0.66621  0.66145  0.06219 11.00000  0.03267   8.78
O00Y  3  0.78516  0.37665  0.30281 11.00000  0.03421   8.65
O00Z  3  0.20293  0.47304  0.27541 11.00000  0.03476   8.64
N010  2  0.69996  0.61015  0.88467 11.00000  0.04254   8.57
O011  3  0.35618  0.75042  0.77940 11.00000  0.02740   8.25
N012  2  0.81943  0.73009  0.12245 11.00000  0.10282   8.22
O013  3  1.34108  0.35381  0.08861 11.00000  0.06070   8.18
N014  2  0.52767  0.48190  0.32127 11.00000  0.04199   8.18
O015  3  0.88344  0.50806  0.21873 11.00000  0.04334   7.68
N016  2  0.90414  0.57520  0.87914 11.00000  0.04494   7.54
O017  3  0.05792  1.25594  0.36489 11.00000  0.07788   7.51
N018  2  0.74394  0.67423  0.76698 11.00000  0.03083   7.50
N019  2  1.21872  0.40150  0.05243 11.00000  0.09612   7.50
O01A  3  1.28913  0.94825  0.21116 11.00000  0.07687   7.23
N01B  2  0.87635  1.06465  0.35653 11.00000  0.07863   7.10
C01C  1  1.00806  0.46992  0.88839 11.00000  0.03051   6.99
C01D  1  0.88736  0.56473  0.07499 11.00000  0.01952   6.93
N01E  2  0.14030  0.40908  0.78455 11.00000  0.05603   6.88
N01F  2  0.64259  1.21199  0.23127 11.00000  0.07561   6.73
N01G  2  0.37080  0.85909  0.55342 11.00000  0.09211   6.59
C01H  1  0.53096  1.06623  0.53177 11.00000  0.04662   6.48
N01I  2  1.04814  0.35967  0.91652 11.00000  0.12216   6.45
C01J  1 -0.46069  0.99648  0.72884 11.00000  0.06606   6.14
C01K  1  1.22080  0.51888  0.04992 11.00000  0.05154   6.07
C01L  1  1.41540 -0.19056  0.92945 11.00000  0.05588   5.89
C01M  1  0.50214  0.65569  0.73556 11.00000  0.03126   5.82
C01N  1  0.44536  0.97667  0.32232 11.00000  0.02094   5.74
C01O  1  1.21563  0.27866  0.49240 11.00000  0.07997   5.64
C01P  1  0.53685  0.27177  0.81288 11.00000  0.06090   5.59
C01Q  1  1.33532 -0.08024  1.00161 11.00000  0.04014   5.57
C01R  1  0.08432  0.58575  0.43287 11.00000  0.03448   5.56
C01S  1  1.16497  0.26478  0.91885 11.00000  0.05533   5.55
C01T  1  0.96124  0.57207  0.58680 11.00000  0.04365   5.47
O01U  3  0.61170  0.31512  0.72562 11.00000  0.07582   5.38
C01V  1  0.58125  0.27798  0.78024 11.00000  0.06920   5.37
C01W  1  1.32113 -0.25204  0.98173 11.00000  0.03178   5.30
C01X  1  0.19232  0.75638  0.62554 11.00000  0.01376   5.28
O01Y  3  0.06769  0.74957  0.61399 11.00000  0.09034   5.19
C01Z  1 -0.00467  0.88043  0.83238 11.00000  0.10855   4.97
C020  1  0.39633  1.13615  0.30873 11.00000  0.03386   4.97
C021  1  0.98199  1.04478  0.37435 11.00000  0.02858   4.80
C022  1  0.41948  0.54169  0.40586 11.00000  0.04756   4.78
C023  1  1.36659  0.11806  0.90870 11.00000  0.04948   4.66
N024  2  0.58130  0.47607  0.37503 11.00000  0.06316   4.60
C025  1 -0.31017  0.97837  0.64280 11.00000  0.10062   4.24
C026  1  0.81661  0.58903  0.84575 11.00000  0.05743   4.20
C027  1  0.57136  0.08846  0.01273 11.00000  0.03775   4.09
O028  3  0.76956  0.33875 -0.00161 11.00000  0.06838   4.08
C029  1  0.41819  0.60963  0.43393 11.00000  0.07784   3.99
C02A  1  0.64766  0.32352  0.41571 11.00000  0.04219   3.90
C02B  1  0.27909  1.14588  0.40870 11.00000  0.01975   3.78
C02C  1  0.83848  0.17993  0.70375 11.00000  0.03929   3.75
N02D  2  0.63155  0.59521  0.73870 11.00000  0.07815   3.75
C02E  1  0.31465  0.54244  0.15033 11.00000  0.04791   3.71
C02F  1  1.40451  0.56980  0.02581 11.00000  0.02496   3.64
C02G  1  0.17967  0.86697  0.50385 11.00000  0.03863   3.63
O02H  3 -0.09118  0.96947  0.69974 11.00000  0.06501   3.63
C02I  1  1.32753 -0.25594  0.88094 11.00000  0.03876   3.50
C02J  1  0.09497  0.96535  0.82985 11.00000  0.02781   3.30
C02K  1  0.25824  0.66714  0.45178 11.00000  0.03793   3.28
C02L  1  1.10276  0.84659  0.10647 11.00000  0.03899   3.25
C02M  1  1.21350  0.02184  0.93268 11.00000  0.04395   3.23
C02N  1  0.66459  0.47743  0.18795 11.00000  0.06179   3.15
HKLF 4
END
