TITL 16_a.res in P1
REM Old TITL 16 in P1
REM SHELXT solution in P1: R1 0.355, Rweak 0.489, Alpha 0.000
REM <I/s>   0.000 for    0 systematic absences,  Orientation as input
REM Flack x =  0.440 ( 0.445 ) from   570 Parsons' quotients
REM Formula found by SHELXT:  C49 N23 O20 Cl3

CELL  0.71073   4.8700  11.6100  19.7400   90.000   84.230   90.000
ZERR   15.000   0.0010   0.0023   0.0039    0.030    0.030    0.030
LATT -1
SFAC C N O CL
UNIT 15 15 15 15
L.S. 10
BOND
LIST 6
FMAP 2
PLAN 20
CL01  4  0.72759  0.44074  0.41304 11.00000  0.09570  13.07
CL02  4  0.00967  0.92477  0.38013 11.00000  0.09533  12.74
CL03  4  1.02992  0.31725  0.49530 11.00000  0.08156  12.61
N004  2  1.20705  0.24362  0.51251 11.00000  0.01481  11.88
C005  1  1.50288  0.13287  0.50057 11.00000  0.01822  11.60
N006  2  0.21586  0.60999  0.18731 11.00000  0.02370  11.25
O007  3  0.67190  0.44661  0.35239 11.00000  0.05564  11.22
N008  2  1.79790 -0.04285  0.71251 11.00000  0.01739  10.67
O009  3 -0.12447  0.46518  0.06497 11.00000  0.02821  10.57
O00A  3  0.48350  0.30315  0.78431 11.00000  0.02594  10.35
O00B  3  0.18261  0.58275  0.38138 11.00000  0.07961  10.33
N00C  2  0.56960  0.77982  0.20713 11.00000  0.06843  10.22
O00D  3  0.33357  0.40292  0.10537 11.00000  0.05380   9.76
N00E  2  0.83704  0.39066  0.49724 11.00000  0.02355   9.37
O00F  3 -0.27650  0.40618  0.12197 11.00000  0.02067   9.37
O00G  3  0.46595  0.08623  0.04007 11.00000  0.03850   9.34
O00H  3 -0.40385  1.08777  0.22845 11.00000  0.04860   9.25
N00I  2  0.62340  0.72765  0.25786 11.00000  0.07625   9.14
N00J  2  0.07430  0.52558  0.17899 11.00000  0.02135   9.07
O00K  3  1.87838 -0.15017  0.50842 11.00000  0.06190   8.87
N00L  2  0.97387  0.19735  0.48606 11.00000  0.01462   8.85
N00M  2  1.70403 -0.07417  0.62312 11.00000  0.05126   8.82
N00N  2  0.25235  0.23820  0.80118 11.00000  0.03494   8.74
O00O  3  0.16131  0.32899  0.78765 11.00000  0.02725   8.63
O00P  3 -0.64542  0.97104  0.24910 11.00000  0.08671   8.41
C00Q  1 -0.18888  1.01112  0.21697 11.00000  0.02280   8.41
C00R  1 -0.15444  0.47915  0.15403 11.00000  0.03031   8.10
N00S  2  0.36894  0.82345  0.09108 11.00000  0.02917   8.05
O00T  3  1.10763  0.64691  0.52643 11.00000  0.04372   8.01
O00U  3  0.76109  0.33738  0.60982 11.00000  0.06497   7.86
N00V  2  1.54194 -0.18087  0.51181 11.00000  0.03106   7.60
O00W  3  0.00829  0.73392  0.77615 11.00000  0.06010   7.57
O00X  3  1.67006 -0.09699  0.77374 11.00000  0.04523   7.52
N00Y  2 -0.33710  0.99128  0.28438 11.00000  0.01701   7.40
C00Z  1  1.73089 -0.09885  0.54350 11.00000  0.04595   7.30
N010  2  1.65433 -0.06199  0.89846 11.00000  0.05471   7.07
N011  2  1.56344 -0.16826  0.59024 11.00000  0.05844   7.02
N012  2  0.42709  0.83822  0.04029 11.00000  0.03358   6.92
N013  2  0.66033  0.39114  0.24907 11.00000  0.07074   6.90
C014  1  0.57402  0.73696  0.13771 11.00000  0.01724   6.78
N015  2  1.20783  0.47648  0.50827 11.00000  0.04109   6.70
N016  2 -0.05984  0.69169  0.34086 11.00000  0.08007   6.69
N017  2  1.03743  0.33142  0.43907 11.00000  0.09349   6.68
N018  2 -0.02036  0.28239  0.10334 11.00000  0.04135   6.66
C019  1  0.13273  0.13993  0.78143 11.00000  0.00421   6.59
N01A  2  0.77242  0.67089  0.11466 11.00000  0.07821   6.57
C01B  1  0.44370  0.68369  0.19053 11.00000  0.03495   6.52
C01C  1 -0.13551  0.75123  0.37927 11.00000  0.04518   6.43
C01D  1  0.71735  0.36783  0.54079 11.00000  0.01418   6.31
C01E  1  1.31954  0.18594  0.45538 11.00000  0.01785   6.23
O01F  3  1.63230  0.00844  0.47223 11.00000  0.11183   6.21
O01G  3  0.56295  0.48672  0.71030 11.00000  0.02949   6.18
C01H  1  0.06085  1.06690  0.21161 11.00000  0.05211   5.94
C01I  1 -0.93232  1.11109  0.30126 11.00000  0.04852   5.88
C01J  1 -0.02360  0.32635  0.87636 11.00000  0.05948   5.85
C01K  1  1.03111  0.62257  0.12004 11.00000  0.06295   5.81
C01L  1  0.46375  0.57680  0.35656 11.00000  0.05744   5.74
C01M  1 -0.12162  0.14725  0.83875 11.00000  0.06448   5.68
C01N  1  0.40891  0.37695  0.04657 11.00000  0.02378   5.53
O01O  3 -0.01915  0.95504  0.18389 11.00000  0.09263   5.46
C01P  1  0.61346  0.38783  0.66052 11.00000  0.02305   5.37
C01Q  1  1.93232 -0.00026  0.94162 11.00000  0.03984   5.14
C01R  1  1.19600  0.66819  0.60833 11.00000  0.03255   5.05
C01S  1  1.86493 -0.12446  0.69482 11.00000  0.04337   5.03
C01T  1  1.72957 -0.11198  0.94012 11.00000  0.04640   5.00
C01U  1  0.39872  0.65018  0.31257 11.00000  0.03409   4.87
C01V  1 -0.18685  0.50430  0.82875 11.00000  0.09969   4.84
N01W  2  0.27284  0.58319  0.90453 11.00000  0.08185   4.78
C01X  1  0.33461  0.56924  0.77729 11.00000  0.03086   4.62
C01Y  1 -0.48949  0.68173  0.67929 11.00000  0.05067   4.61
C01Z  1  1.57764  0.01276  0.82156 11.00000  0.05499   4.53
C020  1  0.24311  0.67937  0.86650 11.00000  0.04854   4.49
C021  1  0.14096  0.81933  0.08712 11.00000  0.02192   4.31
O022  3  0.96577  0.69487  0.60572 11.00000  0.06444   4.30
C023  1 -0.21789  0.60461  0.79578 11.00000  0.06765   4.00
C024  1  1.14043  0.23563  0.54804 11.00000  0.07976   3.81
C025  1  0.45094  0.53388  0.89956 11.00000  0.08382   3.79
C026  1  1.05443  0.15545  0.43941 11.00000  0.03507   3.66
C027  1  0.21722  0.93116  0.09050 11.00000  0.04503   3.66
C028  1  0.14027  0.47652  0.79920 11.00000  0.05500   3.64
C029  1  0.23208  0.45267  0.95756 11.00000  0.03065   3.63
C02A  1  0.36479  0.57448  0.26367 11.00000  0.02843   3.60
C02B  1  0.43864  0.25439  0.08754 11.00000  0.04898   3.59
C02C  1 -0.64947  1.18087  0.33609 11.00000  0.05681   3.57
C02D  1 -0.63181  0.82692  0.70118 11.00000  0.06161   3.47
C02E  1  1.29965  0.58877  0.48135 11.00000  0.04548   3.40
C02F  1  1.60724 -0.03934  0.96279 11.00000  0.03446   3.39
C02G  1  0.02544  0.55747  0.85089 11.00000  0.03027   3.37
C02H  1 -0.38682  0.71552  0.74400 11.00000  0.01168   3.25
C02I  1 -0.46615  1.05930  0.31460 11.00000  0.05147   3.24
C02J  1  0.13014  0.22071  0.03721 11.00000  0.05099   3.19
C02K  1  0.19671  0.20567  0.91282 11.00000  0.06653   3.13
C02L  1  1.80521  0.10358  0.65086 11.00000  0.03451   3.12
O02M  3 -0.07313  0.15572  0.74514 11.00000  0.04351   3.04
C02N  1  0.56287  0.49229  0.78663 11.00000  0.05498   3.02
HKLF 4
END
