TITL 17_a.res in P1
REM Old TITL 17 in P1
REM SHELXT solution in P1: R1 0.345, Rweak 0.443, Alpha 0.000
REM <I/s>   0.000 for    0 systematic absences,  Orientation as input
REM Flack x =  0.376 ( 0.241 ) from   641 Parsons' quotients
REM Formula found by SHELXT:  C51 N19 O29 Cl6

CELL  0.71073   4.8600  11.6100  19.6700   90.000   83.990   90.000
ZERR   15.000   0.0010   0.0023   0.0039    0.030    0.030    0.030
LATT -1
SFAC C N O CL
UNIT 15 15 15 15
L.S. 10
BOND
LIST 6
FMAP 2
PLAN 20
CL01  4  0.08848 -0.08174  0.49230 11.00000  0.08063  16.96
CL02  4 -0.56102  0.09367  0.48645 11.00000  0.08666  15.12
CL03  4 -0.39126  0.14932  0.51712 11.00000  0.10621  14.88
C004  1  0.53619  0.10119  0.37427 11.00000  0.01122  14.08
CL05  4  0.26780  0.22720  0.36591 11.00000  0.14633  13.41
CL06  4  1.03316  0.72312  0.93578 11.00000  0.07824  13.17
CL07  4  1.56102  1.08180  0.88517 11.00000  0.09003  12.91
O008  3  0.72723  0.60271  0.95023 11.00000  0.13655  12.20
O009  3 -0.09547 -0.10944  0.55072 11.00000  0.09201  11.87
O00A  3  0.52882  0.34135  0.83870 11.00000  0.01986  11.68
N00B  2  0.31326  0.65907  0.55719 11.00000  0.01201  11.45
O00C  3  0.80913  0.78677  0.42272 11.00000  0.05167  11.43
O00D  3  0.50725  0.57245  0.57642 11.00000  0.02612  11.18
O00E  3 -0.16766  0.65247  0.47586 11.00000  0.02902  11.00
N00F  2 -0.06268  0.27985  0.54838 11.00000  0.03211  10.63
O00G  3  0.37356  0.18346  0.41510 11.00000  0.02409  10.47
O00H  3  0.44274  0.85699  0.36415 11.00000  0.02495  10.39
N00I  2  0.53500  0.95132  0.08522 11.00000  0.05979  10.37
N00J  2  0.35389  0.88239  0.13708 11.00000  0.02622  10.35
N00K  2  0.34956  0.52962  0.41265 11.00000  0.03325  10.25
N00L  2  0.16684  0.72047  0.56056 11.00000  0.04778  10.10
O00M  3  0.31124  0.19087  0.26954 11.00000  0.04679   9.93
N00N  2 -0.22375  0.22760  0.51125 11.00000  0.02028   9.92
N00O  2 -0.21781  0.07905  0.53754 11.00000  0.08726   9.75
O00P  3  0.57867  0.37100  0.91017 11.00000  0.04195   9.51
O00Q  3 -0.43135 -0.04369  0.56800 11.00000  0.05136   9.50
O00R  3  0.64628  0.07289  0.34130 11.00000  0.04068   9.25
O00S  3  0.49435  0.24454  0.84067 11.00000  0.11994   9.01
N00T  2  0.76714  0.45995  0.90298 11.00000  0.04302   8.75
N00U  2 -0.19370  0.36490  0.58860 11.00000  0.06113   8.61
O00V  3  1.03647  0.77309  0.79837 11.00000  0.07466   8.60
C00W  1 -0.19028  0.16266  0.55967 11.00000  0.07060   8.59
N00X  2  0.14964  0.96633  0.18426 11.00000  0.01922   8.43
O00Y  3  0.60268  0.94321 -0.00171 11.00000  0.05099   8.41
N00Z  2 -0.28352 -0.01203  0.48708 11.00000  0.06642   8.38
O010  3 -0.54993  0.60160  0.17003 11.00000  0.06713   8.29
O011  3 -0.31744  0.43291  0.54101 11.00000  0.03750   8.13
O012  3 -0.07893  0.33628  0.41159 11.00000  0.05492   8.09
O013  3  0.85465  0.38407  0.26822 11.00000  0.05669   7.98
O014  3 -0.00582  0.29993  0.34175 11.00000  0.12171   7.94
O015  3  1.54502  0.85836  0.72051 11.00000  0.03875   7.91
O016  3  0.17123  0.95542  0.38880 11.00000  0.05911   7.86
O017  3  0.24997  0.60354  0.66455 11.00000  0.06799   7.78
O018  3  0.37254  0.84468  0.06894 11.00000  0.06635   7.56
O019  3  0.70177  1.10944  0.06739 11.00000  0.05402   7.48
O01A  3 -0.23997  0.74420  0.61401 11.00000  0.08320   7.44
N01B  2  0.54191  1.03336  0.10492 11.00000  0.04215   7.38
N01C  2  0.02560  0.30306  0.48167 11.00000  0.03574   7.37
N01D  2  0.43657  0.87876  0.27951 11.00000  0.03237   7.36
O01E  3  0.51563  0.27700  0.16375 11.00000  0.06686   7.35
N01F  2 -0.27577  0.69763  0.12248 11.00000  0.06055   7.25
N01G  2  0.73709  0.36194  0.94966 11.00000  0.03360   7.13
C01H  1 -0.44158  0.16103  0.59876 11.00000  0.06178   6.92
N01I  2  0.01051  0.67575  0.58981 11.00000  0.01687   6.92
N01J  2  1.27497  0.97382  0.83335 11.00000  0.07025   6.51
C01K  1 -0.12080  0.75706  0.25463 11.00000  0.02664   6.30
C01L  1  0.09154  0.64914  0.50171 11.00000  0.00884   6.28
C01M  1  0.69657  0.54943  0.37387 11.00000  0.04798   6.21
C01N  1  0.30318  0.62463  0.44381 11.00000  0.01209   6.10
C01O  1  0.37873  0.36541  0.36221 11.00000  0.06203   6.10
C01P  1  1.45145  0.84223  0.88661 11.00000  0.08782   6.04
C01Q  1  0.39144  0.59498  0.50164 11.00000  0.05093   6.02
C01R  1  0.39108  0.29455  0.89194 11.00000  0.02423   5.82
C01S  1  0.12188  0.23395  0.61478 11.00000  0.01777   5.57
C01T  1  0.94789  0.79302  0.86663 11.00000  0.07091   5.55
C01U  1 -0.38696  0.64919  0.18641 11.00000  0.02930   5.42
C01V  1  0.30345  0.28849  0.72961 11.00000  0.01930   5.40
C01W  1  1.14471  0.90604  0.75956 11.00000  0.03734   5.28
C01X  1  0.08228  0.36899  0.56354 11.00000  0.05504   5.26
C01Y  1  1.04321  0.31788  0.13301 11.00000  0.06755   5.11
C01Z  1 -0.08489  0.27087  0.59748 11.00000  0.03853   5.08
C020  1  0.50882  0.75138  0.41677 11.00000  0.08028   5.05
C021  1  0.72684  0.45773  0.25293 11.00000  0.03556   4.94
C022  1  0.63763  0.45143  0.34822 11.00000  0.03079   4.66
C023  1  1.32714  0.95759  0.74555 11.00000  0.02441   4.58
C024  1  1.35865  1.01086  0.80652 11.00000  0.03572   4.57
C025  1  0.73553  0.26022  0.77604 11.00000  0.03956   4.55
C026  1 -0.02216  0.17838  0.54444 11.00000  0.01757   4.50
C027  1  0.83280  0.40119  0.16007 11.00000  0.02613   4.43
C028  1  0.16683  0.75467  0.48325 11.00000  0.04283   4.43
C029  1  0.29666  0.59965  0.98880 11.00000  0.03355   4.42
O02A  3  1.24783  0.36959  0.10617 11.00000  0.04576   4.41
C02B  1  0.44953  0.51065  0.46990 11.00000  0.03019   4.34
C02C  1  0.41055  0.44362  0.71853 11.00000  0.02705   4.22
C02D  1  0.01521  0.48965  0.35793 11.00000  0.05707   4.16
C02E  1  0.49470  0.46364  0.34882 11.00000  0.01693   4.16
C02F  1  0.88216  0.35685  0.82896 11.00000  0.05535   4.14
C02G  1  0.25228  0.40393  0.39097 11.00000  0.03714   4.14
C02H  1  0.08576  0.75291  0.19517 11.00000  0.05504   4.08
C02I  1  0.17519  0.56769  0.76081 11.00000  0.04946   4.05
C02J  1  0.00068  0.57072  0.63693 11.00000  0.07077   4.02
C02K  1 -0.00787  0.65508  0.27721 11.00000  0.03686   4.02
C02L  1  0.24126  0.54153  0.91824 11.00000  0.05698   4.02
C02M  1  0.67663  0.43114  0.15852 11.00000  0.03104   4.00
C02N  1  0.82710  0.41386  0.72034 11.00000  0.09009   3.88
C02O  1  0.17489  0.60082  0.37263 11.00000  0.05456   3.85
C02P  1 -0.11169  0.83940  0.16356 11.00000  0.03158   3.69
C02Q  1  0.18822  0.88188  0.26072 11.00000  0.06405   3.48
C02R  1  0.89582  0.18311  0.83699 11.00000  0.01798   3.32
C02S  1  0.86816  0.22457  0.22476 11.00000  0.06264   3.21
C02T  1 -0.04865  0.58585  0.10643 11.00000  0.05867   3.20
C02U  1  1.36716  0.74419  0.81440 11.00000  0.03961   3.14
C02V  1  1.39017  0.96210  0.86768 11.00000  0.04155   3.12
O02W  3  0.37010  0.49201  1.00171 11.00000  0.08700   3.09
C02X  1  0.15350  0.42990  0.32473 11.00000  0.04071   3.02
HKLF 4
END
