TITL 18_a.res in P1
REM Old TITL 18 in P1
REM SHELXT solution in P1: R1 0.358, Rweak 0.392, Alpha 0.000
REM <I/s>   0.000 for    0 systematic absences,  Orientation as input
REM Flack x =  0.426 ( 0.517 ) from   160 Parsons' quotients
REM Formula found by SHELXT:  C43 N19 O22 Cl5

CELL  0.71073   4.8600  11.7200  19.4600   90.000   83.450   90.000
ZERR   15.000   0.0010   0.0023   0.0039    0.030    0.030    0.030
LATT -1
SFAC C N O CL
UNIT 15 15 15 15
L.S. 10
BOND
LIST 6
FMAP 2
PLAN 20
CL01  4  1.23542  1.03953  0.33134 11.00000  0.08833  14.64
CL02  4  1.41107  0.77171 -0.08329 11.00000  0.11602  13.44
CL03  4  1.63000 -0.01874  0.63425 11.00000  0.09500  13.10
CL04  4  0.76030  0.38657  0.45916 11.00000  0.12194  12.88
CL05  4  0.86751  0.30836  0.26827 11.00000  0.14906  12.59
O006  3  1.07732  0.26032  0.17176 11.00000  0.08342  12.28
O007  3  0.81526  0.88068  0.15166 11.00000  0.03378  12.20
O008  3  0.88123  0.91233  0.32851 11.00000  0.06678  11.38
O009  3  0.69807  0.53343  0.39223 11.00000  0.03433  10.39
O00A  3  1.15388  0.85699 -0.02308 11.00000  0.04172  10.37
O00B  3 -0.42429  0.40709  1.03013 11.00000  0.03531   9.90
O00C  3  0.17722  0.06192  0.83333 11.00000  0.07491   9.74
O00D  3  1.49981  0.49141  0.27435 11.00000  0.11497   9.66
O00E  3  0.82619  0.89850  0.20946 11.00000  0.06591   9.59
N00F  2  1.30774  0.12328  0.46836 11.00000  0.03264   9.51
N00G  2  1.24080  0.63180  0.29670 11.00000  0.09670   9.21
N00H  2  1.15800  0.18412  0.38342 11.00000  0.05617   9.20
O00I  3  1.07704  0.23716  0.21366 11.00000  0.05695   9.18
N00J  2  1.25582  0.73574  0.08572 11.00000  0.05447   9.15
O00K  3 -0.68742  0.13610  1.04527 11.00000  0.06326   9.05
C00L  1  0.98705  0.24309  0.42567 11.00000  0.04341   9.05
O00M  3  1.53030  0.69231 -0.04562 11.00000  0.07412   8.93
O00N  3  1.11044  0.67827  0.26917 11.00000  0.04878   8.78
O00O  3  1.65311 -0.00423  0.54170 11.00000  0.07363   8.73
N00P  2  1.40414  0.55596  0.28591 11.00000  0.10203   8.70
O00Q  3  1.01439  0.48118  0.49616 11.00000  0.10812   8.42
C00R  1  0.69327  0.46799  0.75835 11.00000  0.06359   8.39
N00S  2  0.69571  0.48946  0.44257 11.00000  0.04468   8.30
O00T  3  1.00047  0.63309  0.78365 11.00000  0.11186   8.14
N00U  2  1.07211  0.76575  0.11194 11.00000  0.05073   8.11
N00V  2  1.33978  0.59659  0.33683 11.00000  0.06911   8.10
O00W  3  0.45010  0.71217  0.67043 11.00000  0.06593   7.98
O00X  3  0.21675  0.08949  0.89902 11.00000  0.04727   7.87
N00Y  2  1.46232  0.79726 -0.02110 11.00000  0.03558   7.33
N00Z  2  0.58423  0.76479  0.30952 11.00000  0.03921   7.06
C010  1  1.16741  0.99327  0.17725 11.00000  0.05376   7.05
O011  3  0.57470  0.05340  0.77370 11.00000  0.06422   7.03
N012  2  1.02104  0.70623  0.38937 11.00000  0.05633   6.93
N013  2  0.91132  0.50461  0.77843 11.00000  0.05631   6.78
N014  2  0.54355  0.39062  0.82316 11.00000  0.05419   6.72
N015  2  0.76410  0.63948  0.59680 11.00000  0.07130   6.68
N016  2  1.34662  0.51685  0.19149 11.00000  0.05712   6.67
N017  2  0.41643  0.85988  0.57722 11.00000  0.08407   6.57
C018  1  1.24005  0.54038  0.81672 11.00000  0.04575   6.37
N019  2  1.06284  0.99139  0.36998 11.00000  0.05772   6.33
C01A  1  1.18990  0.60239  0.51220 11.00000  0.06847   6.29
C01B  1  1.48315  0.15463  0.40925 11.00000  0.03675   6.19
C01C  1  0.30477  0.15263  0.57277 11.00000  0.04266   6.17
N01D  2 -0.52879  0.29774  1.00689 11.00000  0.03293   6.15
C01E  1 -0.39537  0.26118  0.95757 11.00000  0.02893   6.14
C01F  1  1.03532  0.59913  0.39912 11.00000  0.09457   6.01
N01G  2  0.90031  0.38239  0.45181 11.00000  0.02824   5.98
C01H  1  0.71435  0.80087  0.55348 11.00000  0.05896   5.94
C01I  1  0.88047  0.55993  0.46969 11.00000  0.01678   5.87
C01J  1  1.52808  1.00462  0.15780 11.00000  0.02765   5.86
C01K  1  0.53831  0.48650  0.37899 11.00000  0.01368   5.79
C01L  1  1.10621  0.20737  0.44885 11.00000  0.05558   5.69
C01M  1  0.69918  0.23814  0.62045 11.00000  0.04095   5.53
C01N  1  0.33044  0.71613  0.62872 11.00000  0.05047   5.44
O01O  3 -0.07359  0.18484  0.67822 11.00000  0.15163   5.35
C01P  1  0.54951  0.39790  0.68870 11.00000  0.04653   5.24
C01Q  1  0.98326  0.77219  0.46220 11.00000  0.04774   5.22
C01R  1 -0.25313  0.15992  0.91075 11.00000  0.07969   5.17
C01S  1  1.00045  0.84210  0.54848 11.00000  0.03363   5.07
C01T  1  0.36742  0.76711  0.56004 11.00000  0.08410   5.04
C01U  1  0.89355 -0.10744  0.81093 11.00000  0.09495   4.98
C01V  1  1.39081  1.10744  0.25787 11.00000  0.07644   4.98
C01W  1  1.67792  0.08282  0.45905 11.00000  0.01116   4.96
C01X  1  0.58749 -0.05852  0.84850 11.00000  0.04116   4.91
C01Y  1  1.40018  0.30807  0.25180 11.00000  0.04452   4.87
C01Z  1  1.68742 -0.01997  0.45529 11.00000  0.06274   4.76
C020  1  0.49782  0.27796  0.55636 11.00000  0.04193   4.69
C021  1  0.91452  0.69398  0.11493 11.00000  0.04912   4.67
C022  1  1.12309  0.77226  0.19180 11.00000  0.06784   4.58
C023  1  1.14636  0.43564  0.81545 11.00000  0.03915   4.58
C024  1  1.08102  0.80379  0.09074 11.00000  0.05947   4.38
O025  3  1.37006  0.49776  0.90259 11.00000  0.07055   4.38
C026  1  1.12926  0.33129  0.31387 11.00000  0.03556   4.33
C027  1  0.40221  0.33704  0.48576 11.00000  0.08319   3.93
C028  1  0.32487  0.30389  0.73116 11.00000  0.05637   3.82
C029  1  1.20016  0.81837  0.04644 11.00000  0.04335   3.80
C02A  1  0.89310  0.62538  0.84766 11.00000  0.04974   3.69
C02B  1  0.38081  0.17798  0.74078 11.00000  0.06635   3.47
C02C  1  1.15172  0.85704  0.36740 11.00000  0.07523   3.44
C02D  1  0.52917  0.38792  0.59956 11.00000  0.05605   3.36
C02E  1 -0.25599  0.26869  1.08329 11.00000  0.03803   3.28
C02F  1  0.12148  0.21252  0.73470 11.00000  0.10276   3.22
C02G  1  0.19327  0.21942  0.79260 11.00000  0.06436   3.18
O02H  3  1.12058  0.99607  0.22349 11.00000  0.12854   3.02
HKLF 4
END
