TITL 19_a.res in P1
REM Old TITL 19 in P1
REM SHELXT solution in P1: R1 0.386, Rweak 0.558, Alpha 0.000
REM <I/s>   0.000 for    0 systematic absences,  Orientation as input
REM Flack x = -0.868 ( 4.141 ) from   508 Parsons' quotients
REM Formula found by SHELXT:  C38 N15 O9

CELL  0.71073   4.8600  11.6600  19.6600   90.000   83.740   90.000
ZERR   15.000   0.0010   0.0023   0.0039    0.030    0.030    0.030
LATT -1
SFAC C N O CL
UNIT 15 15 15 15
L.S. 10
BOND
LIST 6
FMAP 2
PLAN 20
N001  2  0.04476  0.42386  0.38085 11.00000  0.01515  10.60
O002  3  1.38295 -0.04349  0.17778 11.00000  0.04814   9.80
O003  3  1.29518 -0.08588  0.21986 11.00000  0.04028   9.20
N004  2  0.49348  0.59248  0.24083 11.00000  0.01830   8.03
C005  1  0.30812  0.52652  0.34945 11.00000  0.01025   7.91
O006  3  0.50006  0.60638  0.31481 11.00000  0.03783   7.80
C007  1  0.78022  0.54573  0.15388 11.00000  0.05997   7.68
O008  3  0.14627  0.46223  0.30464 11.00000  0.03157   7.63
O009  3  0.76591  0.74241  0.86695 11.00000  0.05456   7.42
N00A  2  0.33612  0.33607  0.33698 11.00000  0.06933   7.09
N00B  2  0.20523  0.49268  0.40128 11.00000  0.04465   7.05
N00C  2 -0.04187  0.14706  0.71236 11.00000  0.06678   6.89
N00D  2  0.81213  0.23825 -0.03576 11.00000  0.08906   6.87
N00E  2  0.01935  0.42332  0.44822 11.00000  0.04345   6.85
N00F  2  0.56932  0.83617  0.28511 11.00000  0.02804   6.82
N00G  2  0.91204  0.72647  0.22404 11.00000  0.03849   6.50
C00H  1  0.85499  0.12772  0.23926 11.00000  0.04125   6.21
O00I  3  0.61911  0.78207  0.90426 11.00000  0.06231   6.20
C00J  1  1.22516  0.79735  0.39256 11.00000  0.05929   6.03
C00K  1  1.22730  0.02073  0.13746 11.00000  0.05273   6.01
C00L  1  0.66255  0.18838  0.13667 11.00000  0.05137   5.96
O00M  3  0.34127  0.89267  0.86102 11.00000  0.14584   5.84
C00N  1  0.75129  0.30244  0.31755 11.00000  0.12915   5.78
N00O  2  0.43049  0.56941  0.53266 11.00000  0.08075   5.75
N00P  2 -0.13920  0.30006  0.62371 11.00000  0.07293   5.74
O00Q  3  0.07450  1.08588  0.86385 11.00000  0.06789   5.69
C00R  1  0.46874  0.97548  0.96824 11.00000  0.06875   5.66
C00S  1  0.75282  0.36624  0.07585 11.00000  0.02843   5.61
C00T  1  0.95130  0.67480  0.14857 11.00000  0.02680   5.60
C00U  1  0.62683  0.83373  0.84779 11.00000  0.03662   5.54
C00V  1  0.77155  0.81843  1.03576 11.00000  0.05700   5.53
N00W  2  1.13626  0.10588  0.09858 11.00000  0.04460   5.47
C00X  1  0.44767  0.38419 -0.02690 11.00000  0.13542   5.37
N00Y  2  0.01155  0.53067  0.55975 11.00000  0.08778   5.36
C00Z  1  0.79934  0.12361  0.34596 11.00000  0.02402   5.21
O010  3 -0.38295  0.10815  0.60942 11.00000  0.10186   5.15
C011  1  0.79449  0.27750  0.15428 11.00000  0.03557   5.08
C012  1  0.57352  0.17259  0.30435 11.00000  0.04849   4.83
C013  1  0.41757  0.73927  0.75800 11.00000  0.06699   4.81
C014  1  0.31845  1.04572  0.83723 11.00000  0.11096   4.76
C015  1  0.62399  0.61297  0.19997 11.00000  0.05358   4.72
C016  1  0.63836  0.23859  0.40624 11.00000  0.05775   4.70
C017  1  0.33355  0.50581  0.01508 11.00000  0.04091   4.53
C018  1  0.37756  0.30707  0.46409 11.00000  0.07290   4.49
C019  1  0.96657  0.03000  0.28412 11.00000  0.05089   4.38
C01A  1  1.15442  0.03405  0.22096 11.00000  0.09711   4.20
C01B  1  0.12088  0.96825  0.98559 11.00000  0.04421   4.19
C01C  1 -0.34300  0.00781  0.63029 11.00000  0.06017   4.17
C01D  1  0.44368  0.07635  0.45270 11.00000  0.03751   4.05
C01E  1  0.83319  0.82867  0.41821 11.00000  0.03751   3.88
C01F  1  0.40738  0.60028  0.80820 11.00000  0.04280   3.73
C01G  1  0.40528  0.29227  0.40331 11.00000  0.07078   3.68
C01H  1  0.51327  0.82920  0.99439 11.00000  0.02867   3.60
C01I  1  0.77146  0.80132  0.31519 11.00000  0.09453   3.60
C01J  1  0.15778  0.65962  0.66209 11.00000  0.04322   3.51
C01K  1  0.92476  0.62385  0.90131 11.00000  0.04649   3.49
C01L  1  0.56975  0.66151  0.67110 11.00000  0.06288   3.47
C01M  1  0.32893  0.48389  0.23272 11.00000  0.06439   3.39
N01N  2  0.86299  0.55141  0.11844 11.00000  0.05874   3.30
C01O  1  0.79645  0.88809  0.23135 11.00000  0.04101   3.29
C01P  1  0.93724  0.19005  0.12834 11.00000  0.03200   3.29
N01Q  2  0.21869  0.78779  0.77386 11.00000  0.07158   3.18
HKLF 4
END
