TITL 02top11_a.res in P1
REM Old TITL 02top11 in P1 #1
REM SHELXT solution in P1: R1 0.262, Rweak 0.257, Alpha 0.000
REM <I/s>   0.000 for    0 systematic absences,  Orientation as input
REM Flack x = -1.448 ( 0.894 ) from    76 Parsons' quotients
REM Formula found by SHELXT:  C30 N8 O29 Cl10

CELL  0.71073   4.8400  11.8100  19.3600   90.000   83.080   90.000
ZERR   14.000   0.0010   0.0024   0.0039    0.030    0.030    0.030
LATT -1
SFAC C H N O CL
UNIT 14 14 14 14 14
L.S. 10
BOND
LIST 6
FMAP 2
PLAN 20
CL01  5  0.14849  0.85100  0.66787 11.00000  0.09373  18.22
CL02  5  1.25339  0.12280  0.40614 11.00000  0.06453  16.15
CL03  5  0.83123  0.99884  0.66002 11.00000  0.06986  14.82
CL04  5  0.62673  1.09401  0.61637 11.00000  0.11626  14.24
CL05  5 -0.45631  0.74919  0.86617 11.00000  0.14727  13.98
O006  4  1.38198  0.24430  0.02128 11.00000  0.06161  13.85
CL07  5 -0.21521  0.71681  0.71435 11.00000  0.10444  13.76
CL08  5  1.13159  0.24099  0.43098 11.00000  0.12069  13.74
CL09  5  0.60933 -0.09401  0.53436 11.00000  0.09374  13.57
CL0A  5  0.09478  0.88435  0.74184 11.00000  0.10653  12.53
O00B  4  0.22992  0.96741  0.68784 11.00000  0.01770  12.43
O00C  4  1.60874  0.18251  0.30363 11.00000  0.08529  11.98
O00D  4  0.07501  0.26654  0.73348 11.00000  0.02296  11.42
O00E  4  1.01619  0.18215  0.13547 11.00000  0.04001  11.41
O00F  4  1.40890  0.10154  0.42923 11.00000  0.06955  10.66
O00G  4 -0.71984  0.74214  0.91254 11.00000  0.04683  10.59
O00H  4  0.53027  0.57354  0.63444 11.00000  0.06138  10.37
O00I  4  0.44545  0.22805  0.52642 11.00000  0.05734  10.22
CL0J  5  1.05799  0.27519  0.26903 11.00000  0.09089  10.18
O00K  4  0.55519  0.73390  0.46827 11.00000  0.08107  10.09
O00L  4 -0.33018  0.89727  0.88639 11.00000  0.04375   9.96
O00M  4 -0.38106  0.72205  0.94765 11.00000  0.07475   9.74
O00N  4 -0.14601  0.63531  0.91781 11.00000  0.02523   9.41
O00O  4  0.56766  0.75437  0.33377 11.00000  0.04681   9.40
O00P  4  0.93939  0.13704  0.19915 11.00000  0.04316   9.38
O00Q  4  0.19660  0.34255  0.70488 11.00000  0.09804   9.24
O00R  4  0.99911  0.09396  0.47702 11.00000  0.06989   9.03
O00S  4  1.18716  0.13091  0.11913 11.00000  0.05270   8.95
O00T  4 -0.01403  0.72223  0.79115 11.00000  0.09763   8.90
O00U  4  1.15001  0.19603  0.35191 11.00000  0.02739   8.89
O00V  4 -0.06910  0.74586  0.58050 11.00000  0.05462   8.74
O00W  4  0.39223  0.76382  0.39488 11.00000  0.05738   8.56
O00X  4  0.99266  0.80503  0.35646 11.00000  0.06751   8.23
O00Y  4  1.60476  0.46042  0.29964 11.00000  0.02749   7.62
O00Z  4  0.31440  0.20771  0.59584 11.00000  0.05545   7.37
N010  3  0.20109  0.57985  0.81891 11.00000  0.02346   7.35
N011  3  0.05424  0.65050  0.83505 11.00000  0.03516   7.32
N012  3  0.67525  0.47012  0.50275 11.00000  0.03182   7.17
N013  3  1.71984  0.43298  0.18371 11.00000  0.08360   7.12
C014  1 -0.05117  0.29274  0.86629 11.00000  0.00010   7.04
N015  3  0.20881  0.55635  0.48460 11.00000  0.05986   6.94
N016  3  1.26864  0.53620  0.30891 11.00000  0.04486   6.74
N017  3  0.40512  1.00122  0.61716 11.00000  0.05247   6.69
N018  3 -0.56533  0.84225  0.92229 11.00000  0.12090   6.68
C019  1  1.17996  0.44363  0.41396 11.00000  0.03789   6.37
C01A  1  0.19878  0.44654  0.52631 11.00000  0.01099   6.16
C01B  1  1.00469  0.91451  0.26865 11.00000  0.02067   5.97
C01C  1 -0.13474  0.32116  0.80064 11.00000  0.00553   5.90
C01D  1 -0.35514  0.98820  0.83596 11.00000  0.01515   5.89
C01E  1  0.34861  0.75460  0.77490 11.00000  0.06344   5.89
C01F  1  0.91791 -0.06208  0.45280 11.00000  0.00010   5.84
O01G  4  0.81856  0.77639  0.13082 11.00000  0.05924   5.83
C01H  1 -0.19692  1.04021  0.85683 11.00000  0.05169   5.75
C01I  1  1.34656  0.13765  0.10707 11.00000  0.04522   5.75
C01J  1  1.23117  0.93023  0.34140 11.00000  0.03173   5.72
C01K  1  1.17223  0.57798  0.16226 11.00000  0.01847   5.45
C01L  1  0.78096  0.32584  0.49776 11.00000  0.00682   5.42
C01M  1  0.22933  0.49352  0.56991 11.00000  0.06919   5.31
O01N  4  1.38703  0.09507  0.04949 11.00000  0.09197   5.18
C01O  1  0.40177  0.61629  0.58630 11.00000  0.04069   5.03
C01P  1  0.29031  0.46587  0.84917 11.00000  0.03421   5.03
C01Q  1  0.14605  0.49398  0.94405 11.00000  0.02444   4.76
C01R  1  0.41578  0.46460  1.03451 11.00000  0.04408   4.67
C01S  1  0.76132  0.84136  0.30494 11.00000  0.01655   4.54
C01T  1  1.62691  0.24522 -0.03451 11.00000  0.07612   4.53
C01U  1  0.42813  0.29963  0.73534 11.00000  0.06782   4.52
O01V  4  0.30756  0.36661  0.82963 11.00000  0.13613   4.43
O01W  4  0.43496  0.40039  0.63467 11.00000  0.11195   4.13
C01X  1  0.95908  0.34701  0.46986 11.00000  0.03893   3.84
C01Y  1  0.12966  0.25925  0.57153 11.00000  0.03810   3.82
C01Z  1  0.04063  0.52377  0.57929 11.00000  0.04845   3.68
C020  1  0.62809  0.59517  0.54556 11.00000  0.05743   3.68
C021  1 -0.38539  0.62018  0.81879 11.00000  0.05241   3.67
C022  1  1.06600  0.87422  0.16100 11.00000  0.05552   3.62
C023  1  0.97798  0.64633  0.16113 11.00000  0.03198   3.37
C024  1  1.15396  0.66973  0.11665 11.00000  0.00593   3.26
C025  1  0.18277  0.77168  0.75015 11.00000  0.00793   3.07
HKLF 4
END
