TITL 21_a.res in P1
REM Old TITL 21 in P1
REM SHELXT solution in P1: R1 0.342, Rweak 0.460, Alpha 0.000
REM <I/s>   0.000 for    0 systematic absences,  Orientation as input
REM Flack x =  0.253 ( 0.248 ) from   567 Parsons' quotients
REM Formula found by SHELXT:  C53 N20 O14 Cl13

CELL  0.71073   4.8600  11.6500  19.6900   90.000   83.750   90.000
ZERR   15.000   0.0010   0.0023   0.0039    0.030    0.030    0.030
LATT -1
SFAC C N O CL
UNIT 15 15 15 15
L.S. 10
BOND
LIST 6
FMAP 2
PLAN 20
CL01  4  1.35711  0.02339  0.35247 11.00000  0.09216  21.89
CL02  4  1.27759  0.00999  0.41340 11.00000  0.11558  18.33
CL03  4  0.24926 -0.24407  0.13639 11.00000  0.07792  16.87
CL04  4  1.10875  0.67809  0.39936 11.00000  0.08288  16.56
CL05  4  1.00128  0.24266  0.57735 11.00000  0.09819  16.39
CL06  4  0.42214  0.38454  0.47285 11.00000  0.06653  15.85
CL07  4  0.68968 -0.13056  0.35915 11.00000  0.06905  15.27
CL08  4  0.52155  0.43554  0.42142 11.00000  0.11308  14.37
CL09  4  0.90570  0.58480  0.42204 11.00000  0.08545  14.33
CL0A  4  0.85910  0.13218  0.22267 11.00000  0.11765  13.42
CL0B  4  0.54942  1.23818  1.07254 11.00000  0.08305  13.15
CL0C  4  0.28886  0.45563  0.43652 11.00000  0.08297  13.14
CL0D  4  0.39396  0.50566  0.65214 11.00000  0.10857  13.04
N00E  2  1.12666  0.82696  0.66376 11.00000  0.04823  11.12
O00F  3  0.12864  0.52732  0.79587 11.00000  0.02916  10.94
C00G  1  1.43275  0.88026  0.65466 11.00000  0.01374  10.83
N00H  2  0.84695  0.17376  0.62431 11.00000  0.03897  10.57
O00I  3  0.82620  1.16169  1.02467 11.00000  0.05148  10.34
C00J  1  0.40357  0.18160  0.44405 11.00000  0.03311  10.05
N00K  2  0.73920  0.61959  0.59346 11.00000  0.03129  10.01
N00L  2  0.75041  0.51278  0.38831 11.00000  0.01650   9.69
N00M  2  0.65484  0.25847  0.35888 11.00000  0.02075   9.63
N00N  2  0.77148  0.67084  0.66036 11.00000  0.02797   9.50
O00O  3  0.94096  1.09454  0.78765 11.00000  0.03019   9.31
N00P  2  1.29858 -0.01535  0.46748 11.00000  0.04712   9.26
N00Q  2  1.36059  0.76948  0.60478 11.00000  0.01545   9.15
N00R  2  1.25097  0.05772  0.28278 11.00000  0.07876   9.10
O00S  3  0.61544  0.46862  0.11745 11.00000  0.05619   8.82
N00T  2  1.34502 -0.06477  0.54868 11.00000  0.01215   8.47
O00U  3  1.03145  0.05785  0.47880 11.00000  0.04550   8.47
C00V  1  0.61725  0.97131  0.79981 11.00000  0.01303   8.41
O00W  3  0.04795 -0.30868 -0.03568 11.00000  0.02398   8.26
O00X  3  1.13588  0.31150  0.17284 11.00000  0.02465   8.06
O00Y  3  1.62489  0.96543  0.67713 11.00000  0.04048   8.05
C00Z  1  1.17113  1.05255  0.95621 11.00000  0.02195   8.04
O010  3  1.07972  0.64086  0.53255 11.00000  0.02753   8.03
O011  3  1.10241  0.92794  0.71786 11.00000  0.07390   8.02
C012  1  0.23994  0.42803  0.80878 11.00000  0.03694   7.82
O013  3  0.81258  0.35556  0.62831 11.00000  0.04961   7.67
N014  2  0.62044  0.48876  0.58279 11.00000  0.10036   7.49
N015  2  0.02837  0.38454  0.43965 11.00000  0.05401   7.14
N016  2  1.22282  0.21451  0.25374 11.00000  0.02589   7.14
N017  2  0.64885  0.28389  0.83965 11.00000  0.02687   7.12
N018  2  0.44908 -0.24276  0.32317 11.00000  0.03466   7.08
N019  2  0.76015 -0.10622  0.27141 11.00000  0.04169   7.06
N01A  2  1.10975  0.26918  0.64759 11.00000  0.05142   6.83
N01B  2  0.77387 -0.14421  0.20686 11.00000  0.06875   6.72
C01C  1  0.97223  0.25711  0.67388 11.00000  0.06874   6.58
N01D  2  1.00851 -0.21315  0.33804 11.00000  0.05044   6.53
N01E  2  0.43194  1.00882  0.84232 11.00000  0.09808   6.51
C01F  1  0.59697 -0.12860  0.40119 11.00000  0.03978   6.50
O01G  3  0.63247  0.13937  0.47591 11.00000  0.04375   6.29
C01H  1  0.92571  0.75688  0.63537 11.00000  0.02695   6.03
C01I  1  1.00462  0.17929  0.34206 11.00000  0.03147   6.00
C01J  1  0.58681 -0.10298  0.16750 11.00000  0.05003   5.69
O01K  3  0.95473  1.00155  0.99783 11.00000  0.05252   5.68
C01L  1  1.44785  0.27321  0.19584 11.00000  0.02567   5.65
C01M  1  0.82382  0.38065  0.14895 11.00000  0.01532   5.48
C01N  1 -0.00343 -0.20343 -0.03806 11.00000  0.05353   5.45
C01O  1  0.50259  0.28173  0.78271 11.00000  0.01947   5.39
C01P  1  0.72611  0.56809  0.22829 11.00000  0.07593   5.32
C01Q  1  1.06720  0.72040  0.49753 11.00000  0.10286   5.28
C01R  1  0.39058  0.58052  0.40662 11.00000  0.02007   5.28
C01S  1  1.06438  0.13889  0.30898 11.00000  0.04090   5.15
C01T  1  1.09880 -0.06627  0.28736 11.00000  0.01681   5.05
C01U  1  1.24705  0.07810  0.60731 11.00000  0.03983   4.97
C01V  1  0.57124  0.29284  0.56934 11.00000  0.09257   4.96
C01W  1 -0.20929  0.53378  0.87450 11.00000  0.05018   4.94
C01X  1  0.78263  1.07295  0.91905 11.00000  0.04329   4.90
C01Y  1 -0.62489  0.56601  0.91431 11.00000  0.04371   4.77
C01Z  1  0.87084  0.57985  0.70808 11.00000  0.06412   4.74
C020  1  0.92580  0.98076  0.87038 11.00000  0.03083   4.71
O021  3  0.24641  0.39703  0.87863 11.00000  0.05485   4.54
C022  1  0.89405  0.87122  0.74064 11.00000  0.03264   4.53
C023  1  1.55427 -0.10645  0.49903 11.00000  0.00821   4.41
C024  1  0.52669 -0.22260 -0.06648 11.00000  0.06271   4.41
C025  1  0.79904  0.24706  0.32212 11.00000  0.06406   4.41
C026  1  0.68908  0.15346  0.67642 11.00000  0.07550   4.38
C027  1  0.85442  0.54237  0.34990 11.00000  0.03105   4.05
C028  1  1.18665  0.03354  0.54559 11.00000  0.03594   4.03
C029  1  0.96527  0.50756  0.20192 11.00000  0.02798   4.03
C02A  1 -0.24689  0.54058  0.98427 11.00000  0.04327   3.88
C02B  1  0.89239  0.16679  0.32288 11.00000  0.02731   3.87
C02C  1  0.58532  0.21777  0.71603 11.00000  0.02898   3.86
C02D  1  0.47210 -0.21054  0.08199 11.00000  0.02783   3.84
C02E  1  0.09045 -0.25375  0.05521 11.00000  0.01411   3.82
C02F  1  0.89395  1.30868  0.95956 11.00000  0.06303   3.60
C02G  1  1.13573  1.19571  0.85743 11.00000  0.04237   3.57
C02H  1  0.89616  0.28251  0.77094 11.00000  0.04905   3.56
C02I  1  0.79656  0.61058  0.50739 11.00000  0.06049   3.43
C02J  1  0.30511 -0.18711 -0.07254 11.00000  0.07496   3.38
C02K  1  0.67500  0.54402  0.66804 11.00000  0.05298   3.36
C02L  1  1.49510  0.36829  0.23653 11.00000  0.03005   3.26
C02M  1  0.39530  0.35134  0.39719 11.00000  0.00699   3.25
C02N  1  0.93797  0.10684  0.39425 11.00000  0.02909   3.24
C02O  1  1.20854  0.09188  0.22726 11.00000  0.07575   3.16
C02P  1  1.22958  0.74160  0.75249 11.00000  0.03560   3.09
C02Q  1  1.42753  0.37520  0.30203 11.00000  0.06168   3.05
C02R  1  0.43687  0.39190  0.56944 11.00000  0.15955   3.05
C02S  1  0.63152  0.68216  0.19125 11.00000  0.01405   3.04
HKLF 4
END
