TITL 22_a.res in P1
REM Old TITL 22 in P1
REM SHELXT solution in P1: R1 0.352, Rweak 0.485, Alpha 0.000
REM <I/s>   0.000 for    0 systematic absences,  Orientation as input
REM Flack x =  0.459 ( 0.216 ) from   785 Parsons' quotients
REM Formula found by SHELXT:  C64 N26 O12 Cl10

CELL  0.71073   4.8600  11.6300  19.7000   90.000   83.760   90.000
ZERR   15.000   0.0010   0.0023   0.0039    0.030    0.030    0.030
LATT -1
SFAC C N O CL
UNIT 15 15 15 15
L.S. 10
BOND
LIST 6
FMAP 2
PLAN 20
CL01  4  0.69178  0.02345  0.71601 11.00000  0.07367  20.70
CL02  4  0.03677  0.17153  0.74381 11.00000  0.08107  17.90
CL03  4  0.68499  0.00992  0.64253 11.00000  0.07294  16.25
CL04  4  0.65834  0.02756  0.76036 11.00000  0.09184  15.03
CL05  4  0.20061  0.78357  0.65862 11.00000  0.07532  14.52
CL06  4  0.35683  0.79004  0.47072 11.00000  0.07700  14.32
CL07  4  0.40557  0.28959  0.64534 11.00000  0.08225  13.67
CL08  4  0.80751 -0.04141  0.68200 11.00000  0.11279  13.22
CL09  4  0.45825  0.07238  0.68408 11.00000  0.09437  13.10
N00A  2  0.29997  0.20450  0.62445 11.00000  0.03240  11.89
O00B  3  0.13218  0.12407  0.79725 11.00000  0.04273  10.82
N00C  2  0.43254  0.88237  0.44368 11.00000  0.05434  10.75
N00D  2  0.15184  0.70154  0.86370 11.00000  0.07978  10.56
N00E  2 -0.00615  0.44002  0.64444 11.00000  0.01854  10.26
CL0F  4 -0.27903  0.62841  0.16544 11.00000  0.10541   9.87
N00G  2 -0.01195  0.83306  0.63846 11.00000  0.03628   9.43
O00H  3 -0.20144  0.57859  0.65648 11.00000  0.03311   8.96
O00I  3  0.28201  0.65477  0.46545 11.00000  0.06549   8.84
O00J  3 -0.63206  0.37475  0.55187 11.00000  0.04174   8.73
O00K  3  0.10184  0.23967  0.46743 11.00000  0.05968   8.57
O00L  3  1.09813  0.91333  0.98899 11.00000  0.06088   8.47
C00M  1  1.22744  0.75462  0.31024 11.00000  0.03600   8.43
N00N  2 -0.05156  0.53174  0.82374 11.00000  0.03243   8.31
N00O  2  0.28498  0.74231  0.79184 11.00000  0.03933   8.21
O00P  3  0.37867  0.91403  0.55381 11.00000  0.02867   8.20
O00Q  3 -0.31268  0.23899  0.45761 11.00000  0.06686   8.20
N00R  2  0.95939  0.89970  0.30832 11.00000  0.05781   8.07
N00S  2  0.01196  0.73452  0.68361 11.00000  0.02937   7.94
N00T  2  0.82222  0.96423  0.36396 11.00000  0.06018   7.91
N00U  2  0.31683  0.39608  0.86091 11.00000  0.01890   7.87
N00V  2  0.33019  0.68686  0.66857 11.00000  0.03906   7.63
O00W  3  0.57508  0.52906  0.41906 11.00000  0.02333   7.60
N00X  2  0.19988  0.44156  0.32693 11.00000  0.06900   7.48
N00Y  2  0.40432  0.34757  0.38146 11.00000  0.03345   7.46
N00Z  2  0.47483 -0.08424  0.73795 11.00000  0.01666   7.30
O010  3  0.07270  0.10706  0.32113 11.00000  0.05082   7.23
N011  2 -0.39351  0.22345  0.10817 11.00000  0.08444   7.16
N012  2 -0.08638  0.27290  0.11456 11.00000  0.05087   7.13
N013  2  0.62495  0.53110  0.85903 11.00000  0.02439   7.07
O014  3  0.18405  0.52720  0.25113 11.00000  0.04157   7.04
N015  2  0.26448  0.19375  0.83364 11.00000  0.04846   6.98
N016  2  0.47027  0.28505  0.91381 11.00000  0.06736   6.92
N017  2  0.04852  0.20315  0.36425 11.00000  0.01841   6.86
N018  2 -0.69250  0.22901  0.05204 11.00000  0.01817   6.72
N019  2  0.17273  0.33994  0.90531 11.00000  0.04875   6.71
N01A  2  0.24350  0.81518  0.54332 11.00000  0.02761   6.61
C01B  1 -0.16205  0.13391  0.41480 11.00000  0.03137   6.47
C01C  1  0.74907  0.67109  0.56858 11.00000  0.11191   6.41
C01D  1  0.76802  0.95791  0.48121 11.00000  0.04551   6.30
C01E  1  0.01029  0.52584  0.78698 11.00000  0.01376   6.13
C01F  1 -0.14677  0.29794  0.34913 11.00000  0.06269   6.13
C01G  1  0.29876  0.29667  0.22153 11.00000  0.03065   6.09
C01H  1  0.56290  0.17355  0.27546 11.00000  0.03785   6.01
C01I  1  0.29615  0.13997  0.55359 11.00000  0.05746   5.91
C01J  1  0.26460  0.77597  0.57814 11.00000  0.01320   5.79
C01K  1  0.48358  0.44185  0.31054 11.00000  0.06496   5.78
C01L  1  0.43753  0.65293  0.56787 11.00000  0.03523   5.51
C01M  1  0.50962  0.10092  0.62141 11.00000  0.05792   5.32
C01N  1  0.51789  0.84736  0.40364 11.00000  0.03288   5.29
C01O  1  0.34692  0.27318  0.82010 11.00000  0.04576   5.26
C01P  1  0.17727  0.49054  0.59046 11.00000  0.02540   5.23
C01Q  1  0.10910  0.36679  0.67190 11.00000  0.06076   5.16
N01R  2  1.09910  0.73606  0.36634 11.00000  0.09709   4.98
C01S  1 -0.19331  0.50504  0.76587 11.00000  0.01948   4.97
C01T  1  0.83245  0.69154  0.92385 11.00000  0.04171   4.89
C01U  1 -0.26632  0.18608  0.11528 11.00000  0.04129   4.70
C01V  1  1.06359  0.93998  0.37484 11.00000  0.04075   4.64
C01W  1 -0.06096  0.68196  0.78111 11.00000  0.02712   4.62
C01X  1  0.56446  0.69178  0.50503 11.00000  0.02717   4.61
C01Y  1  0.03880  0.26439  0.53897 11.00000  0.03701   4.60
C01Z  1  0.41603  0.31215  0.72056 11.00000  0.02841   4.54
C020  1  0.38698  0.60083  0.81838 11.00000  0.04001   4.54
C021  1  0.50771  0.50111  0.47060 11.00000  0.03370   4.49
C022  1  0.57479  0.31131  0.76280 11.00000  0.04390   4.49
C023  1 -0.02840  0.85078  0.73333 11.00000  0.03486   4.42
C024  1 -0.10649  0.39236  0.09734 11.00000  0.05890   4.32
C025  1  1.07191  0.80555  0.18199 11.00000  0.04967   4.25
C026  1 -0.23867  0.43287  0.07013 11.00000  0.03832   4.25
C027  1  0.50017  0.62636  0.80507 11.00000  0.05334   4.24
C028  1  0.32550  0.50901  0.84975 11.00000  0.06731   4.20
C029  1  0.11353  0.33130  0.73547 11.00000  0.05519   4.20
C02A  1 -0.13111  0.39970  0.59028 11.00000  0.06140   4.18
C02B  1 -0.23833  0.15435  0.54189 11.00000  0.05295   4.12
C02C  1  0.83712 -0.04041  0.82198 11.00000  0.09968   4.08
C02D  1  0.08926  0.72934  0.54951 11.00000  0.02263   3.97
C02E  1  0.22186  0.34407  0.43718 11.00000  0.04972   3.96
C02F  1  1.26259  0.98750  0.20479 11.00000  0.04776   3.95
C02G  1  0.43431  0.66765  0.74441 11.00000  0.02344   3.94
C02H  1  0.12793  0.60376  0.74257 11.00000  0.03779   3.92
C02I  1  0.67486  0.56863  0.48166 11.00000  0.07347   3.91
C02J  1  1.38927  0.80471  0.99195 11.00000  0.05173   3.84
C02K  1  0.44496  0.58059  0.47578 11.00000  0.05539   3.71
C02L  1  0.05639  0.45766  0.12828 11.00000  0.04255   3.70
C02M  1 -0.20360  0.40960  0.00805 11.00000  0.04357   3.63
O02N  3  0.62875  0.46859  0.29142 11.00000  0.09664   3.61
C02O  1  1.24751  0.86435  0.11562 11.00000  0.10820   3.51
C02P  1  0.60023  0.75781  0.78043 11.00000  0.03121   3.50
C02Q  1  0.93547  0.81047  0.94441 11.00000  0.03510   3.47
C02R  1  0.81395  0.81486  0.33512 11.00000  0.03723   3.43
C02S  1 -0.03209  0.44907  0.24454 11.00000  0.05427   3.38
C02T  1  1.01765  0.87410  0.91164 11.00000  0.06062   3.35
C02U  1  1.69250  0.85843  0.12969 11.00000  0.09175   3.34
N02V  2 -0.60672  0.41901  0.63534 11.00000  0.08006   3.33
C02W  1 -0.40320  0.43967  0.60040 11.00000  0.07658   3.29
C02X  1  0.61543  0.63990  0.87237 11.00000  0.03711   3.20
C02Y  1  0.29892  0.58159  0.09725 11.00000  0.10160   3.20
C02Z  1  0.48850  0.48528  0.92518 11.00000  0.04781   3.16
C030  1  0.12378  0.98715  0.72975 11.00000  0.02124   3.15
C031  1  1.32779  1.08424  0.18344 11.00000  0.06297   3.14
C032  1  1.35271  0.81517  0.21374 11.00000  0.03197   3.06
C033  1  0.04827  0.45710  0.86486 11.00000  0.05775   3.05
C034  1  0.56969  0.61306  0.95197 11.00000  0.05093   3.04
HKLF 4
END
