TITL 23_a.res in P1
REM Old TITL 23 in P1
REM SHELXT solution in P1: R1 0.368, Rweak 0.511, Alpha 0.000
REM <I/s>   0.000 for    0 systematic absences,  Orientation as input
REM Flack x =  0.366 ( 0.312 ) from   830 Parsons' quotients
REM Formula found by SHELXT:  C40 N20 O27 Cl4

CELL  0.71073   4.8500  11.6400  19.6800   90.000   83.660   90.000
ZERR   15.000   0.0010   0.0023   0.0039    0.030    0.030    0.030
LATT -1
SFAC C N O CL
UNIT 15 15 15 15
L.S. 10
BOND
LIST 6
FMAP 2
PLAN 20
CL01  4  1.69949  0.93909  0.34025 11.00000  0.11719  15.30
O002  3  0.15028  0.79121  0.05704 11.00000  0.02891  14.56
CL03  4 -0.37328  0.46335  0.66689 11.00000  0.10065  14.16
CL04  4  0.28462  0.64555  0.49348 11.00000  0.08985  13.50
CL05  4  0.92697  0.54223  0.41431 11.00000  0.10704  12.66
N006  2 -0.12113  0.34457  0.71430 11.00000  0.05008  11.41
N007  2  1.11909  0.37958  0.21218 11.00000  0.05067  11.09
N008  2  0.99045  0.52091  0.35033 11.00000  0.06265  11.09
O009  3  1.22290  1.18098  0.39241 11.00000  0.02096  10.94
O00A  3  0.38039  0.17893  0.58746 11.00000  0.04030  10.48
O00B  3  0.71003  0.01730  0.07053 11.00000  0.04507  10.40
N00C  2 -0.28943  0.41232  0.73249 11.00000  0.03674  10.25
O00D  3  0.02802  0.29101  0.75806 11.00000  0.04407  10.22
O00E  3  0.95997  0.52315  0.27975 11.00000  0.06765  10.21
O00F  3  0.68880 -0.02335  0.83669 11.00000  0.02729  10.16
O00G  3  1.06654  0.68047  0.36655 11.00000  0.07414  10.11
N00H  2  0.62997  0.79169  0.50117 11.00000  0.02150   9.87
O00I  3  1.28934  0.47391  0.20649 11.00000  0.04215   9.75
O00J  3 -0.52798  0.49310  0.86743 11.00000  0.06410   9.71
O00K  3  0.06314  0.32041  0.68041 11.00000  0.04259   9.51
C00L  1  1.61411  1.03455  0.31525 11.00000  0.01506   9.50
N00M  2  1.50343  0.84146  0.31200 11.00000  0.03067   9.49
O00N  3  1.48348  1.23677  0.40205 11.00000  0.08676   9.43
N00O  2  0.44789  0.72489  0.15240 11.00000  0.05731   9.40
O00P  3  0.43153  0.19844  0.06638 11.00000  0.06904   9.37
O00Q  3  0.81011  0.64024  0.06857 11.00000  0.06436   9.08
O00R  3  1.11549  0.12826  0.21994 11.00000  0.07100   9.01
O00S  3  0.79662  0.44308  0.14413 11.00000  0.06759   8.92
N00T  2  0.78576  0.71138  0.54276 11.00000  0.06315   8.90
O00U  3  0.30885  0.24803  0.00262 11.00000  0.10071   8.84
O00V  3  0.77769  0.04813  0.66534 11.00000  0.06248   8.83
N00W  2  0.49422  0.71210  0.45316 11.00000  0.00931   8.79
O00X  3  0.30736  0.61025  0.54037 11.00000  0.05711   8.72
O00Y  3  0.34492 -0.15166  0.86095 11.00000  0.07049   8.62
N00Z  2  0.68753  0.42229  0.52992 11.00000  0.02776   8.40
O010  3 -0.20831  0.22089  0.89206 11.00000  0.04984   8.23
O011  3  0.83385 -0.07143  0.70777 11.00000  0.05153   8.18
O012  3  0.76459  0.23156  0.08405 11.00000  0.06499   8.18
N013  2  0.60515  0.92004  0.44101 11.00000  0.07052   8.07
O014  3  0.65523  1.00320  0.55052 11.00000  0.04161   8.05
C015  1  0.61766  0.49369  0.49189 11.00000  0.03240   7.98
O016  3  0.54317  0.36732 -0.00349 11.00000  0.08950   7.42
N017  2  1.83807  1.00631  0.36320 11.00000  0.09159   7.27
N018  2 -0.61359  0.54736  0.93378 11.00000  0.02765   7.21
N019  2  0.41179  0.19650  0.67660 11.00000  0.05480   7.05
N01A  2  1.29241  0.76782  0.33009 11.00000  0.01416   6.98
N01B  2  0.90530  0.94811  0.58254 11.00000  0.03408   6.65
N01C  2  1.10075  0.69296  0.30247 11.00000  0.03944   6.59
N01D  2  1.28558 -0.20346  0.68555 11.00000  0.05746   6.54
C01E  1  1.00329  0.35972  0.15839 11.00000  0.04149   6.34
C01F  1  0.47495  0.55344  0.07491 11.00000  0.03503   6.33
C01G  1  0.19505  0.19600  0.50548 11.00000  0.01751   6.11
C01H  1  0.72184 -0.11609  0.76507 11.00000  0.06067   5.94
C01I  1  0.53898 -0.05960  0.80282 11.00000  0.03728   5.93
C01J  1  0.44189  0.12094  0.01308 11.00000  0.08086   5.80
C01K  1  1.27408  0.49638  0.30368 11.00000  0.02507   5.71
C01L  1  0.63023  0.60047  0.12018 11.00000  0.03863   5.70
C01M  1 -0.02676  0.72342  0.96300 11.00000  0.07017   5.66
C01N  1  0.90913  0.31185  0.20625 11.00000  0.04726   5.63
C01O  1  0.52876 -0.00893  0.02883 11.00000  0.02472   5.54
C01P  1  0.24751 -0.27310  0.84019 11.00000  0.02932   5.53
C01Q  1 -0.24918  0.41311  0.77728 11.00000  0.03415   5.49
C01R  1  0.62798  0.58762  0.47276 11.00000  0.07614   5.35
C01S  1  1.21253  0.06255  0.16818 11.00000  0.01234   5.28
C01T  1 -0.32212  0.52118  0.62640 11.00000  0.10735   5.28
C01U  1 -0.53151  0.46291  0.76639 11.00000  0.02289   5.25
C01V  1  0.83727  0.88979  0.47136 11.00000  0.03886   5.09
C01W  1 -0.79306  0.49403  1.00349 11.00000  0.04187   5.00
C01X  1  0.21967  0.24184  0.70364 11.00000  0.01911   5.00
C01Y  1  0.63917 -0.00817 -0.00134 11.00000  0.02290   4.89
C01Z  1 -0.83807  0.41379  0.87999 11.00000  0.05637   4.68
C020  1 -0.77018  0.44621  0.93244 11.00000  0.04776   4.61
C021  1  0.57043 -0.14121  0.01634 11.00000  0.10047   4.61
C022  1  1.38760  1.10863  0.33724 11.00000  0.01924   4.41
C023  1  0.45515  0.05607  0.66072 11.00000  0.04831   4.16
C024  1  0.33247  0.80015  0.20416 11.00000  0.05971   4.12
C025  1  0.92219  0.23252  0.13992 11.00000  0.03723   4.06
C026  1  1.25495  1.27310  0.35506 11.00000  0.04172   3.91
C027  1  1.03790 -0.09949  0.73528 11.00000  0.04958   3.86
C028  1  0.23254  0.28065  0.57050 11.00000  0.03282   3.65
N029  2  0.90187  0.82117  0.49445 11.00000  0.05071   3.60
C02A  1  1.11407  0.86855  0.52773 11.00000  0.05230   3.51
O02B  3 -0.04632  0.58574  0.58257 11.00000  0.09784   3.44
C02C  1 -0.30854  0.68002  0.90112 11.00000  0.04158   3.26
O02D  3 -0.76241  0.07390  0.88962 11.00000  0.06752   3.20
C02E  1 -0.69577  0.18736  0.88077 11.00000  0.04081   3.19
C02F  1  0.45103  0.71948  0.54099 11.00000  0.02528   3.12
C02G  1  0.34476  0.75487  0.15293 11.00000  0.04472   3.03
C02H  1 -0.47496  0.31542  0.89218 11.00000  0.04512   3.01
N02I  2  0.29952  0.12778  0.64654 11.00000  0.03864   3.01
C02J  1  0.82387  0.71500  0.14229 11.00000  0.04025   3.00
HKLF 4
END
