TITL 24_a.res in P1
REM Old TITL 24 in P1
REM SHELXT solution in P1: R1 0.431, Rweak 0.120, Alpha 0.000
REM <I/s>   0.000 for    0 systematic absences,  Orientation as input
REM Flack x = -0.610 ( 1.973 ) from    14 Parsons' quotients
REM Formula found by SHELXT:  C40 N24 O17 Cl13

CELL  0.71073   4.8600  11.7700  20.2000   90.000   83.730   90.000
ZERR   15.000   0.0010   0.0024   0.0040    0.030    0.030    0.030
LATT -1
SFAC C N O CL
UNIT 15 15 15 15
L.S. 10
BOND
LIST 6
FMAP 2
PLAN 20
CL01  4  0.59297  0.89232  0.28619 11.00000  0.07061  19.24
CL02  4  0.46886  0.80976  0.29953 11.00000  0.07724  18.67
CL03  4 -0.40703  0.27130  0.41065 11.00000  0.10445  18.48
CL04  4  0.39111  0.94822  0.35135 11.00000  0.13135  18.14
CL05  4  0.15054  0.44072  0.41253 11.00000  0.08705  16.37
CL06  4  0.01878  0.04828  0.43837 11.00000  0.09554  16.11
CL07  4  0.24648  0.48235  0.35170 11.00000  0.09711  15.33
CL08  4  1.02119  0.75927  0.08029 11.00000  0.13241  14.50
CL09  4  0.17236  0.42900  0.28526 11.00000  0.10596  14.37
CL0A  4  0.69854  0.89335  0.23790 11.00000  0.16847  13.56
CL0B  4  0.21969  0.13420  0.43959 11.00000  0.08865  13.41
CL0C  4  0.62306  0.17156  0.52699 11.00000  0.12769  12.83
CL0D  4 -0.32092  0.13442  1.01352 11.00000  0.16002  12.77
O00E  3  1.67673  0.67482  0.01940 11.00000  0.07601  11.33
N00F  2 -0.20396  0.22313  0.97657 11.00000  0.05744  10.99
N00G  2  0.50033  0.97294  0.29472 11.00000  0.03104  10.88
N00H  2  0.01788  0.35955  0.33514 11.00000  0.01804  10.78
N00I  2  0.46980  0.27954  0.50566 11.00000  0.03874  10.76
N00J  2  0.42521  0.21685  0.56144 11.00000  0.01789  10.30
O00K  3  0.03549  0.46937  0.79184 11.00000  0.07270   9.96
O00L  3  0.34205  0.16784  0.39257 11.00000  0.02673   9.84
O00M  3  0.31068  0.42823  0.23623 11.00000  0.06522   9.70
O00N  3  1.32340  0.63913  0.08625 11.00000  0.06059   9.63
N00O  2  0.38747  0.79900  0.34525 11.00000  0.00010   9.54
O00P  3  1.14692  0.69214  0.08532 11.00000  0.05674   9.25
O00Q  3 -0.13644 -0.02521  0.47637 11.00000  0.03481   9.20
N00R  2  0.07308  0.52475  0.40371 11.00000  0.10948   9.14
O00S  3  0.61409  0.71996  0.55340 11.00000  0.02592   8.90
N00T  2 -0.44717  0.51067  0.95133 11.00000  0.04907   8.74
N00U  2  0.10411  0.40951  0.45933 11.00000  0.05830   8.48
C00V  1  0.29053  0.26543  0.55867 11.00000  0.02496   8.37
O00W  3 -0.18179  0.74753  0.89235 11.00000  0.14378   8.31
O00X  3  0.31753  0.86676  0.35962 11.00000  0.08241   8.25
O00Y  3  0.00350  0.32064  0.54968 11.00000  0.03773   8.24
C00Z  1 -0.60161  0.59779  0.89737 11.00000  0.05131   8.00
O010  3  0.54510  0.11254  0.61158 11.00000  0.08863   7.92
N011  2 -0.06691  0.47158  0.51738 11.00000  0.02234   7.89
N012  2  0.19165  0.52290  0.42804 11.00000  0.06384   7.59
N013  2  0.39688  0.54128  0.30496 11.00000  0.03038   7.54
N014  2 -0.53852  0.05221  0.90423 11.00000  0.04410   7.47
O015  3  0.64796  0.62051  0.36152 11.00000  0.01094   7.46
N016  2 -0.26810  0.62511  0.81369 11.00000  0.05804   7.37
C017  1 -0.10355  0.60595  0.75782 11.00000  0.10074   7.37
C018  1  0.76610  0.66651  0.30635 11.00000  0.00010   7.33
N019  2 -0.17741  0.21923  0.92532 11.00000  0.03836   7.10
N01A  2 -0.16549  0.33155  0.44815 11.00000  0.05942   7.04
N01B  2  0.49216  0.94693  0.27093 11.00000  0.00563   6.99
N01C  2 -0.08022  0.35297  0.99686 11.00000  0.04868   6.98
N01D  2  1.03606  0.89160  0.12986 11.00000  0.06826   6.98
N01E  2 -0.07440  0.30586  0.14402 11.00000  0.04438   6.91
N01F  2  0.22260  0.74742  0.65673 11.00000  0.03305   6.74
N01G  2  0.64787  0.67176  0.15490 11.00000  0.01620   6.64
C01H  1  0.30247  0.36077  0.46959 11.00000  0.02517   6.63
C01I  1  0.54106  0.65351  0.63083 11.00000  0.00993   6.48
O01J  3  0.28406  0.02906  0.17057 11.00000  0.11520   6.36
O01K  3  0.11846  0.23755  0.99816 11.00000  0.04963   6.36
N01L  2 -0.67673  0.56145  0.95040 11.00000  0.08385   6.34
O01M  3 -0.01883  0.64816  0.67543 11.00000  0.03553   6.24
C01N  1  0.15898  0.56222  0.58242 11.00000  0.09623   6.24
C01O  1  0.98637  0.84225 -0.01352 11.00000  0.03510   6.04
C01P  1 -0.30424  0.54100  0.90956 11.00000  0.05379   6.02
C01Q  1  0.23260  0.31755  0.85756 11.00000  0.09520   5.93
C01R  1 -0.47000  0.08091  0.98033 11.00000  0.04923   5.72
C01S  1  0.83057  0.98777  0.15343 11.00000  0.02958   5.33
C01T  1  0.17226  0.10080  0.19965 11.00000  0.03499   5.10
C01U  1 -0.35100  0.66820  0.83320 11.00000  0.14555   5.08
C01V  1  0.48483  1.02521  0.26818 11.00000  0.05129   5.07
C01W  1  0.03200  0.28640  0.99772 11.00000  0.00010   5.03
C01X  1  0.88190  0.74731  0.25629 11.00000  0.08217   5.03
N01Y  2  0.16542  0.50314  0.66349 11.00000  0.08688   4.99
C01Z  1 -0.08237  0.38796  0.37800 11.00000  0.03041   4.85
C020  1  0.58299  0.86186  0.10162 11.00000  0.03173   4.77
C021  1 -0.44970  0.12907  0.85964 11.00000  0.06342   4.59
C022  1  0.26272  0.18891  0.51584 11.00000  0.01734   4.58
C023  1  0.03704  0.23854  0.14132 11.00000  0.02127   4.50
C024  1  0.12880  0.86119  0.74062 11.00000  0.05715   4.44
C025  1  0.05193  0.51538  0.47165 11.00000  0.02754   4.34
C026  1  0.48764  0.78087  0.53452 11.00000  0.04615   4.34
C027  1 -0.61600  0.01497  0.95492 11.00000  0.02916   4.23
C028  1 -0.13174  0.20684  0.86113 11.00000  0.10894   4.10
C029  1  0.09046  0.39811  0.11301 11.00000  0.01714   3.99
C02A  1 -0.40849  0.00350  0.97458 11.00000  0.04910   3.82
C02B  1  0.35333  0.57692  0.76657 11.00000  0.01072   3.81
C02C  1  0.44907  0.71882  0.42506 11.00000  0.00010   3.79
C02D  1  0.32993  0.58441  0.65992 11.00000  0.04418   3.65
C02E  1 -0.05883  0.11982  0.28901 11.00000  0.10431   3.63
C02F  1 -0.66788 -0.02456  0.83118 11.00000  0.07046   3.58
O02G  3 -0.08078  0.35857  0.63884 11.00000  0.14998   3.36
C02H  1  0.26431  0.60853  0.21249 11.00000  0.08081   3.29
C02I  1  0.80152  0.75986  0.21386 11.00000  0.01889   3.25
C02J  1 -0.10915  0.36320  0.70183 11.00000  0.08008   3.15
C02K  1 -0.29266  0.04943  0.77176 11.00000  0.13489   3.13
C02L  1  0.21659  0.04972  0.68454 11.00000  0.03496   3.12
C02M  1 -0.12575  0.33508  0.24148 11.00000  0.03387   3.04
HKLF 4
END
