TITL 25_a.res in P1
REM Old TITL 25 in P1
REM SHELXT solution in P1: R1 0.441, Rweak 0.345, Alpha 0.000
REM <I/s>   0.000 for    0 systematic absences,  Orientation as input
REM Flack x = -0.005 ( 1.385 ) from    46 Parsons' quotients
REM Formula found by SHELXT:  C47 N27 O16 Cl3

CELL  0.71073   4.8800  11.7300  19.9500   90.000   84.220   90.000
ZERR   15.000   0.0010   0.0023   0.0040    0.030    0.030    0.030
LATT -1
SFAC C N O CL
UNIT 15 15 15 15
L.S. 10
BOND
LIST 6
FMAP 2
PLAN 20
CL01  4  1.17047  0.01241  0.52371 11.00000  0.06817  16.92
CL02  4  1.11516  0.42632  0.91450 11.00000  0.10950  15.28
CL03  4  0.93385  0.47460  0.93846 11.00000  0.13444  13.92
O004  3 -0.47177  0.73286  0.28307 11.00000  0.07196  12.23
O005  3 -0.79845  1.00205  0.00961 11.00000  0.08258  11.87
O006  3  1.74538  0.25543  0.75578 11.00000  0.05134  11.62
N007  2  1.02703 -0.02970  0.59018 11.00000  0.02697  11.60
N008  2  1.31960  0.31577  0.95836 11.00000  0.02864  11.06
O009  3 -0.36678  0.49203  0.32400 11.00000  0.06668  10.39
O00A  3  0.57202  0.16321  0.49414 11.00000  0.06849  10.37
N00B  2  1.57161  0.29343  0.81094 11.00000  0.03533  10.27
N00C  2  0.14937  0.61255  0.45242 11.00000  0.06715  10.25
N00D  2 -0.61722  0.76458  0.24592 11.00000  0.04939   9.91
N00E  2  1.42661  0.19642  0.83917 11.00000  0.09477   9.88
O00F  3  1.96954  0.52229  0.81837 11.00000  0.08105   9.85
N00G  2  1.53423  0.18306  0.78437 11.00000  0.07663   9.51
N00H  2  1.31586  0.07838  0.55665 11.00000  0.01446   9.50
O00I  3  0.52826  0.87560  0.70333 11.00000  0.06468   9.48
O00J  3  0.64931  0.84554  0.59898 11.00000  0.06468   9.25
N00K  2  0.97810 -0.03764  0.48691 11.00000  0.07124   8.58
C00L  1  0.57005  0.65915  0.73983 11.00000  0.07325   8.56
N00M  2 -0.95663  1.04918  0.05128 11.00000  0.05206   8.25
O00N  3  0.56768  0.65210  0.89885 11.00000  0.02050   8.20
C00O  1  0.87750 -0.10324  0.48113 11.00000  0.02843   8.10
O00P  3  1.49966  0.21088  1.08174 11.00000  0.06275   8.10
N00Q  2  1.30016  0.33522  0.88483 11.00000  0.13001   8.04
N00R  2  0.36692  0.64068  0.67226 11.00000  0.07072   7.73
N00S  2  0.71731  0.17485  0.40046 11.00000  0.05229   7.67
O00T  3  1.06562  0.12029  0.74945 11.00000  0.07840   7.66
O00U  3  1.22101  0.13073  0.21484 11.00000  0.04166   7.65
O00V  3  0.90113  0.32099  0.54092 11.00000  0.11396   7.60
O00W  3  0.74455  0.98406  0.73361 11.00000  0.12624   7.60
O00X  3  0.75495  0.21819  0.53071 11.00000  0.08765   7.52
N00Y  2  1.50925  0.38358  0.15459 11.00000  0.05522   7.46
N00Z  2  1.00502  0.18542  0.66888 11.00000  0.03610   7.41
N010  2  0.90659  0.13147  0.28094 11.00000  0.04189   7.39
N011  2  0.43727  0.68571  0.77446 11.00000  0.05116   7.33
N012  2  0.20362  0.78532  0.89348 11.00000  0.04329   7.06
N013  2  0.27153  0.76184  0.85967 11.00000  0.04895   7.03
N014  2 -0.96729  0.99048 -0.02415 11.00000  0.04510   6.98
N015  2  0.23550  0.65227  0.51866 11.00000  0.01840   6.90
N016  2  0.26065  0.50612  0.70491 11.00000  0.02195   6.89
C017  1  0.32903  0.66479  0.48470 11.00000  0.00010   6.86
N018  2  0.51975  0.56717  0.60854 11.00000  0.06794   6.81
N019  2 -0.60796  0.94302  0.11394 11.00000  0.03266   6.78
N01A  2  0.51505  0.49240  0.44931 11.00000  0.08740   6.76
N01B  2  0.63739 -0.09657  0.47044 11.00000  0.03788   6.54
C01C  1  1.37584  0.35572  1.03292 11.00000  0.04482   6.44
C01D  1 -0.92664  1.05360  0.10294 11.00000  0.11306   6.42
C01E  1  1.59211  0.14758  0.83711 11.00000  0.05019   6.27
C01F  1  0.34780  0.54490  0.48280 11.00000  0.07408   6.24
C01G  1  0.73592  0.54713  0.66013 11.00000  0.06181   6.14
C01H  1  0.15847  0.89774  0.80328 11.00000  0.09993   6.10
C01I  1  1.10213  0.41497  0.17091 11.00000  0.11749   6.06
C01J  1  1.20892  0.26452  0.18898 11.00000  0.01980   5.98
C01K  1  0.81288  0.17918  0.35824 11.00000  0.03400   5.89
C01L  1 -0.40953  0.80223  0.02318 11.00000  0.08975   5.77
C01M  1  0.38895  0.57571  0.56406 11.00000  0.00760   5.65
C01N  1 -0.22070  0.58154  0.30009 11.00000  0.06656   5.52
C01O  1  0.06750  0.86053  0.85386 11.00000  0.02160   5.48
C01P  1  1.03976  0.23192  0.31549 11.00000  0.02620   5.38
C01Q  1  0.43878  0.76992  0.68608 11.00000  0.08642   5.38
C01R  1  0.06071  0.85515  0.31570 11.00000  0.02351   5.30
C01S  1 -0.80393  1.10324 -0.07232 11.00000  0.02843   5.24
C01T  1  0.02084  0.65842  0.36536 11.00000  0.10424   5.21
C01U  1  1.26919  0.22933  0.72911 11.00000  0.04242   5.10
C01V  1  0.61395  0.70000  0.81947 11.00000  0.02622   5.02
N01W  2  0.17742  0.69343  0.35705 11.00000  0.12768   4.83
C01X  1  1.16278  0.05162  0.61257 11.00000  0.00631   4.82
C01Y  1  0.92837  0.37864  0.43493 11.00000  0.05177   4.57
C01Z  1  0.28618  0.70900  0.73877 11.00000  0.06906   4.55
C020  1  1.75642  0.41077  0.75351 11.00000  0.06876   4.47
C021  1 -0.96954  0.73099  0.22575 11.00000  0.07252   4.23
C022  1  0.41160  0.44384  0.57577 11.00000  0.02361   4.17
C023  1 -0.51027  0.92503  0.07100 11.00000  0.04491   4.14
C024  1  0.50929  0.70115  0.59180 11.00000  0.13744   4.14
C025  1  0.67023  0.65414  0.86080 11.00000  0.04025   4.12
C026  1 -0.25663  0.85124  0.31802 11.00000  0.12807   4.05
C027  1  1.88580  0.59098  0.06032 11.00000  0.08957   3.72
C028  1  0.58148  0.68920  0.51744 11.00000  0.09481   3.60
C029  1 -0.29739  0.69251  0.33089 11.00000  0.04298   3.54
C02A  1  1.25674  0.34810  0.36662 11.00000  0.05904   3.40
O02B  3  0.55374  0.41428  0.62639 11.00000  0.06350   3.39
C02C  1  0.92750  0.37364  0.61901 11.00000  0.02492   3.37
C02D  1 -0.48302  0.83417  0.15591 11.00000  0.08020   3.36
C02E  1  1.07571  0.17181  0.57191 11.00000  0.00860   3.34
C02F  1 -0.02350  0.77102  0.84114 11.00000  0.11691   3.22
C02G  1  0.28198  0.52727  0.63829 11.00000  0.04006   3.19
C02H  1 -0.94298  1.01279 -0.08174 11.00000  0.10440   3.10
C02I  1  0.44677 -0.05550  0.43958 11.00000  0.15410   3.09
C02J  1  1.74213  0.19851  0.89242 11.00000  0.06471   3.07
C02K  1  1.46518  0.51032  0.13046 11.00000  0.06059   3.03
C02L  1  1.18946  0.33335  0.43460 11.00000  0.10980   3.03
HKLF 4
END
