TITL 28_a.res in P1
REM Old TITL 28 in P1
REM SHELXT solution in P1: R1 0.432, Rweak 0.308, Alpha 0.000
REM <I/s>   0.000 for    0 systematic absences,  Orientation as input
REM Flack x = -0.781 ( 0.743 ) from    84 Parsons' quotients
REM Formula found by SHELXT:  C50 N20 O25 Cl20

CELL  0.71073   4.8700  11.7400  20.5700   90.000   84.100   90.000
ZERR   16.000   0.0010   0.0023   0.0041    0.030    0.030    0.030
LATT -1
SFAC C N O CL
UNIT 16 16 16 16
L.S. 10
BOND
LIST 6
FMAP 2
PLAN 20
CL01  4 -0.78331  0.87471  0.27114 11.00000  0.07952  21.02
CL02  4  0.00463  0.35955  0.94282 11.00000  0.06481  20.52
CL03  4  1.63181  0.13387  0.71085 11.00000  0.09941  19.42
CL04  4  0.34870  0.32425  0.49636 11.00000  0.06248  18.08
CL05  4  0.48520  0.29735  0.46543 11.00000  0.07514  17.63
CL06  4 -0.63738  0.92775  0.04588 11.00000  0.08234  17.51
CL07  4 -0.43382  0.63871  0.29446 11.00000  0.07817  17.21
CL08  4  1.54897  0.12221  0.75426 11.00000  0.07426  16.38
CL09  4 -0.80960  0.82904  0.22266 11.00000  0.08145  15.54
CL0A  4  1.17066  0.27305  0.74186 11.00000  0.06695  15.28
CL0B  4 -0.65342  0.89611  0.24146 11.00000  0.06477  15.20
CL0C  4  0.32972  0.24212  0.42550 11.00000  0.11978  14.81
CL0D  4 -0.78474  0.98945  0.08428 11.00000  0.08282  14.60
CL0E  4 -0.67604  0.88221  0.14928 11.00000  0.08240  14.20
CL0F  4  0.77419  0.47132  0.66270 11.00000  0.09002  14.06
CL0G  4  1.24627  0.30255  0.23549 11.00000  0.10571  13.84
CL0H  4  0.38020  0.81867  0.67705 11.00000  0.09984  13.30
CL0I  4  0.69430  0.49598  0.70746 11.00000  0.05700  12.85
O00J  3  0.11537  0.75291  0.47767 11.00000  0.09234  12.15
CL0K  4 -0.92687  0.79309  0.00718 11.00000  0.11017  12.07
O00L  3 -0.07813  0.36161  0.97742 11.00000  0.03216  12.06
O00M  3  1.30088  0.03389  0.46429 11.00000  0.04834  12.01
O00N  3  1.26217  0.22377  0.81960 11.00000  0.03856  11.94
N00O  2 -0.54094  0.68172  0.34254 11.00000  0.00833  11.93
N00P  2  0.44069  0.17646  0.38393 11.00000  0.02172  11.79
O00Q  3 -0.32581  1.05286  0.50433 11.00000  0.07902  11.62
O00R  3 -0.22680  0.58042  0.25026 11.00000  0.02980  11.18
O00S  3 -0.36335  0.55665  0.31510 11.00000  0.02776  11.00
O00T  3  0.33943  0.67006  0.60638 11.00000  0.03406  10.97
N00U  2 -0.09417  0.50769  0.52058 11.00000  0.04159  10.86
O00V  3 -0.45031  0.84533  0.05075 11.00000  0.06196  10.82
O00W  3  0.21469  0.74340  0.70554 11.00000  0.06701  10.65
O00X  3  1.50659  0.29383  0.13288 11.00000  0.07053  10.60
O00Y  3  1.81133  0.08733  0.63001 11.00000  0.06231  10.55
CL0Z  4  0.23724  0.24552  0.59986 11.00000  0.14036  10.54
O010  3  0.95475  0.01220  0.26285 11.00000  0.04866  10.46
O011  3  1.02854  0.31096  0.71155 11.00000  0.00570   9.99
N012  2 -0.24276  0.65072  0.48114 11.00000  0.04237   9.80
C013  1  1.56863  0.40827  0.09768 11.00000  0.02327   9.58
O014  3  0.89291  0.68098  0.81731 11.00000  0.10403   9.34
O015  3  1.43276  0.18474  0.85487 11.00000  0.03760   9.26
O016  3  1.13736  0.51041  0.17827 11.00000  0.03918   9.20
N017  2  0.58010  0.54265  0.63947 11.00000  0.03448   9.07
O018  3  0.54857  0.60537  0.85233 11.00000  0.03830   8.84
N019  2  0.41673  0.60617  0.66524 11.00000  0.04525   8.82
O01A  3 -0.41880  1.00090  0.02455 11.00000  0.05245   8.51
N01B  2  0.05788  0.62146  0.49657 11.00000  0.04027   8.36
O01C  3  0.52375  0.41055  0.73532 11.00000  0.04127   8.36
N01D  2 -0.54510  0.95305  0.17353 11.00000  0.06695   8.31
N01E  2 -0.53288  0.71927  0.27909 11.00000  0.03151   8.21
N01F  2  0.97763  0.09502  0.35044 11.00000  0.06062   8.11
O01G  3 -0.01543  0.36668  0.47550 11.00000  0.03440   7.92
N01H  2  0.95153  0.16097  0.33296 11.00000  0.01533   7.91
N01I  2 -0.70918  0.85517  0.18520 11.00000  0.00236   7.64
O01J  3  0.73754  0.24594  0.31651 11.00000  0.06080   7.62
N01K  2 -0.06827  0.18332  0.52084 11.00000  0.07599   7.37
N01L  2  1.92687  0.08254  0.71735 11.00000  0.04151   7.21
N01M  2  1.69214  0.15056  0.91357 11.00000  0.03419   7.16
N01N  2  0.54979  0.19305  0.25868 11.00000  0.00010   7.00
N01O  2  1.14408  0.10501  0.29411 11.00000  0.03971   6.91
N01P  2  0.32566  0.39919  0.36839 11.00000  0.05023   6.85
O01Q  3  0.43844  0.85509  0.64011 11.00000  0.03735   6.85
N01R  2 -0.05592  0.77860  0.59209 11.00000  0.06404   6.79
O01S  3 -0.16359  0.33811  0.55807 11.00000  0.01478   6.59
C01T  1 -0.38130  0.96025  0.52779 11.00000  0.01315   6.57
C01U  1  0.92624  0.73884  0.89502 11.00000  0.01613   6.44
C01V  1 -0.21254  0.88691  0.55443 11.00000  0.04568   6.25
C01W  1 -0.47381  0.44616  0.23335 11.00000  0.05470   6.25
C01X  1  0.01831  0.44151  0.32582 11.00000  0.04992   6.22
C01Y  1  0.58493  0.46616  0.66016 11.00000  0.08969   6.14
C01Z  1 -0.26896  0.93278  0.49875 11.00000  0.03955   5.94
C020  1 -0.81946  0.93472  0.13377 11.00000  0.04246   5.92
C021  1  0.67010  0.19890  0.23431 11.00000  0.00946   5.85
C022  1  1.00849 -0.05286  0.38023 11.00000  0.04464   5.82
C023  1  0.60764  0.23095  0.42540 11.00000  0.02847   5.58
C024  1  1.02271  0.51777  0.77262 11.00000  0.01817   5.58
C025  1  0.11980  0.44983  0.99282 11.00000  0.07364   5.48
C026  1 -0.04322  0.49486  0.47028 11.00000  0.01463   5.43
C027  1 -0.15881  0.80346  0.57080 11.00000  0.01514   5.30
C028  1  0.60967  0.71485  0.86208 11.00000  0.02160   5.24
O029  3  0.95195  0.47043  0.87174 11.00000  0.06581   5.21
C02A  1 -0.43995  1.00425  0.57967 11.00000  0.05091   5.05
C02B  1  1.16545  0.07695  0.42442 11.00000  0.02849   5.02
C02C  1  0.95275  0.64489  0.74348 11.00000  0.00835   4.99
C02D  1 -0.45243  0.77627  0.32229 11.00000  0.07457   4.97
C02E  1  0.18988  0.73322  0.61959 11.00000  0.02714   4.93
C02F  1  1.26139  0.27034  0.03461 11.00000  0.03534   4.89
C02G  1  0.65744  0.60814  0.96039 11.00000  0.02806   4.87
C02H  1  0.77829  0.42618  0.77858 11.00000  0.06181   4.81
C02I  1 -0.14560  0.43765  0.28426 11.00000  0.00193   4.74
C02J  1  0.25444  0.67718  0.55965 11.00000  0.05805   4.73
C02K  1 -0.08593  0.83963  0.68495 11.00000  0.03289   4.70
C02L  1 -0.26400  0.68621  0.39595 11.00000  0.06092   4.56
C02M  1  0.93605  0.27861  0.18219 11.00000  0.02660   4.55
C02N  1  0.84351  0.11141  0.16528 11.00000  0.07494   4.50
C02O  1  0.10035  0.57106  0.38235 11.00000  0.02413   4.48
C02P  1  0.68769  0.59874  0.93212 11.00000  0.05069   4.39
C02Q  1  1.73242  0.09787  0.94165 11.00000  0.00010   4.34
C02R  1  0.86351  0.38937  0.15867 11.00000  0.01397   4.24
C02S  1  0.06981  0.60867  0.43478 11.00000  0.05523   4.23
C02T  1  0.67949  0.10435  0.35115 11.00000  0.06024   4.15
C02U  1  0.40891  0.57421  0.98215 11.00000  0.03921   4.07
C02V  1  0.76380  0.37607  0.85143 11.00000  0.02304   4.06
N02W  2  0.25071  0.46132  0.96198 11.00000  0.01114   3.95
C02X  1  0.79117  0.02413  0.10534 11.00000  0.01504   3.95
C02Y  1 -0.39681  0.94128  0.30846 11.00000  0.02012   3.85
C02Z  1  1.14770  0.22507  0.12672 11.00000  0.06457   3.79
C030  1 -0.08705  0.74994  0.31881 11.00000  0.02816   3.75
C031  1  1.14631  0.63661  0.81196 11.00000  0.07653   3.75
C032  1  1.31389  0.07159  0.80096 11.00000  0.05945   3.72
C033  1  1.05515  0.45105  0.68366 11.00000  0.01853   3.68
C034  1  1.77140  0.11399  0.87366 11.00000  0.06481   3.64
C035  1 -0.38246  0.51123  0.52391 11.00000  0.01405   3.61
C036  1  0.35048  0.88854  0.72524 11.00000  0.01633   3.59
C037  1  0.81907  0.49985  0.75298 11.00000  0.03435   3.57
HKLF 4
END
