TITL 29_a.res in P1
REM Old TITL 29 in P1
REM SHELXT solution in P1: R1 0.425, Rweak 0.415, Alpha 0.000
REM <I/s>   0.000 for    0 systematic absences,  Orientation as input
REM Flack x = -1.429 ( 0.770 ) from   124 Parsons' quotients
REM Formula found by SHELXT:  C55 N21 O15 Cl16

CELL  0.71073   4.8600  11.7500  20.3300   90.000   83.890   90.000
ZERR   15.000   0.0010   0.0023   0.0041    0.030    0.030    0.030
LATT -1
SFAC C N O CL
UNIT 15 15 15 15
L.S. 10
BOND
LIST 6
FMAP 2
PLAN 20
CL01  4  1.09732 -0.29411  0.35576 11.00000  0.07316  27.99
CL02  4  1.06141 -0.24992  0.39497 11.00000  0.12512  27.15
CL03  4  0.62266 -0.07681  0.31316 11.00000  0.05753  20.32
CL04  4  0.23453  0.43009  0.56898 11.00000  0.09533  19.08
CL05  4  0.78641  0.18842  0.39732 11.00000  0.08856  18.41
CL06  4  0.17706  0.38030  0.51683 11.00000  0.12748  17.87
CL07  4 -0.26006  0.21705  0.53596 11.00000  0.08301  16.30
CL08  4 -0.12987  0.01460  0.70756 11.00000  0.08864  15.33
CL09  4  0.92703 -0.18935  0.34657 11.00000  0.08426  14.92
CL0A  4  0.71950 -0.11293  0.37865 11.00000  0.07972  14.57
CL0B  4 -0.03352  0.34545  0.49055 11.00000  0.10917  14.43
CL0C  4  0.62046 -0.14527  0.18360 11.00000  0.10584  14.31
CL0D  4  0.33452  0.45536  0.62126 11.00000  0.10942  13.80
CL0E  4  0.02861  0.31631  0.43581 11.00000  0.11169  13.07
C00F  1  0.47290 -0.05713  0.63192 11.00000  0.01920  13.01
CL0G  4  0.09236 -0.31617  0.57128 11.00000  0.10549  12.80
CL0H  4  0.75923 -0.12059  0.27523 11.00000  0.07418  12.63
O00I  3  0.81205  0.63807  0.70866 11.00000  0.03723  12.00
O00J  3 -0.14879  0.61251  0.13838 11.00000  0.07271  11.79
C00K  1  0.38420  0.57906  0.25712 11.00000  0.01444  11.24
O00L  3  0.42820 -0.15234  0.15310 11.00000  0.10402  10.57
O00M  3  0.47287  0.51361  0.54932 11.00000  0.06102   9.93
N00N  2  0.53126  0.38847  0.38343 11.00000  0.03828   9.73
O00O  3  0.46664  0.32763  0.46735 11.00000  0.04867   9.35
N00P  2  0.61096  0.55310  0.62432 11.00000  0.03605   9.22
N00Q  2  0.25589 -0.01957  0.52975 11.00000  0.06444   9.12
O00R  3  0.88287  0.72502  0.79150 11.00000  0.05681   8.88
O00S  3  0.76314 -0.21531  0.41329 11.00000  0.19333   8.85
C00T  1  0.22401 -0.33873  0.52252 11.00000  0.04393   8.70
O00U  3  0.20218  0.03854  0.42185 11.00000  0.02527   8.45
O00V  3 -0.11189  0.08762  0.22305 11.00000  0.16701   8.13
O00W  3 -0.12408  0.42722  0.10934 11.00000  0.08688   8.05
N00X  2 -0.04524  0.08210  0.33080 11.00000  0.00713   7.96
N00Y  2  0.54780 -0.07968  0.40748 11.00000  0.04078   7.87
O00Z  3  0.22131 -0.05993  0.62338 11.00000  0.03963   7.74
N010  2  0.46053 -0.00062  0.36934 11.00000  0.09021   7.73
O011  3  0.32115  0.52897  0.20703 11.00000  0.03918   7.70
N012  2  0.24697  0.28210  0.14767 11.00000  0.04837   7.69
N013  2  0.07965  0.35750  0.62418 11.00000  0.06022   7.49
N014  2 -0.00265  0.05219  0.76240 11.00000  0.07016   7.44
N015  2  0.53855  0.45786  0.30119 11.00000  0.04620   7.33
N016  2  0.89946  0.94136  0.98793 11.00000  0.03022   7.16
N017  2  0.66457  0.31752  0.32817 11.00000  0.03797   7.07
N018  2  0.06169  0.25532  0.28538 11.00000  0.02751   7.06
N019  2  0.33398  0.58247 -0.03913 11.00000  0.03691   6.99
N01A  2  0.36765  0.05274  0.21931 11.00000  0.05372   6.97
N01B  2  0.18345  0.40757  0.18420 11.00000  0.06439   6.90
N01C  2 -0.31487  0.61949  0.05392 11.00000  0.08940   6.74
N01D  2  0.60221  0.36346  0.45055 11.00000  0.06008   6.69
N01E  2  0.44989  0.25354  0.28042 11.00000  0.04090   6.64
N01F  2  0.36265 -0.01042  0.30083 11.00000  0.03334   6.52
C01G  1  0.33380  0.09198  0.50998 11.00000  0.04839   6.47
C01H  1  0.11958  0.14068  0.25753 11.00000  0.05754   6.33
C01I  1  0.44473  0.02805  0.52618 11.00000  0.04751   6.30
C01J  1 -0.30176  0.13573  0.51992 11.00000  0.12596   6.25
C01K  1  0.72696 -0.07033  0.62445 11.00000  0.03175   6.22
C01L  1  0.91019  0.83523  0.91962 11.00000  0.04290   6.15
C01M  1  1.30339  1.20607  0.93867 11.00000  0.08430   5.93
C01N  1  0.77897  0.26913  0.34028 11.00000  0.01414   5.87
C01O  1  0.67457  0.29422  0.76980 11.00000  0.03137   5.82
O01P  3  0.20976 -0.16080  0.73676 11.00000  0.03329   5.71
C01Q  1  0.12148  0.54333  0.62740 11.00000  0.09358   5.65
C01R  1  1.01834  0.53683  0.73595 11.00000  0.05034   5.59
C01S  1  0.22074  0.10552  0.20052 11.00000  0.01057   5.57
C01T  1  0.54081  0.26223  0.24532 11.00000  0.01455   5.56
C01U  1 -0.04619  0.16280  0.59155 11.00000  0.02438   5.56
C01V  1  0.53558  0.23683  0.78494 11.00000  0.05695   5.54
C01W  1  0.01848  0.09772  0.49549 11.00000  0.07583   5.52
C01X  1  0.91163 -0.08195  0.18060 11.00000  0.07684   5.48
C01Y  1 -0.25219  0.52163 -0.05093 11.00000  0.12659   5.38
C01Z  1 -0.12069 -0.32394  0.54871 11.00000  0.02930   5.33
C020  1  0.31462 -0.17474  0.71249 11.00000  0.02238   5.17
O021  3  0.33235 -0.30416  0.49335 11.00000  0.03567   5.11
C022  1  0.80446  0.50727  0.58865 11.00000  0.07894   4.93
C023  1  0.82363  0.43820  0.76215 11.00000  0.04072   4.92
O024  3 -0.09916  0.17506  0.79717 11.00000  0.06205   4.88
C025  1  0.28621  0.15073  0.25609 11.00000  0.01817   4.84
C026  1  0.11769  0.50744 -0.10209 11.00000  0.06094   4.78
C027  1 -0.37793  0.36996 -0.07515 11.00000  0.01392   4.76
C028  1  0.19085  0.24583  0.75751 11.00000  0.02674   4.63
C029  1  0.44624  0.42592  0.34464 11.00000  0.03812   4.62
N02A  2  0.68653  0.28835  0.14925 11.00000  0.06604   4.59
C02B  1  0.07352  0.57372  0.14870 11.00000  0.10365   4.47
C02C  1  0.51494  0.06213  0.46925 11.00000  0.00307   4.38
C02D  1  0.39418 -0.08689  0.14024 11.00000  0.06602   4.37
C02E  1  0.94252  1.15939  0.99682 11.00000  0.05622   4.34
C02F  1  0.64784 -0.00097  0.43002 11.00000  0.02000   4.31
C02G  1 -0.39080  0.41463 -0.01211 11.00000  0.01719   4.26
C02H  1  0.78898 -0.00880  0.44668 11.00000  0.02963   4.19
C02I  1  0.04126  0.12464  0.30635 11.00000  0.00914   4.16
C02J  1  0.20694 -0.05453  0.79679 11.00000  0.04214   4.12
C02K  1 -0.37298 -0.04970  0.73373 11.00000  0.03975   4.12
C02L  1  0.38402  0.30479  0.27383 11.00000  0.05983   4.09
C02M  1  1.27662  1.04073  1.01341 11.00000  0.01841   3.98
C02N  1  0.21686  0.35227  0.13013 11.00000  0.02981   3.96
C02O  1  1.39080  0.92069  1.00175 11.00000  0.03850   3.91
C02P  1  0.41793 -0.17062  0.50194 11.00000  0.03613   3.87
C02Q  1  0.51014  0.50921  0.72374 11.00000  0.05921   3.81
C02R  1  0.54853  0.28294  0.68164 11.00000  0.09645   3.75
C02S  1 -0.02583  0.17505  0.87867 11.00000  0.02069   3.73
C02T  1  1.20890  1.09369  0.95972 11.00000  0.00155   3.66
C02U  1  0.76370  1.12832  1.01944 11.00000  0.05910   3.64
C02V  1  1.06520  1.33873  0.99771 11.00000  0.11375   3.61
C02W  1  0.69518  0.35684  0.22337 11.00000  0.09111   3.61
C02X  1  1.16178  0.75076  0.85898 11.00000  0.02607   3.58
C02Y  1  0.89015  1.11446  0.98849 11.00000  0.03817   3.52
C02Z  1  0.50106  1.11587  1.10209 11.00000  0.03937   3.39
HKLF 4
END
