TITL 3_a.res in P1
REM Old TITL 3 in P1
REM SHELXT solution in P1: R1 0.328, Rweak 0.433, Alpha 0.000
REM <I/s>   0.000 for    0 systematic absences,  Orientation as input
REM Flack x = -0.404 ( 0.597 ) from   223 Parsons' quotients
REM Formula found by SHELXT:  C40 N13 O29 Cl5

CELL  0.71073   4.8500  11.6200  19.6700   90.000   83.350   90.000
ZERR   15.000   0.0010   0.0023   0.0039    0.030    0.030    0.030
LATT -1
SFAC C N O CL
UNIT 15 15 15 15
L.S. 10
BOND
LIST 6
FMAP 2
PLAN 20
CL01  4  0.51094  0.18316  0.39370 11.00000  0.05456  17.49
CL02  4  0.22180  0.20842  0.32034 11.00000  0.06211  14.60
CL03  4 -0.06145 -0.03007  0.29416 11.00000  0.06031  13.78
CL04  4  0.89029  0.81728  0.69133 11.00000  0.08206  13.21
C005  1  0.82342  0.01519  0.51244 11.00000  0.00010  13.14
CL06  4 -0.38488  1.05337  1.09291 11.00000  0.07426  12.57
N007  2  1.03610  0.86769  0.72330 11.00000  0.00010  12.46
N008  2  0.37024  0.25127  0.38493 11.00000  0.00872  11.92
N009  2  1.08574  0.99772  0.72497 11.00000  0.01255  11.74
O00A  3  0.37092  0.57050  0.55149 11.00000  0.01661  11.57
O00B  3  0.64716  0.06791  0.48956 11.00000  0.02144  10.97
O00C  3  0.18843  1.05421  1.02508 11.00000  0.00834  10.86
O00D  3 -0.21384  1.01036  1.13098 11.00000  0.03168  10.65
O00E  3  0.77616 -0.28904  0.29268 11.00000  0.04735   9.68
O00F  3  0.27697 -0.11790  0.34919 11.00000  0.06480   9.60
O00G  3  0.25354  0.52506  0.66125 11.00000  0.07956   9.47
O00H  3  1.10268  1.03240  0.66826 11.00000  0.04154   9.46
O00I  3  0.33093  1.26619  0.93149 11.00000  0.03003   9.32
N00J  2  0.59428  1.18283  0.93341 11.00000  0.00010   9.18
O00K  3  0.42875 -0.12039  0.42333 11.00000  0.03411   9.09
O00L  3 -0.29897  0.56637  0.44708 11.00000  0.01735   9.00
C00M  1  0.73296  0.46386  0.05679 11.00000  0.01942   8.97
O00N  3  0.95420  0.67339 -0.13098 11.00000  0.00783   8.81
O00O  3  0.15865 -0.01016  0.39336 11.00000  0.02181   8.79
N00P  2  0.79621  0.61013  0.11079 11.00000  0.00175   8.78
O00Q  3  1.03883  0.47067  0.10703 11.00000  0.02440   8.70
O00R  3  0.88215  0.92991  0.79852 11.00000  0.02030   8.51
C00S  1  0.10421  0.70583  0.57333 11.00000  0.02324   8.36
O00T  3  0.69744  0.65005  0.62371 11.00000  0.04317   8.34
O00U  3  0.31603  0.46170  0.55388 11.00000  0.07154   8.10
O00V  3  0.22040  1.03399  0.95316 11.00000  0.01677   8.05
N00W  2  0.79686  1.23932  0.82294 11.00000  0.00224   8.04
O00X  3 -0.63474  0.74522  1.11520 11.00000  0.03091   8.03
O00Y  3  0.56000  0.95639  0.96180 11.00000  0.02971   7.91
O00Z  3  0.60084  0.38613  0.20486 11.00000  0.04742   7.84
O010  3  0.50519  1.40825  0.94845 11.00000  0.03190   7.72
O011  3  0.09016  1.00313  1.08998 11.00000  0.02018   7.72
O012  3  0.21222 -0.28302  0.27389 11.00000  0.02321   7.52
O013  3  0.86488 -0.40825  0.33331 11.00000  0.01888   7.44
N014  2  0.48691 -0.17055  0.26694 11.00000  0.09595   7.31
O015  3  0.53981  0.34269  0.09772 11.00000  0.06309   7.29
N016  2  0.53415  0.62421  0.61756 11.00000  0.05639   7.03
N017  2  0.42916 -0.08538  0.50259 11.00000  0.01134   6.83
N018  2 -0.13026  0.03741  0.39662 11.00000  0.04189   6.80
N019  2  0.63699  0.21805  0.52884 11.00000  0.05510   6.77
N01A  2  0.60570  0.58322  0.19094 11.00000  0.05842   6.64
O01B  3  0.07969  0.65537  0.50210 11.00000  0.05706   6.62
N01C  2  0.87969  0.39556  0.13514 11.00000  0.00778   6.57
C01D  1  0.41030  0.24418  0.23556 11.00000  0.00585   6.47
C01E  1  0.26676  0.74662  0.49193 11.00000  0.01031   6.44
C01F  1  0.89836  0.98547  0.86365 11.00000  0.00442   6.26
C01G  1 -0.33573  0.45982  0.45429 11.00000  0.05064   6.08
C01H  1 -0.21657  0.72043  0.41334 11.00000  0.02070   6.00
C01I  1 -0.12086  0.39719  0.36546 11.00000  0.01045   5.99
C01J  1  0.59731  1.14499  0.87473 11.00000  0.00010   5.92
C01K  1  0.54921  0.58935  0.14220 11.00000  0.03684   5.90
C01L  1  0.63209  0.93979  0.87263 11.00000  0.04173   5.75
C01M  1  1.63474  1.10278  0.62531 11.00000  0.02221   5.66
C01N  1  0.08430  0.37326  0.39521 11.00000  0.00010   5.63
C01O  1  0.19526  1.38382  0.83917 11.00000  0.00478   5.60
C01P  1  1.44556  0.94141  0.69398 11.00000  0.00763   5.51
C01Q  1  0.61659  0.57977 -0.00150 11.00000  0.01162   5.44
C01R  1  0.77793  1.23156  0.86017 11.00000  0.01408   5.40
C01S  1  0.36934  0.22264  0.45846 11.00000  0.00409   5.32
C01T  1  1.22992  1.10959  0.80930 11.00000  0.00578   5.11
C01U  1  0.17014  0.10051  0.41609 11.00000  0.03245   5.03
C01V  1  0.80822  0.48617  0.11359 11.00000  0.05949   4.99
C01W  1  0.54147  0.66445  0.68270 11.00000  0.03397   4.98
C01X  1 -0.27494  0.84890  1.09972 11.00000  0.01192   4.95
C01Y  1 -0.52377  0.51862  0.41338 11.00000  0.03593   4.94
C01Z  1  1.41299  1.05159  0.69891 11.00000  0.00400   4.90
C020  1  0.07116  0.37626  0.23497 11.00000  0.05402   4.80
C021  1  0.59967  0.63110  0.74338 11.00000  0.04591   4.58
C022  1  0.86628  0.33680  0.57001 11.00000  0.08729   4.58
C023  1  0.53335  0.78991  0.75127 11.00000  0.01413   4.42
C024  1  0.60636  0.43670  0.57629 11.00000  0.03400   4.32
O025  3  0.26355  0.23671  0.21790 11.00000  0.03059   4.27
C026  1  1.01311  1.15637  0.84749 11.00000  0.02981   4.26
O027  3  0.82290  0.37680  0.05337 11.00000  0.06989   4.18
C028  1  0.02947  0.67211  0.41368 11.00000  0.08756   4.05
C029  1  0.70342 -0.19821  0.20116 11.00000  0.01753   4.01
C02A  1  1.03538  0.20649  0.54004 11.00000  0.01138   3.67
C02B  1  0.59664  0.12358  0.32627 11.00000  0.00855   3.58
C02C  1  0.30832  1.20784  1.03082 11.00000  0.08049   3.29
C02D  1  1.28242  1.11199  0.62303 11.00000  0.03790   3.15
C02E  1  0.67181  0.31711  0.27075 11.00000  0.04250   3.11
C02F  1  1.25929  0.92318  0.68072 11.00000  0.01609   3.04
HKLF 4
END
