TITL 5_a.res in P1
REM Old TITL 5 in P-1
REM SHELXT solution in P1: R1 0.385, Rweak 0.193, Alpha 0.000
REM <I/s>   0.000 for    0 systematic absences,  Orientation as input
REM Flack x = -7.304 ( 8.975 ) from   237 Parsons' quotients
REM Formula found by SHELXT:  C58 N11 O10

CELL  0.71073   4.8400  11.6000  19.6200   90.000   83.380   90.000
ZERR   15.000   0.0010   0.0023   0.0039    0.030    0.030    0.030
LATT -1
SFAC C N O CL
UNIT 15 15 15 15
L.S. 10
BOND
LIST 6
FMAP 2
PLAN 20
O001  3 -0.15028  0.53909  0.23610 11.00000  0.02286  10.42
N002  2  0.18587  0.42645  0.36326 11.00000  0.04553   9.56
O003  3  0.28938  0.33035  0.18141 11.00000  0.06215   9.33
N004  2  0.46491  0.50555  0.38688 11.00000  0.04234   9.31
O005  3  1.15372  0.04029  0.50580 11.00000  0.04650   8.82
O006  3 -0.41598  0.74876  0.11396 11.00000  0.03249   8.76
C007  1  0.02455  0.48215  0.85186 11.00000  0.03926   8.39
C008  1  0.53839  0.52620  0.42399 11.00000  0.00835   8.25
O009  3  0.37103  0.37438  0.25988 11.00000  0.09529   8.24
O00A  3 -0.22099  0.21952  0.31339 11.00000  0.05072   8.22
N00B  2 -0.05507  0.37408  0.41279 11.00000  0.02324   7.97
O00C  3 -0.20013  0.90718  0.34398 11.00000  0.06046   7.56
O00D  3  0.52697  0.55113  0.32722 11.00000  0.01992   7.44
N00E  2  0.32516  0.42931  0.67781 11.00000  0.02828   7.37
N00F  2  0.30318  0.45197  0.18956 11.00000  0.02869   7.37
O00G  3 -0.30512  0.24726  0.27403 11.00000  0.05274   7.32
C00H  1 -0.19509  0.87011  0.29025 11.00000  0.07166   7.32
N00I  2  0.50890  0.56766  0.49339 11.00000  0.08292   7.28
N00J  2  0.14538  0.62019  0.10633 11.00000  0.02611   6.74
N00K  2  0.58759  0.19659  0.15062 11.00000  0.03396   6.71
C00L  1  0.49345  0.11871  0.40986 11.00000  0.00142   6.44
C00M  1  0.49025  0.19929  0.53277 11.00000  0.01622   6.38
C00N  1 -0.21441  0.82519  0.20345 11.00000  0.04181   6.35
C00O  1 -0.26254  0.26233  0.81261 11.00000  0.03918   6.22
C00P  1  0.41397  0.52499  0.75139 11.00000  0.03468   6.20
N00Q  2  0.21160  0.76218  0.50080 11.00000  0.07283   6.15
C00R  1 -0.04981  0.09794  0.28621 11.00000  0.03508   6.03
C00S  1  0.16162  0.58740  0.68007 11.00000  0.03161   6.03
C00T  1  1.34177 -0.00812  0.51410 11.00000  0.04071   5.83
C00U  1 -0.23261  0.41749  0.23832 11.00000  0.03554   5.83
C00V  1 -0.79707 -0.06197  0.85970 11.00000  0.06690   5.76
C00W  1  0.31941  0.45837  0.46430 11.00000  0.01728   5.66
C00X  1  0.32661  0.70065  0.79721 11.00000  0.04886   5.59
C00Y  1  0.25873  0.38267  0.11837 11.00000  0.03274   5.59
C00Z  1  0.56369  0.37543  0.49218 11.00000  0.04210   5.59
O010  3 -0.02966  0.34789  0.92092 11.00000  0.04727   5.49
C011  1 -0.32185  0.28540  0.67550 11.00000  0.03253   5.48
C012  1 -0.50917  0.21161  0.65149 11.00000  0.04030   5.43
C013  1  0.39742  0.62258  0.54308 11.00000  0.06956   5.20
C014  1 -0.48416  0.70468  0.06003 11.00000  0.04395   5.19
C015  1  1.02571  0.71151  0.37377 11.00000  0.02467   5.17
N016  2  0.06969  0.54178  0.92940 11.00000  0.07703   5.14
C017  1 -0.49876 -0.02546  0.77771 11.00000  0.03646   5.14
C018  1  0.08649  0.43251  0.44976 11.00000  0.04602   5.13
C019  1  0.38499  0.17689  0.06556 11.00000  0.02643   5.06
C01A  1  0.36331  0.34492  0.36647 11.00000  0.00081   5.05
C01B  1  0.66978  0.65765  0.42927 11.00000  0.05813   5.00
C01C  1 -0.05449  0.31832  0.45955 11.00000  0.02689   4.83
C01D  1 -0.31782  0.39220  0.99684 11.00000  0.02759   4.79
C01E  1 -0.03100  1.00758  0.13394 11.00000  0.04110   4.75
C01F  1  1.39025  0.00330  0.60149 11.00000  0.02914   4.75
C01G  1  0.05597  0.18465  0.06532 11.00000  0.09451   4.63
C01H  1 -0.59164  0.91254  0.13398 11.00000  0.03785   4.55
C01I  1  0.06599  0.55259  0.18266 11.00000  0.06532   4.55
C01J  1  0.33710  0.24529  0.39538 11.00000  0.10674   4.53
C01K  1  1.20728  0.86459  0.37257 11.00000  0.02248   4.50
C01L  1 -0.02331  0.38407  0.30983 11.00000  0.06317   4.47
C01M  1  1.79707 -0.08049  0.64666 11.00000  0.03283   4.46
C01N  1 -0.21711  0.30904  0.89318 11.00000  0.03242   4.44
C01O  1 -0.17298  0.64027  0.08224 11.00000  0.03039   4.34
C01P  1 -0.25969  0.33504  0.73005 11.00000  0.08736   4.32
C01Q  1  0.62917  0.59597  0.65631 11.00000  0.01988   4.30
C01R  1  0.21201  0.56406  0.62764 11.00000  0.03942   4.30
C01S  1  0.03896  0.48499  0.54619 11.00000  0.04098   4.20
C01T  1  0.60966  0.49868  0.56722 11.00000  0.04620   4.11
C01U  1  0.25706  0.36475  0.65359 11.00000  0.06856   3.82
C01V  1 -0.36163  0.98714  0.10790 11.00000  0.04869   3.81
C01W  1  0.29449  0.04659  0.37616 11.00000  0.06389   3.79
C01X  1  0.24654  0.63509  0.97458 11.00000  0.04490   3.73
C01Y  1  0.06871  0.89604  0.19710 11.00000  0.12709   3.71
C01Z  1 -0.05283  0.38376  0.78133 11.00000  0.09860   3.69
C020  1 -0.48219  0.13886  0.71464 11.00000  0.05218   3.68
C021  1 -0.08495  0.14674  0.00316 11.00000  0.04710   3.60
C022  1  0.35286  0.57980  0.83722 11.00000  0.05183   3.58
C023  1 -0.06306  0.58874  0.74604 11.00000  0.02662   3.42
C024  1  0.62124  0.48737  0.49117 11.00000  0.01124   3.34
N025  2  0.01316  1.08049  0.17594 11.00000  0.09067   3.26
C026  1  0.85476  0.09911  0.54692 11.00000  0.05679   3.24
C027  1  0.21181  0.74639  0.62731 11.00000  0.06246   3.04
HKLF 4
END
