TITL 6_a.res in P1
REM Old TITL 6 in P-1
REM SHELXT solution in P1: R1 0.404, Rweak 0.171, Alpha 0.000
REM <I/s>   0.000 for    0 systematic absences,  Orientation as input
REM Flack x =  0.099 ( 0.630 ) from   215 Parsons' quotients
REM Formula found by SHELXT:  C47 N22 O12 Cl3

CELL  0.71073   4.8800  11.5400  19.7600   90.000   83.810   90.000
ZERR   15.000   0.0010   0.0023   0.0040    0.030    0.030    0.030
LATT -1
SFAC C N O CL
UNIT 15 15 15 15
L.S. 10
BOND
LIST 6
FMAP 2
PLAN 20
CL01  4  1.01485  0.42751  0.45270 11.00000  0.09125  13.07
CL02  4  0.97371  0.38708  0.39164 11.00000  0.08703  12.65
N003  2  0.72509  0.25926  0.24266 11.00000  0.03265  11.01
O004  3  0.88072  0.77211  0.75308 11.00000  0.01778  10.94
N005  2  0.70964  0.49267  0.71678 11.00000  0.01214  10.92
CL06  4  0.30661  0.01135  0.00063 11.00000  0.06695  10.50
N007  2  0.32879  0.63496  0.71032 11.00000  0.02146  10.29
O008  3  0.91305  0.81811  0.79748 11.00000  0.03196   9.47
C009  1  0.68703  0.46146  0.68163 11.00000  0.00010   9.32
O00A  3  0.64721  0.89571  0.71049 11.00000  0.02733   9.27
O00B  3  0.47871  0.20879  0.52243 11.00000  0.03921   9.03
C00C  1  0.63309  0.97878  0.55412 11.00000  0.05825   8.84
N00D  2  0.87855  0.32030  0.35290 11.00000  0.01369   8.77
O00E  3  0.38876  0.81689  0.36503 11.00000  0.04057   8.67
N00F  2  0.83985  0.28620  0.27662 11.00000  0.01827   8.53
O00G  3  0.39523  0.07636  0.06462 11.00000  0.03877   8.49
O00H  3  1.15833  0.49526  0.54109 11.00000  0.03398   8.46
N00I  2  0.89313  0.52362  0.64317 11.00000  0.02816   8.29
O00J  3  0.27785  0.17456  0.29743 11.00000  0.06344   8.18
O00K  3  0.76071  0.91238  0.57604 11.00000  0.08683   7.69
O00L  3 -0.32475  0.65290  0.31216 11.00000  0.07336   7.65
O00M  3  0.75140  0.98865  0.48024 11.00000  0.06770   7.47
N00N  2  0.53252  0.53064  0.65475 11.00000  0.03813   7.23
N00O  2  0.72423  0.30112  0.72964 11.00000  0.02848   7.16
N00P  2  0.96362  0.11626  0.74961 11.00000  0.07653   7.14
N00Q  2  0.58502  0.75811  0.48212 11.00000  0.03237   7.03
N00R  2  0.85687  0.35830  0.80038 11.00000  0.03877   6.98
N00S  2  0.32556  0.11176  0.42072 11.00000  0.06613   6.95
N00T  2  0.60345  0.13779  0.18398 11.00000  0.07412   6.89
N00U  2  0.54627  0.31963  0.64521 11.00000  0.03194   6.82
N00V  2  0.17451  0.74120  0.10701 11.00000  0.02521   6.81
N00W  2  0.69736  0.46746  0.78320 11.00000  0.03361   6.71
N00X  2  0.82313  0.39133  0.28057 11.00000  0.04914   6.63
C00Y  1  0.27479  0.76295  0.27061 11.00000  0.04259   6.57
N00Z  2  0.20636  0.70621  0.83601 11.00000  0.06411   6.56
N010  2 -0.04446  0.76554  0.18739 11.00000  0.03100   6.53
C011  1  1.18822  0.46170  0.70889 11.00000  0.02067   6.45
N012  2  1.10668  0.06990  0.77848 11.00000  0.03191   6.17
C013  1  0.71922  0.49534  0.59552 11.00000  0.06006   6.16
O014  3 -0.00038  0.82220  0.29887 11.00000  0.03697   6.07
C015  1  1.32475  0.13971  0.90426 11.00000  0.04015   6.06
C016  1  0.63484  0.26038  0.59872 11.00000  0.02379   6.03
C017  1  1.02662  0.24841  0.10522 11.00000  0.03477   5.99
C018  1  0.11747  0.63452  0.72841 11.00000  0.01846   5.91
C019  1  1.08491  0.38396  0.34892 11.00000  0.01313   5.88
C01A  1  0.38084  0.44151  0.83332 11.00000  0.06090   5.88
C01B  1  0.52588  0.33464  0.47703 11.00000  0.02201   5.88
C01C  1  0.47327  0.55569  0.71603 11.00000  0.00512   5.85
C01D  1  0.56097  0.55372  0.78301 11.00000  0.08620   5.82
C01E  1  0.55270  0.49557  0.05978 11.00000  0.05945   5.68
C01F  1  1.10998  0.04858  0.70515 11.00000  0.04445   5.66
C01G  1  0.55963  0.37482  0.95457 11.00000  0.03111   5.63
C01H  1  0.78693  0.85019  0.87478 11.00000  0.02084   5.63
C01I  1  0.95988  0.82301  0.45290 11.00000  0.02511   5.56
N01J  2  0.92047  0.41924  0.64943 11.00000  0.05143   5.47
C01K  1  1.11017  0.37719  0.63105 11.00000  0.06220   5.46
C01L  1  0.51331  0.74171  0.57976 11.00000  0.10478   5.42
N01M  2 -0.03321  0.68061  0.99937 11.00000  0.04989   5.29
C01N  1  0.91007  0.59003  0.57322 11.00000  0.01602   5.26
C01O  1  0.42627  0.88560  0.24932 11.00000  0.04574   5.20
C01P  1  0.36579  0.66716  0.44199 11.00000  0.04668   5.19
C01Q  1  0.76907  0.19415  0.10553 11.00000  0.00941   5.14
C01R  1  0.36543  0.97549  0.60577 11.00000  0.01364   5.11
C01S  1  0.85757  0.56673  0.71066 11.00000  0.03065   5.11
C01T  1  0.50558  0.49773  0.85294 11.00000  0.04266   5.03
C01U  1  0.77067  0.07888  0.67258 11.00000  0.04080   4.83
C01V  1  0.33370  0.42237  0.12891 11.00000  0.06737   4.80
C01W  1  0.20469  0.09985  0.14918 11.00000  0.01834   4.57
C01X  1  0.41548  0.52757  0.16017 11.00000  0.02371   4.55
C01Y  1  0.35629  0.63992  0.91064 11.00000  0.06188   4.53
C01Z  1  0.61722  0.70487  0.80487 11.00000  0.05850   4.52
C020  1  0.64618  0.91877  0.77882 11.00000  0.12239   4.49
C021  1  0.81004  0.58705  0.76288 11.00000  0.01794   4.43
C022  1  0.55153  0.23731  0.30578 11.00000  0.03473   4.42
C023  1  0.62361  0.43748  0.18217 11.00000  0.02821   4.40
C024  1  0.22153  0.68255  0.65538 11.00000  0.00010   4.18
C025  1  0.43518  0.06338  0.15679 11.00000  0.06536   4.16
C026  1  0.93753  0.25952  0.72103 11.00000  0.03678   3.97
C027  1  1.10075  0.55405  0.61269 11.00000  0.06682   3.87
C028  1  0.98674  0.42799  0.56763 11.00000  0.02661   3.61
C029  1  1.17204  0.07390  0.83331 11.00000  0.05037   3.49
C02A  1  1.03133  0.24584  0.89388 11.00000  0.04463   3.43
C02B  1  0.83041  0.30262  0.57436 11.00000  0.05906   3.40
C02C  1  0.89488  0.38755  0.70178 11.00000  0.04023   3.15
HKLF 4
END
