TITL 7_a.res in P1
REM Old TITL 7 in P1
REM SHELXT solution in P1: R1 0.325, Rweak 0.546, Alpha 0.000
REM <I/s>   0.000 for    0 systematic absences,  Orientation as input
REM Flack x = -0.792 ( 0.838 ) from   223 Parsons' quotients
REM Formula found by SHELXT:  C50 N11 O16 Cl

CELL  0.71073   4.8600  11.6600  19.5500   90.000   83.640   90.000
ZERR   15.000   0.0010   0.0023   0.0039    0.030    0.030    0.030
LATT -1
SFAC C N O CL
UNIT 15 15 15 15
L.S. 10
BOND
LIST 6
FMAP 2
PLAN 20
CL01  4  1.03139  0.30086  0.48117 11.00000  0.11583  12.61
O002  3  0.17523  0.71245  0.16408 11.00000  0.08245  10.58
N003  2  0.69083  0.99728  0.99332 11.00000  0.04847  10.57
O004  3  0.40428  0.44398  0.92184 11.00000  0.07333   9.95
C005  1  1.15002  0.57351  0.43631 11.00000  0.02329   9.58
O006  3 -0.58891 -0.20328  0.24458 11.00000  0.07427   9.08
O007  3  1.35683  0.90795  0.44708 11.00000  0.08878   8.65
O008  3  1.41574  1.05307  0.51598 11.00000  0.10899   8.65
N009  2  1.34300  0.64723  0.68114 11.00000  0.05056   8.56
O00A  3  1.18602  0.93441  0.80320 11.00000  0.08643   8.24
O00B  3  0.52393  1.07532  0.97176 11.00000  0.06714   8.24
O00C  3  0.37070  0.28826  0.34429 11.00000  0.04864   7.77
O00D  3  0.72351  0.46711  0.33832 11.00000  0.08975   7.61
N00E  2  0.00383  0.07258  0.14762 11.00000  0.03088   7.58
O00F  3  1.12060  0.86456  0.40767 11.00000  0.05385   7.57
C00G  1  0.70420  0.39124  0.56835 11.00000  0.04045   7.50
C00H  1  0.90878  0.54984  0.80230 11.00000  0.08464   7.50
N00I  2  0.80241  1.10152  1.02830 11.00000  0.03082   7.47
C00J  1  0.80628  0.52945  1.01183 11.00000  0.08561   7.40
O00K  3  0.51476  0.83196  0.09972 11.00000  0.02586   7.33
O00L  3  0.25079  0.21749  0.20984 11.00000  0.08461   7.25
N00M  2  0.58076  0.37632  0.19567 11.00000  0.04340   7.21
N00N  2  0.31411  0.71489  0.04897 11.00000  0.09768   6.94
C00O  1  0.11909  0.70605  0.11118 11.00000  0.05109   6.73
N00P  2 -0.61392  0.01188  0.34222 11.00000  0.04127   6.62
C00Q  1  1.17071  0.74907  0.65577 11.00000  0.05410   6.54
N00R  2  1.14189  0.86859  0.86297 11.00000  0.07832   6.50
C00S  1  0.96134  0.97178  0.91717 11.00000  0.04188   6.47
C00T  1  0.91348  0.49892  0.46680 11.00000  0.05147   6.44
C00U  1  1.16345  0.57756  0.65996 11.00000  0.08151   6.32
C00V  1  0.83131  1.02871  0.71505 11.00000  0.05150   6.27
C00W  1  0.19717  0.16909  0.09059 11.00000  0.02750   6.19
C00X  1  1.42010  0.55420  0.69092 11.00000  0.11670   6.12
C00Y  1  0.53362  0.49856  0.26376 11.00000  0.04943   6.05
C00Z  1  0.42515  0.06628  0.11080 11.00000  0.10902   6.00
C010  1  0.03096  0.19054  0.12550 11.00000  0.03615   6.00
C011  1  1.39402  0.81355  0.80006 11.00000  0.03843   5.90
C012  1  0.90470  1.02421  0.48148 11.00000  0.05032   5.75
C013  1  0.46673  0.43975  0.95845 11.00000  0.09335   5.75
C014  1  1.19796  0.55768  0.72874 11.00000  0.05892   5.70
C015  1  0.70415  0.33362  0.94131 11.00000  0.03273   5.69
C016  1  1.04442  0.67777  0.62347 11.00000  0.03632   5.51
C017  1  1.61392  0.72892  0.85252 11.00000  0.04547   5.43
N018  2  1.57034  0.74678  0.65751 11.00000  0.05017   5.41
C019  1  1.23992  0.90963  0.63250 11.00000  0.04631   5.37
C01A  1  0.97703  0.26296  0.54091 11.00000  0.06865   5.21
C01B  1  0.46867  0.28721  0.28822 11.00000  0.04260   5.17
C01C  1  0.35275  0.30449  0.86837 11.00000  0.04707   5.12
C01D  1 -0.21536  0.16290  0.38713 11.00000  0.05898   5.11
O01E  3  1.03170  0.57160  0.37218 11.00000  0.10952   5.07
C01F  1  1.17583  0.99993  0.50329 11.00000  0.03107   4.91
O01G  3  0.24208 -0.03879  0.20683 11.00000  0.07924   4.84
C01H  1  0.10074  0.37680  0.28683 11.00000  0.06402   4.64
C01I  1  1.19289  0.97322  0.71586 11.00000  0.06710   4.63
C01J  1  1.37630  0.82409  0.63338 11.00000  0.01540   4.36
C01K  1  0.39804  0.44310  0.15234 11.00000  0.07875   4.30
C01L  1  1.60278  0.78469  0.57076 11.00000  0.02998   4.25
C01M  1 -0.28489 -0.15915  0.33726 11.00000  0.15902   4.24
C01N  1  1.05419  1.20328  0.99071 11.00000  0.04521   4.22
O01O  3  0.83911  0.50172  0.53732 11.00000  0.09399   4.08
C01P  1  0.56393  0.48777  0.90302 11.00000  0.04966   4.02
C01Q  1  0.04597 -0.06989  0.24562 11.00000  0.06808   4.02
C01R  1  0.89299  0.57621  0.88172 11.00000  0.02156   3.97
C01S  1 -0.21567  0.02382  0.28885 11.00000  0.09570   3.96
C01T  1  0.93911  0.98429  1.03699 11.00000  0.07439   3.80
N01U  2  1.59720  0.37883  0.71639 11.00000  0.04580   3.70
C01V  1  0.60005  0.28768  0.95890 11.00000  0.14767   3.69
C01W  1  1.36673  0.44313  0.49088 11.00000  0.08054   3.63
N01X  2  0.89786  0.61052  0.82744 11.00000  0.11980   3.54
C01Y  1 -0.33652 -0.07694  0.20817 11.00000  0.05551   3.49
C01Z  1  0.24708  0.58751  0.08939 11.00000  0.03287   3.48
C020  1  0.88574  0.52373  0.23267 11.00000  0.04044   3.41
C021  1  0.59980  1.06993  0.69991 11.00000  0.05560   3.25
C022  1  1.12076  0.60393  0.54619 11.00000  0.09291   3.19
C023  1 -0.43810  0.07178  0.24685 11.00000  0.10123   3.13
C024  1  1.52599  0.93343  0.53619 11.00000  0.04586   3.08
C025  1  0.31335  0.70428 -0.04736 11.00000  0.05876   3.08
O026  3  0.79390  0.48938  1.04736 11.00000  0.07273   3.01
HKLF 4
END
