TITL 8_a.res in P1
REM Old TITL 8 in P1
REM SHELXT solution in P1: R1 0.326, Rweak 0.475, Alpha 0.000
REM <I/s>   0.000 for    0 systematic absences,  Orientation as input
REM Flack x =  0.284 ( 0.354 ) from   276 Parsons' quotients
REM Formula found by SHELXT:  C28 N11 O33 Cl20

CELL  0.71073   4.8500  11.6500  19.4600   90.000   83.510   90.000
ZERR   14.000   0.0010   0.0023   0.0039    0.030    0.030    0.030
LATT -1
SFAC C N O CL
UNIT 14 14 14 14
L.S. 10
BOND
LIST 6
FMAP 2
PLAN 20
CL01  4 -0.22906  0.84212  0.93914 11.00000  0.07079  17.27
CL02  4 -0.48093  1.02972  0.81898 11.00000  0.13249  17.02
CL03  4  0.14032  0.42094  0.48122 11.00000  0.11130  17.01
CL04  4 -0.40126  0.21918  0.54408 11.00000  0.07499  16.79
CL05  4 -0.23254  0.31377 -0.10642 11.00000  0.06983  16.65
CL06  4  0.12560  0.19028  0.01656 11.00000  0.10673  16.04
CL07  4 -0.64257 -0.07957  0.27133 11.00000  0.06352  15.61
CL08  4 -0.50880  0.85165  1.01540 11.00000  0.08729  15.29
CL09  4  0.67938  0.64504  0.24519 11.00000  0.07000  15.14
CL0A  4 -0.08186  0.80180  0.59427 11.00000  0.08413  14.89
CL0B  4  0.58252  0.61588  0.71719 11.00000  0.08975  14.48
CL0C  4 -0.13884  0.44306  0.74288 11.00000  0.07190  14.26
CL0D  4 -0.05170  0.33880  0.51476 11.00000  0.11453  14.22
CL0E  4  0.18916  0.40646  0.54266 11.00000  0.09995  14.18
CL0F  4 -0.41567  0.94106  1.03621 11.00000  0.07696  13.88
CL0G  4 -0.05495  0.21307 -0.01000 11.00000  0.12606  13.68
CL0H  4 -0.25289  0.29542  0.51121 11.00000  0.11396  13.61
C00I  1  0.63823  0.64271  0.35604 11.00000  0.03609  13.23
CL0J  4  0.28058  0.30691  0.73817 11.00000  0.12133  13.07
C00K  1  1.32511  0.55228  0.14951 11.00000  0.03362  12.41
O00L  3 -0.01235  0.42729 -0.04962 11.00000  0.04996  12.12
O00M  3 -0.20859  0.27516  0.42336 11.00000  0.04496  11.95
O00N  3 -0.81603 -0.12535  0.32748 11.00000  0.02269  11.63
O00O  3 -0.33257  0.93118  0.89935 11.00000  0.02150  11.23
O00P  3  0.45573  0.63046  0.80441 11.00000  0.05973  11.21
CL0Q  4 -0.76748  1.07570  0.86205 11.00000  0.08998  11.12
CL0R  4 -0.32405  0.00509  0.15678 11.00000  0.10234  11.07
O00S  3 -0.30485  1.00180  0.66127 11.00000  0.04235  10.92
O00T  3  0.04042  0.80286  0.64246 11.00000  0.08493  10.84
N00U  2  0.14689  0.80598  0.81477 11.00000  0.03738  10.26
O00V  3  0.79951  0.60818  0.36816 11.00000  0.08189  10.24
O00W  3 -0.07158  0.74168  0.72778 11.00000  0.04966   9.84
O00X  3  0.34612  0.31970  0.21246 11.00000  0.06600   9.82
O00Y  3 -0.65064  1.12535  0.78381 11.00000  0.04443   9.70
N00Z  2 -0.33688  0.71670  0.91451 11.00000  0.05747   9.66
O010  3  0.19184  0.47806  0.65663 11.00000  0.08567   9.55
N011  2  0.10008  0.40478  0.39455 11.00000  0.05801   9.45
O012  3  1.11132  0.62241  0.21639 11.00000  0.01576   9.39
O013  3  0.02426  0.76791  0.51954 11.00000  0.05751   9.24
N014  2  0.00000  0.65000  0.82778 11.00000  0.04321   9.23
O015  3  0.39931  0.38409  0.44868 11.00000  0.06438   9.20
O016  3 -0.22516  0.27352 -0.05941 11.00000  0.04531   8.95
O017  3 -0.47150 -0.00710  0.27206 11.00000  0.03726   8.94
O018  3  1.50224  0.49187  0.13284 11.00000  0.03411   8.76
O019  3  0.00681  0.21136  0.31401 11.00000  0.06952   8.76
N01A  2 -0.01918  0.17085  0.24798 11.00000  0.03930   8.65
O01B  3  0.06737  0.41293  0.60277 11.00000  0.04270   8.57
C01C  1  0.21172  0.28754  0.15506 11.00000  0.01862   8.54
N01D  2 -0.22754  0.23576  0.56509 11.00000  0.02122   8.46
O01E  3 -0.08058  0.26331  0.38881 11.00000  0.04744   8.43
O01F  3 -0.23273 -0.01672  0.37762 11.00000  0.04219   8.38
O01G  3 -0.17551  0.60244  0.92161 11.00000  0.08339   8.33
O01H  3 -0.33331  0.92167  0.51186 11.00000  0.05853   8.32
O01I  3 -0.09575  0.31966  0.61298 11.00000  0.01480   8.21
O01J  3 -0.85143 -0.12257  0.20055 11.00000  0.08380   7.99
O01K  3 -0.75671  1.08987  0.57561 11.00000  0.16426   7.86
C01L  1 -0.04496  0.00600  0.32931 11.00000  0.04724   7.82
O01M  3 -0.16748  0.07654  0.27592 11.00000  0.05748   7.71
O01N  3 -0.21392  0.92314  0.77310 11.00000  0.03070   7.61
O01O  3 -0.54555  1.07046  0.46130 11.00000  0.04223   7.35
O01P  3 -0.54833  0.61562  1.02799 11.00000  0.09543   7.24
N01Q  2  0.22402  0.10046  0.36121 11.00000  0.00925   7.21
N01R  2 -0.09490  0.24623  0.07472 11.00000  0.04620   6.73
N01S  2  0.49222  0.74335  0.26719 11.00000  0.01649   6.72
N01T  2 -0.47741  1.12379  0.68081 11.00000  0.10672   6.64
N01U  2  0.23791  0.71938  0.81884 11.00000  0.03633   6.51
C01V  1  2.16396  0.44883  0.08416 11.00000  0.07276   6.46
C01W  1 -0.28288  0.06930  0.27186 11.00000  0.01359   6.36
C01X  1  0.31822  0.23586  0.37596 11.00000  0.04273   6.34
C01Y  1  0.26929  0.42658  0.73107 11.00000  0.03455   6.05
C01Z  1 -0.68181  0.77557  1.10642 11.00000  0.00413   5.83
C020  1 -0.77145  0.93874  0.98167 11.00000  0.04854   5.77
C021  1  1.16026  0.64955  0.30797 11.00000  0.02453   5.68
C022  1 -0.81554  0.98109  0.55109 11.00000  0.02692   5.67
C023  1  0.18908  0.46326  0.23878 11.00000  0.01010   5.64
O024  3  1.86741  0.44357  0.15581 11.00000  0.04102   5.51
C025  1  0.18745  0.59336  0.74990 11.00000  0.02830   5.07
C026  1 -0.14574  0.20538  0.17321 11.00000  0.05265   4.77
C027  1  0.79470  0.70749  0.30314 11.00000  0.08973   4.66
C028  1  0.17840  0.83233  0.75665 11.00000  0.01810   4.58
C029  1  0.34956  0.65767  0.44566 11.00000  0.07484   4.39
C02A  1  0.62453  0.52853  0.27161 11.00000  0.00218   4.20
C02B  1  0.15498  0.45518  0.35646 11.00000  0.03588   4.20
C02C  1 -0.67258  0.31673 -0.10460 11.00000  0.04306   4.07
C02D  1 -0.01674  0.10313  0.09499 11.00000  0.04679   4.05
C02E  1 -1.16396  0.81110  1.10166 11.00000  0.04822   3.99
C02F  1  0.09431  0.20161  0.21909 11.00000  0.12776   3.97
C02G  1  0.40193  0.50819  0.28790 11.00000  0.02975   3.85
C02H  1 -0.06094  0.72953  0.87675 11.00000  0.02651   3.80
C02I  1  0.34127  0.12786  0.31331 11.00000  0.02593   3.78
O02J  3  0.37164  0.22650  0.11362 11.00000  0.04815   3.71
C02K  1 -0.61447  1.10453  0.64300 11.00000  0.02263   3.62
HKLF 4
END
