TITL 11_a.res in P1
REM Old TITL 11 in P-1
REM SHELXT solution in P1: R1 0.290, Rweak 0.104, Alpha 0.000
REM <I/s>   0.000 for    0 systematic absences,  Orientation as input
REM Flack x =  0.334 ( 0.156 ) from   497 Parsons' quotients
REM Formula found by SHELXT:  C50 N25 O28 Cl11

CELL  0.71073   3.7800  20.1300  22.4100   68.380   90.000   90.000
ZERR   21.000   0.0008   0.0040   0.0045    0.030    0.030    0.030
LATT -1
SFAC C N O CL
UNIT 21 21 21 21
L.S. 10
BOND
LIST 6
FMAP 2
PLAN 20
CL01  4  0.72170  0.57260  0.39619 11.00000  0.10228  18.85
CL02  4  0.74690  0.86341  0.31384 11.00000  0.08369  17.52
CL03  4  0.54417  0.36380  0.81208 11.00000  0.10386  15.11
CL04  4  0.51539  1.15332  0.23421 11.00000  0.11429  14.87
CL05  4  1.02968  0.95766  0.07436 11.00000  0.11470  14.12
CL06  4  0.25754  0.46132  0.56602 11.00000  0.09738  13.45
CL07  4  0.24540  0.60538  0.53539 11.00000  0.11815  12.87
CL08  4  0.27281  0.28841  0.74097 11.00000  0.11524  12.63
CL09  4  0.22358  0.75564  0.48926 11.00000  0.10070  12.50
O00A  3  0.57781  0.07458  0.89503 11.00000  0.03267  12.20
N00B  2  0.19651  0.22840  0.73443 11.00000  0.06137  12.15
N00C  2 -0.13812  0.21080  0.58659 11.00000  0.03530  11.92
O00D  3  1.55209  0.67794  0.03742 11.00000  0.03993  11.82
N00E  2  0.31823  1.05074  0.31033 11.00000  0.04324  11.08
N00F  2  1.20539  0.53331  0.91515 11.00000  0.04403  10.73
N00G  2  0.78891  0.71445  0.35094 11.00000  0.05343  10.56
N00H  2  0.83999  0.66174  0.34389 11.00000  0.04110  10.48
N00I  2  0.86745  0.79147  0.29819 11.00000  0.04231  10.17
O00J  3  0.78811  0.65686  0.73566 11.00000  0.05289  10.16
O00K  3  0.83239  0.53888  0.75844 11.00000  0.04764  10.15
O00L  3  0.33476  0.54207  0.58349 11.00000  0.05485  10.14
O00M  3  0.32963 -0.07750  0.71638 11.00000  0.06289   9.95
N00N  2  0.04971  0.23539  0.65942 11.00000  0.02953   9.88
O00O  3  1.43940  0.51554  1.02266 11.00000  0.06371   9.88
CL0P  4 -0.23158  0.28781  0.22014 11.00000  0.13956   9.72
O00Q  3  1.10333  0.50174  0.87244 11.00000  0.04234   9.65
CL0R  4  1.12223 -0.07644  0.92511 11.00000  0.32866   9.60
O00S  3  1.03799  0.65829  0.83998 11.00000  0.07598   9.52
O00T  3  0.05304  0.20362  0.85791 11.00000  0.11549   9.49
N00U  2  0.79885  1.03610  0.14547 11.00000  0.06566   9.46
O00V  3  0.79370 -0.15002  0.89128 11.00000  0.04951   9.06
O00W  3  1.68113  0.72278 -0.02266 11.00000  0.05998   8.97
O00X  3  0.43238  1.12564  0.29536 11.00000  0.08043   8.85
O00Y  3  1.08064  1.25264 -0.01363 11.00000  0.03153   8.85
N00Z  2  0.31877  0.67463  0.54071 11.00000  0.03455   8.78
N010  2  1.43027  0.41063  0.98627 11.00000  0.05100   8.73
O011  3  0.29108  0.15960  0.77769 11.00000  0.05572   8.43
O012  3  1.53237  0.88789  0.11916 11.00000  0.14392   8.31
N013  2 -0.11706  0.98621  0.48383 11.00000  0.05044   8.29
C014  1  0.22345 -0.01016  0.71604 11.00000  0.03224   8.15
C015  1  0.05461  0.48848  0.22115 11.00000  0.04322   7.99
N016  2  0.73405  0.60430  0.70160 11.00000  0.07965   7.79
O017  3 -0.28784  0.40246  0.48047 11.00000  0.14486   7.79
O018  3  0.18740  0.99938  0.37234 11.00000  0.06193   7.65
O019  3 -0.07018 -0.16593  0.74736 11.00000  0.11462   7.61
O01A  3  1.00612  0.65751  0.28244 11.00000  0.05923   7.60
O01B  3  0.31515  0.05138  0.66832 11.00000  0.11468   7.55
O01C  3  1.15477  0.60358  0.89656 11.00000  0.08679   7.55
O01D  3 -0.68113  0.31917  0.36018 11.00000  0.07291   7.53
O01E  3  1.20710  0.68951  0.32066 11.00000  0.13091   7.52
N01F  2  0.36495  0.49541  0.45592 11.00000  0.20311   7.40
C01G  1  0.02081  0.18499  0.63796 11.00000  0.06453   7.23
O01H  3  0.22595  0.49998  0.26540 11.00000  0.05846   7.21
N01I  2  0.39246  0.28405  0.81209 11.00000  0.05796   7.15
N01J  2  1.46457  0.70887  0.09268 11.00000  0.03273   7.14
N01K  2 -0.05613  0.29792  0.62688 11.00000  0.04951   7.07
N01L  2 -0.19332  1.01268  0.52049 11.00000  0.06119   7.05
N01M  2  0.03659  0.45945  0.45680 11.00000  0.11091   7.04
N01N  2  1.01106  0.79342  0.23833 11.00000  0.06598   7.04
N01O  2  0.57500 -0.05150  0.85360 11.00000  0.13107   7.01
C01P  1  0.94834  1.04457  0.08220 11.00000  0.04890   6.98
N01Q  2  1.33611  1.16845  0.10909 11.00000  0.14691   6.89
N01R  2  0.56693  1.10376  0.21434 11.00000  0.07665   6.73
N01S  2  1.14265  0.89827  0.23376 11.00000  0.12344   6.72
C01T  1  1.36363  0.48828  0.98367 11.00000  0.03714   6.54
C01U  1  1.35376  0.80844  0.11563 11.00000  0.04667   6.45
C01V  1  0.70694  1.10268  0.15170 11.00000  0.03424   6.41
C01W  1 -0.50785 -0.21650  0.72238 11.00000  0.04076   6.35
C01X  1  0.71064  0.46296  0.94101 11.00000  0.10195   6.28
C01Y  1 -0.18091  0.28851  0.56400 11.00000  0.04067   6.20
C01Z  1  0.09908  1.03225  0.41603 11.00000  0.04135   6.19
C020  1 -0.02378  0.41899  0.22085 11.00000  0.04225   6.01
C021  1 -0.39450  0.21872  0.47953 11.00000  0.04306   5.96
C022  1  1.24102  0.73107  0.16532 11.00000  0.03191   5.96
C023  1  0.99542  1.16942  0.05698 11.00000  0.07270   5.88
C024  1  0.09883  1.10357  0.39931 11.00000  0.04727   5.75
C025  1  1.13079  0.72798  0.23365 11.00000  0.06271   5.59
O026  3 -0.13160  0.87905  0.53890 11.00000  0.11900   5.56
N027  2  0.80142  1.15931  0.11095 11.00000  0.06158   5.56
C028  1  0.78932 -0.09181  0.88251 11.00000  0.04410   5.54
C029  1 -0.37821  0.29954  0.46104 11.00000  0.04204   5.53
C02A  1  0.57563  0.60466  0.65732 11.00000  0.04738   5.51
C02B  1  0.64175  0.46327  0.64169 11.00000  0.09661   5.42
O02C  3  1.06871  1.10618  0.03305 11.00000  0.05633   5.39
C02D  1  0.60653  0.01460  0.83199 11.00000  0.11043   5.38
C02E  1  0.52197  0.82243  0.40161 11.00000  0.11421   5.27
C02F  1  0.95122  0.55444  0.80559 11.00000  0.04560   5.25
C02G  1 -0.54180  0.41171  0.38316 11.00000  0.03254   5.24
O02H  3  0.07152 -0.00102  0.76422 11.00000  0.07634   4.98
C02I  1  0.92971 -0.18007  0.85445 11.00000  0.05367   4.89
C02J  1  0.46158  1.04121  0.25796 11.00000  0.03901   4.75
C02K  1  1.59200  1.24909  0.06517 11.00000  0.10775   4.68
C02L  1 -0.40301 -0.25264  0.79692 11.00000  0.13699   4.66
C02M  1  0.82640  1.07862  0.30236 11.00000  0.10658   4.61
C02N  1  0.70411  0.75067  0.44867 11.00000  0.10405   4.51
C02O  1  0.05920  0.34017  0.85600 11.00000  0.13326   4.45
C02P  1  0.93057  0.62524  0.80363 11.00000  0.05132   4.43
C02Q  1  0.00745 -0.04187  0.68583 11.00000  0.11580   4.41
C02R  1  0.47979  0.66729  0.60884 11.00000  0.06910   4.33
C02S  1 -0.09994  0.91574  0.48714 11.00000  0.04372   4.32
C02T  1  1.02449  0.45623  0.97322 11.00000  0.14642   4.28
C02U  1  0.19809  0.14486  0.59628 11.00000  0.13527   4.26
C02V  1  0.31690  0.41126  0.12807 11.00000  0.09858   4.24
C02W  1 -0.17527  0.42601  0.15507 11.00000  0.12078   4.23
C02X  1 -0.27230  0.17996  0.53423 11.00000  0.03124   4.10
C02Y  1  0.54919  1.17318  0.03246 11.00000  0.09310   3.92
C02Z  1  0.44661  0.16775  0.82483 11.00000  0.07075   3.92
C030  1 -0.52318  0.35263  0.38648 11.00000  0.06680   3.81
C031  1  1.43958  0.65630  0.21970 11.00000  0.08229   3.70
C032  1  1.19719  0.61520  0.05653 11.00000  0.13305   3.65
C033  1 -0.45179  1.04847  0.50172 11.00000  0.10456   3.51
C034  1 -0.25753  0.40682  0.28536 11.00000  0.13477   3.31
C035  1  0.96376  0.96301  0.22610 11.00000  0.15341   3.08
C036  1 -0.08812  0.55420  0.18464 11.00000  0.11847   3.02
HKLF 4
END
