TITL 13_a.res in P1
REM Old TITL 13 in P1
REM SHELXT solution in P1: R1 0.264, Rweak 0.077, Alpha 0.000
REM <I/s>   0.000 for    0 systematic absences,  Orientation as input
REM Flack x =  0.313 ( 0.119 ) from   450 Parsons' quotients
REM Formula found by SHELXT:  C49 N19 O17 Cl9

CELL  0.71073   3.8200  20.0700  21.9300   67.250   90.000   90.000
ZERR   21.000   0.0008   0.0040   0.0044    0.030    0.030    0.030
LATT -1
SFAC C N O CL
UNIT 21 21 21 21
L.S. 10
BOND
LIST 6
FMAP 2
PLAN 20
CL01  4  2.18106  0.78104 -0.20562 11.00000  0.07931  13.78
CL02  4  0.68150  0.60369  0.70068 11.00000  0.07776  12.92
CL03  4  0.68506  0.12553  0.46170 11.00000  0.09883  12.89
CL04  4  0.32758  0.28355  0.29375 11.00000  0.07948  12.88
CL05  4  2.16456  0.48352 -0.11682 11.00000  0.09339  12.47
O006  3  1.83311  0.62910 -0.03669 11.00000  0.01733  12.17
CL07  4  0.64518  0.88614  0.62564 11.00000  0.08296  12.06
CL08  4  0.33557 -0.01823  0.38357 11.00000  0.07616  11.60
CL09  4 -1.12897  0.38753  1.12482 11.00000  0.07554  11.22
CL0A  4 -1.18106  0.10144  1.20562 11.00000  0.08408  10.08
N00B  2  1.42961  0.57611  0.11680 11.00000  0.02434   9.22
N00C  2  1.47441  0.64054  0.10682 11.00000  0.02823   8.61
O00D  3  0.39901  0.81310  0.55207 11.00000  0.05504   8.38
O00E  3 -1.14809  0.24667  1.15824 11.00000  0.05956   8.30
O00F  3 -0.64951  0.25173  0.97348 11.00000  0.06064   8.13
O00G  3  1.62093  0.68186  0.04238 11.00000  0.03092   8.13
N00H  2  0.35023  0.51993  0.52437 11.00000  0.04212   8.03
O00I  3  0.60860  0.30456  0.52379 11.00000  0.06104   8.02
N00J  2  1.04957  0.13702  0.61005 11.00000  0.05661   7.89
O00K  3  2.06461  0.56920 -0.11025 11.00000  0.05427   7.55
O00L  3  1.56435  0.04023  0.83491 11.00000  0.05382   7.54
N00M  2 -0.31973  0.82272  0.27285 11.00000  0.03466   7.51
N00N  2  0.05909  0.81743  0.43505 11.00000  0.02720   7.49
N00O  2 -0.53691  0.31036  0.93425 11.00000  0.01992   7.49
N00P  2  0.10567  0.70041  0.45504 11.00000  0.02086   7.48
C00Q  1  1.05634  0.07362  0.62233 11.00000  0.02169   7.46
O00R  3  0.41824  0.44002  0.53000 11.00000  0.04527   7.37
O00S  3  1.69362  0.85443 -0.07290 11.00000  0.03720   7.36
N00T  2  0.45344  0.06650  0.38789 11.00000  0.02116   7.27
C00U  1  0.66931  0.73937  0.66197 11.00000  0.02557   7.26
N00V  2  1.34500  0.67387  0.15039 11.00000  0.02155   7.24
C00W  1 -0.49161  0.86209  0.21416 11.00000  0.01767   7.20
N00X  2 -0.41109  0.93700  0.19265 11.00000  0.05025   7.13
N00Y  2  1.30486  0.51884  0.18560 11.00000  0.03102   7.01
N00Z  2  1.21473  0.63423  0.21413 11.00000  0.02440   7.00
N010  2  1.88582  0.80039  0.03155 11.00000  0.06595   6.99
O011  3 -0.06084  0.43939  0.69265 11.00000  0.09216   6.91
C012  1  0.40321  0.68648  0.58915 11.00000  0.04680   6.90
N013  2  0.86263  0.12081  0.52766 11.00000  0.04024   6.88
C014  1 -0.05974  0.36977  0.70998 11.00000  0.01340   6.85
N015  2  1.21378  0.02284  0.68238 11.00000  0.04691   6.72
N016  2  0.82916  0.35027  0.42842 11.00000  0.03194   6.68
N017  2 -0.15328  0.70203  0.34626 11.00000  0.05762   6.56
N018  2 -0.89667  0.18246  1.08480 11.00000  0.02578   6.52
C019  1  0.38228  0.12695  0.34511 11.00000  0.03199   6.49
C01A  1  0.17113  0.75131  0.48045 11.00000  0.02805   6.48
C01B  1  0.44522  0.20230  0.35006 11.00000  0.02011   6.43
C01C  1  1.90811  0.56329 -0.04513 11.00000  0.05207   6.38
O01D  3  0.95204  0.53825  0.33297 11.00000  0.05421   6.25
C01E  1  1.56111  0.55481  0.07315 11.00000  0.01403   6.24
C01F  1 -0.28500  0.74892  0.28968 11.00000  0.00752   6.22
C01G  1  0.94621  0.05100  0.57289 11.00000  0.01238   6.12
C01H  1  1.16611  0.17456  0.65589 11.00000  0.01415   6.07
C01I  1  0.07209  0.34869  0.66702 11.00000  0.04289   6.00
C01J  1 -0.20087  0.32019  0.77133 11.00000  0.00802   5.89
C01K  1  1.30896  0.05627  0.72543 11.00000  0.01716   5.86
C01L  1  1.68291  0.62541  0.02403 11.00000  0.02291   5.85
C01M  1  1.29108  0.13289  0.71710 11.00000  0.06700   5.79
C01N  1 -0.22041  0.25189  0.79345 11.00000  0.03924   5.75
C01O  1 -0.09556  0.80593  0.38004 11.00000  0.02131   5.70
C01P  1  0.88805  0.17716  0.54096 11.00000  0.03496   5.59
C01Q  1 -0.37585  0.19184  0.84038 11.00000  0.06593   5.58
O01R  3  0.16191  0.52922  0.57425 11.00000  0.10429   5.58
C01S  1  2.15632  1.01695  0.03196 11.00000  0.01726   5.56
C01T  1  0.59651  0.19278  0.41768 11.00000  0.03091   5.56
C01U  1  2.11050  0.94711  0.02583 11.00000  0.02930   5.41
C01V  1  1.01259  0.50924  0.30158 11.00000  0.02669   5.35
C01W  1 -0.43288  0.22810  0.89222 11.00000  0.04018   5.32
C01X  1  1.19942  0.55586  0.21642 11.00000  0.04199   5.23
C01Y  1  0.38760  0.56234  0.47183 11.00000  0.03023   5.22
C01Z  1  1.79478  0.86386 -0.01218 11.00000  0.04020   5.17
C020  1 -0.19402  0.85229  0.32501 11.00000  0.02647   5.16
O021  3 -0.57497  0.84133  0.17617 11.00000  0.06694   4.99
C022  1 -1.00964  0.31896  1.10409 11.00000  0.03915   4.92
C023  1 -0.02153  0.72754  0.39647 11.00000  0.01558   4.89
C024  1 -0.89642  0.32010  1.04987 11.00000  0.02375   4.79
C025  1 -0.56603  0.20262  0.95863 11.00000  0.04797   4.77
O026  3  0.73177  0.75703  0.66465 11.00000  0.24658   4.73
C027  1  2.08897  0.70348 -0.14922 11.00000  0.03881   4.70
C028  1  0.53031  0.81688  0.60096 11.00000  0.04019   4.65
C029  1  0.61916  0.05258  0.45480 11.00000  0.02437   4.59
C02A  1 -1.04746  0.18159  1.14434 11.00000  0.03527   4.54
C02B  1 -0.31259  0.35349  0.82048 11.00000  0.03298   4.43
C02C  1  0.59181  0.68926  0.64209 11.00000  0.03497   4.42
C02D  1  2.11680  0.63200 -0.15967 11.00000  0.04403   4.31
C02E  1  1.47720 -0.06112  0.79908 11.00000  0.04010   4.24
C02F  1  1.43674  0.00392  0.79454 11.00000  0.04378   4.08
C02G  1 -0.44511  0.30841  0.87646 11.00000  0.03290   3.92
O02H  3  0.37389  0.65427  0.58498 11.00000  0.10424   3.84
O02I  3  2.10241  1.06112 -0.02561 11.00000  0.06690   3.57
C02J  1  1.81956  0.94576  0.03219 11.00000  0.09774   3.31
C02K  1  0.69978  0.36748  0.46875 11.00000  0.05380   3.25
C02L  1  1.98282  0.93873 -0.03775 11.00000  0.04388   3.10
C02M  1  1.01973  0.44056  0.30260 11.00000  0.03690   3.08
HKLF 4
END
