TITL 15_a.res in P1
REM Old TITL 15 in P1
REM SHELXT solution in P1: R1 0.261, Rweak 0.078, Alpha 0.000
REM <I/s>   0.000 for    0 systematic absences,  Orientation as input
REM Flack x = -1.143 ( 0.275 ) from   640 Parsons' quotients
REM Formula found by SHELXT:  C54 N18 O13 Cl6

CELL  0.71073   3.8000  19.9300  21.7900   67.930   90.000   90.000
ZERR   20.000   0.0008   0.0040   0.0044    0.030    0.030    0.030
LATT -1
SFAC C N O CL
UNIT 20 20 20 20
L.S. 10
BOND
LIST 6
FMAP 2
PLAN 20
CL01  4 -0.42947  0.41365  0.95487 11.00000  0.06358  12.71
CL02  4  1.39948  0.20398  1.37061 11.00000  0.07903  12.61
CL03  4  1.42706 -0.09044  1.45435 11.00000  0.06112  11.44
CL04  4 -0.40048  0.70655  0.86748 11.00000  0.08630  10.95
CL05  4  2.90426  0.80084 -0.37475 11.00000  0.08077  10.75
O006  3  1.14774  0.88285  0.22227 11.00000  0.01813  10.32
CL07  4 -1.92578  0.58835  0.04904 11.00000  0.10044  10.13
O008  3  2.92578  1.09044 -0.45435 11.00000  0.01474   9.43
O009  3 -0.13731  0.38314  0.72182 11.00000  0.02265   8.91
O00A  3  1.14285  0.13111  1.29646 11.00000  0.03819   8.44
O00B  3 -0.68834  0.35279  0.57938 11.00000  0.01284   8.26
O00C  3  2.35714  0.99153 -0.20918 11.00000  0.04330   8.26
O00D  3  1.68175  0.84902  0.08042 11.00000  0.01524   7.98
N00E  2  2.18285  0.88766 -0.12969 11.00000  0.04150   7.97
N00F  2 -1.59509  0.44136  0.21312 11.00000  0.03016   7.79
O00G  3  0.45706  0.06298  1.03912 11.00000  0.04683   7.75
O00H  3 -1.90499  0.30201  0.12883 11.00000  0.00462   7.74
N00I  2 -1.18331  0.38690  0.37021 11.00000  0.02950   7.74
N00J  2  2.59029  0.94109 -0.29035 11.00000  0.02056   7.70
O00K  3 -1.65432  0.50903  0.16231 11.00000  0.05505   7.66
N00L  2  0.55811  0.56147  0.53722 11.00000  0.05024   7.47
N00M  2  1.31140  0.12591  1.36132 11.00000  0.03208   7.43
N00N  2  1.22312  0.75672  0.28210 11.00000  0.02924   7.20
N00O  2  0.68755  0.75095  0.44341 11.00000  0.02640   7.19
N00P  2 -0.18266  0.25666  0.77728 11.00000  0.02316   7.14
N00Q  2  0.44405  0.67121  0.56511 11.00000  0.02445   7.08
N00R  2  0.80240  0.13032  1.18748 11.00000  0.03208   7.06
N00S  2 -0.13397  0.49181  0.83528 11.00000  0.03682   6.94
N00T  2 -1.41988  0.44410  0.27302 11.00000  0.04523   6.83
N00U  2  0.90788  0.83465  0.32545 11.00000  0.03843   6.69
N00V  2 -0.95920  0.37370  0.47467 11.00000  0.02966   6.69
N00W  2  0.30639  0.54372  0.64146 11.00000  0.03375   6.63
C00X  1  0.71752  0.68351  0.45599 11.00000  0.00010   6.61
N00Y  2  0.18290  0.63127  0.68021 11.00000  0.01344   6.60
C00Z  1  2.66471  0.86868 -0.29541 11.00000  0.03468   6.33
C010  1 -0.14329  0.62880  0.79707 11.00000  0.02596   6.32
C011  1 -1.21902  0.45421  0.35022 11.00000  0.04983   6.32
C012  1 -1.34286  0.49458  0.29116 11.00000  0.00961   6.31
C013  1  0.09527  0.57061  0.72466 11.00000  0.00454   6.25
C014  1  0.04304  0.33325  0.82645 11.00000  0.01844   6.24
C015  1  2.21460  0.95526 -0.14230 11.00000  0.02193   6.24
C016  1  0.30005  0.18319  0.95290 11.00000  0.02630   6.12
C017  1  1.45316  0.67872  0.22836 11.00000  0.02710   6.12
C018  1  2.08801  0.98858 -0.10181 11.00000  0.02200   6.09
C019  1  0.70256  0.04218  1.14198 11.00000  0.01229   6.09
C01A  1 -0.32180  0.50286  0.89436 11.00000  0.03545   6.03
C01B  1  1.96117  0.86573 -0.02310 11.00000  0.03784   5.99
C01C  1 -1.89609  0.44873  0.08292 11.00000  0.04066   5.97
C01D  1 -0.25529  0.62907  0.85485 11.00000  0.02365   5.88
C01E  1 -1.08594  0.49125  0.40083 11.00000  0.05341   5.86
C01F  1  2.90344  0.94928 -0.40880 11.00000  0.03500   5.86
C01G  1  0.41710  0.13930  1.02106 11.00000  0.00859   5.85
C01H  1  0.91407  0.07479  1.22573 11.00000  0.00394   5.84
C01I  1  1.09831  0.82808  0.28127 11.00000  0.02268   5.81
C01J  1  2.66974  0.99990 -0.33435 11.00000  0.02352   5.65
C01K  1 -0.50946  0.17765  0.73426 11.00000  0.08669   5.64
C01L  1  1.04843  0.06503  1.29048 11.00000  0.02186   5.57
C01M  1  2.82612  0.88430 -0.36143 11.00000  0.01697   5.54
C01N  1  0.87399  0.02065  1.20464 11.00000  0.01961   5.54
C01O  1  0.38779  0.51503  0.59192 11.00000  0.03089   5.49
C01P  1  1.33751 -0.00411  1.39553 11.00000  0.01532   5.47
C01Q  1 -1.02487  0.33812  0.42525 11.00000  0.04031   5.23
O01R  3  0.27367  0.24707  0.95094 11.00000  0.07945   5.23
C01S  1  0.57069  0.17049  1.06625 11.00000  0.01394   5.21
C01T  1 -1.77624  0.51271  0.09747 11.00000  0.01895   5.19
C01U  1  2.29096  0.86999 -0.18171 11.00000  0.02321   5.19
C01V  1  0.60956  0.01644  1.09402 11.00000  0.01176   5.11
C01W  1  2.42845  0.94170 -0.22859 11.00000  0.03636   5.01
C01X  1  1.14333 -0.00442  1.33365 11.00000  0.01956   4.94
C01Y  1  0.68360  0.11860  1.12828 11.00000  0.02530   4.83
C01Z  1 -1.31577  0.36869  0.32269 11.00000  0.00219   4.75
C020  1 -0.82415  0.24953  0.55531 11.00000  0.02761   4.62
C021  1  1.40080  0.05974  1.40286 11.00000  0.00991   4.56
C022  1  2.05134  0.84168 -0.07026 11.00000  0.04192   4.45
C023  1 -0.09914  0.33388  0.77701 11.00000  0.00465   4.42
N024  2 -0.64789  0.16436  0.67687 11.00000  0.06595   4.30
C025  1 -0.03943  0.56968  0.78597 11.00000  0.02901   4.30
C026  1 -1.62953  0.37401  0.19730 11.00000  0.03101   4.15
C027  1 -0.95435  0.44222  0.46389 11.00000  0.03713   4.13
C028  1 -0.38254  0.56240  0.90553 11.00000  0.01925   4.00
C029  1  1.97813  0.94571 -0.03666 11.00000  0.02112   3.97
C02A  1 -1.76270  0.37973  0.13846 11.00000  0.03480   3.89
C02B  1  1.75050  0.76067  0.04473 11.00000  0.05788   3.83
O02C  3  1.58353  0.66331  0.17919 11.00000  0.08353   3.74
C02D  1  0.14518  0.51146  0.70570 11.00000  0.02529   3.74
C02E  1 -0.78390  0.32596  0.54000 11.00000  0.04455   3.57
C02F  1  0.32300  0.61970  0.62717 11.00000  0.02933   3.55
O02G  3  0.73186  0.65491  0.42621 11.00000  0.22759   3.47
C02H  1  0.56244  0.63369  0.52449 11.00000  0.01283   3.35
C02I  1  2.78326  1.01671 -0.39439 11.00000  0.02578   3.28
C02J  1  1.38076  0.74778  0.22252 11.00000  0.03302   3.17
HKLF 4
END
