TITL 18_a.res in P-1
REM Old TITL 18 in P1
REM SHELXT solution in P-1: R1 0.320, Rweak 0.098, Alpha 0.240
REM <I/s>   0.000 for    0 systematic absences,  Orientation as input
REM Formula found by SHELXT:  C36 N4 O4 Cl4

CELL  0.71073   3.8000  19.9700  21.9000   67.770   90.000   90.000
ZERR   20.000   0.0008   0.0040   0.0044    0.030    0.030    0.030
LATT  1
SFAC C N O CL
UNIT 20 20 20 20
L.S. 10
BOND
LIST 6
FMAP 2
PLAN 20
CL01  4 -0.67659  0.34043  0.29564 11.00000  0.07651  11.92
CL02  4  1.18209  0.83914 -0.20398 11.00000  0.07415  11.12
CL03  4 -0.65307  0.04878  0.37989 11.00000  0.07668  10.80
CL04  4  1.15319  0.54787 -0.12154 11.00000  0.08326  10.65
N005  2 -0.10714  0.23668  0.54490 11.00000  0.02303   7.31
N006  2  0.55380  0.61973  0.06945 11.00000  0.02696   6.84
N007  2  0.82443  0.68910 -0.03841 11.00000  0.03560   6.81
N008  2  0.60705  0.73841  0.04190 11.00000  0.02790   6.64
C009  1  0.04156  0.20763  0.60762 11.00000  0.02331   6.47
C00A  1  0.45782  0.70519  0.10817 11.00000  0.01670   6.31
O00B  3 -0.05579  0.59696  0.33616 11.00000  0.07247   6.30
C00C  1  0.65746  0.68496  0.02428 11.00000  0.02096   6.27
C00D  1 -0.32026  0.42385  0.47374 11.00000  0.03160   6.15
C00E  1  0.43430  0.63333  0.12040 11.00000  0.03145   6.14
C00F  1 -0.39362  0.12145  0.45116 11.00000  0.01625   6.13
C00G  1  1.02891  0.62698 -0.10791 11.00000  0.02590   6.07
C00H  1  0.06981  0.13633  0.62015 11.00000  0.02495   6.02
C00I  1 -0.39284  0.25615  0.41555 11.00000  0.02761   6.02
C00J  1  0.90374  0.75598 -0.08565 11.00000  0.02760   6.02
O00K  3 -0.39787  0.36886  0.52825 11.00000  0.06795   6.01
C00L  1  0.31501  0.11699  0.72609 11.00000  0.01696   6.00
C00M  1  0.89938  0.62061 -0.04859 11.00000  0.02384   5.91
C00N  1 -0.32447  0.18802  0.46011 11.00000  0.02346   5.90
C00O  1  1.13540  0.69436 -0.15898 11.00000  0.03779   5.89
C00P  1  0.34713  0.73721  0.15474 11.00000  0.03248   5.87
C00Q  1 -0.17131  0.41390  0.42388 11.00000  0.02638   5.85
C00R  1  0.19156  0.61616  0.22546 11.00000  0.02553   5.81
C00S  1  0.21204  0.69287  0.21448 11.00000  0.03105   5.81
C00T  1  0.29267  0.18949  0.71101 11.00000  0.02485   5.77
C00U  1 -0.05680  0.11833  0.56925 11.00000  0.01135   5.77
C00V  1 -0.42374  0.49490  0.47125 11.00000  0.03481   5.75
C00W  1 -0.53393  0.12663  0.38879 11.00000  0.02412   5.73
C00X  1 -0.55815  0.25785  0.35246 11.00000  0.01805   5.66
C00Y  1  0.46074  0.07146  0.79126 11.00000  0.03339   5.59
C00Z  1  0.67854  0.91500 -0.07139 11.00000  0.03994   5.58
C010  1 -0.16213  0.18362  0.52595 11.00000  0.02098   5.58
C011  1  0.19947  0.08405  0.67965 11.00000  0.02879   5.57
C012  1  0.29288  0.58391  0.18423 11.00000  0.02413   5.50
C013  1  0.15045  0.23923  0.65130 11.00000  0.03337   5.46
C014  1  0.03900  0.56752  0.29580 11.00000  0.03585   5.44
O015  3  0.88929  0.87239  0.02693 11.00000  0.07060   5.39
C016  1  1.05902  0.75915 -0.14453 11.00000  0.03833   5.38
O017  3  0.55504  0.09712  0.82843 11.00000  0.06305   5.28
C018  1  0.04260  0.50133  0.30445 11.00000  0.03104   5.19
C019  1 -0.63931  0.19531  0.34208 11.00000  0.02141   5.02
C01A  1  0.83812  0.92219 -0.02983 11.00000  0.04430   4.93
C01B  1  0.46724  0.00198  0.79931 11.00000  0.04638   4.88
C01C  1  0.93504  0.99768 -0.02866 11.00000  0.03796   4.74
HKLF 4
END
