TITL 18_b.res in P1
REM Old TITL 18 in P1
REM SHELXT solution in P1: R1 0.254, Rweak 0.066, Alpha 0.000
REM <I/s>   0.000 for    0 systematic absences,  Orientation as input
REM Flack x = -1.584 ( 0.302 ) from   743 Parsons' quotients
REM Formula found by SHELXT:  C47 N25 O14 Cl8

CELL  0.71073   3.8000  19.9700  21.9000   67.770   90.000   90.000
ZERR   20.000   0.0008   0.0040   0.0044    0.030    0.030    0.030
LATT -1
SFAC C N O CL
UNIT 20 20 20 20
L.S. 10
BOND
LIST 6
FMAP 2
PLAN 20
CL01  4  0.24647  0.58827  0.05221 11.00000  0.06386  14.45
CL02  4 -1.22263  0.70019  0.87214 11.00000  0.07392  12.84
CL03  4 -1.25923  0.40741  0.95965 11.00000  0.06624  12.74
N004  2 -0.72569  0.56173  0.73178 11.00000  0.00010  12.50
N005  2  0.09238  1.06384  0.23085 11.00000  0.00010  11.60
CL06  4  0.56989  1.19973  0.37701 11.00000  0.07650  11.23
CL07  4  2.09805  0.08706  0.55016 11.00000  0.07787  11.12
CL08  4  0.27294  0.29837  0.13392 11.00000  0.07860  10.78
CL09  4  2.07948 -0.20494  0.62954 11.00000  0.08068  10.42
CL0A  4  0.60396  0.90881  0.46106 11.00000  0.08612  10.30
O00B  3 -0.67916  0.51091  0.71244 11.00000  0.01880   9.40
O00C  3  0.04084  1.01207  0.21202 11.00000  0.01489   8.95
O00D  3 -0.63009  0.62654  0.68578 11.00000  0.03013   8.49
N00E  2  1.97320 -0.12667  0.64589 11.00000  0.04760   8.07
N00F  2  1.33908 -0.11564  0.87730 11.00000  0.01603   7.97
O00G  3  1.07542  0.48406  0.41029 11.00000  0.03509   7.95
N00H  2 -0.54081  0.53835  0.64949 11.00000  0.01820   7.78
O00I  3  0.85646 -0.15509  1.08257 11.00000  0.03202   7.77
N00J  2 -0.09499  1.04332  0.14451 11.00000  0.03964   7.69
O00K  3  0.32653  1.12198  0.30367 11.00000  0.03422   7.65
N00L  2  1.16795 -0.05740  0.96729 11.00000  0.03495   7.45
N00M  2  0.51778  0.50035  0.16895 11.00000  0.05167   7.44
N00N  2  0.48625  0.99276  0.39981 11.00000  0.03527   7.42
O00O  3  0.50434  0.61681  0.28156 11.00000  0.08766   7.41
N00P  2 -0.97991  0.49022  0.84228 11.00000  0.03283   7.38
N00Q  2 -0.39661  1.13258  0.02827 11.00000  0.04234   7.35
N00R  2  1.24180  0.43618  0.46615 11.00000  0.01904   7.33
N00S  2  0.46881  0.75155  0.22546 11.00000  0.02884   7.31
N00T  2  0.29750  0.44693  0.09370 11.00000  0.02074   7.31
O00U  3  0.76553  0.65813  0.18439 11.00000  0.04808   7.28
C00V  1 -0.90086  0.55676  0.79225 11.00000  0.02921   7.28
N00W  2  1.75856 -0.06498  0.71651 11.00000  0.02688   7.27
C00X  1  1.01141 -0.18070  1.04949 11.00000  0.01831   7.26
N00Y  2  2.07581 -0.05273  0.59726 11.00000  0.01786   7.22
N00Z  2  0.26157  0.82213  0.27634 11.00000  0.03569   7.19
O010  3  0.30692  0.87877  0.22722 11.00000  0.03969   7.15
N011  2 -1.14538  0.49044  0.90093 11.00000  0.02036   7.08
C012  1 -0.13953  1.11362  0.13211 11.00000  0.01439   6.95
N013  2 -0.97768  0.62782  0.80379 11.00000  0.03098   6.93
N014  2 -0.59231  1.14900 -0.08257 11.00000  0.03611   6.89
N015  2  0.62564  0.43250  0.21727 11.00000  0.02932   6.81
C016  1 -0.50259  1.18479 -0.03927 11.00000  0.01784   6.74
O017  3 -0.57486  1.24615 -0.04509 11.00000  0.05934   6.68
N018  2 -0.00713  1.12729  0.18420 11.00000  0.01537   6.66
N019  2  1.27528 -0.01670  0.91430 11.00000  0.05928   6.65
N01A  2  1.81284  0.00071  0.67000 11.00000  0.05085   6.61
N01B  2  1.11165  0.33295  0.43902 11.00000  0.01951   6.55
C01C  1  0.27017  1.05529  0.29693 11.00000  0.01865   6.52
C01D  1  0.87322  0.36203  0.32440 11.00000  0.01883   6.48
C01E  1 -0.42994  0.51114  0.60571 11.00000  0.01585   6.32
C01F  1 -0.38293  0.66510  0.56894 11.00000  0.01864   6.30
C01G  1  1.47491 -0.13482  0.82211 11.00000  0.02340   6.29
C01H  1  0.31488  0.98944  0.33827 11.00000  0.02253   6.28
O01I  3  2.03283  0.37896  0.72734 11.00000  0.06076   6.16
C01J  1  0.49168  1.11345  0.36699 11.00000  0.01565   6.16
C01K  1  0.51775  0.36104  0.20681 11.00000  0.03687   6.16
C01L  1 -0.25733  0.62889  0.52807 11.00000  0.05562   6.08
C01M  1  0.40368  0.36883  0.14370 11.00000  0.01990   5.95
C01N  1 -0.14320  0.74666  0.44890 11.00000  0.03032   5.88
C01O  1  2.25923  0.33454  0.82471 11.00000  0.03215   5.85
C01P  1  1.00786  0.38281  0.37358 11.00000  0.02780   5.77
O01Q  3  1.63446  0.16890  0.67218 11.00000  0.08048   5.76
C01R  1  0.94771 -0.24615  1.05077 11.00000  0.03642   5.71
C01S  1  1.21391 -0.16664  0.93729 11.00000  0.02791   5.70
C01T  1  0.81595  0.49121  0.30145 11.00000  0.04870   5.68
C01U  1  1.36859 -0.04663  0.86407 11.00000  0.03652   5.60
C01V  1  1.83099 -0.12660  0.70787 11.00000  0.03383   5.59
C01W  1  1.86671  0.24337  0.72859 11.00000  0.02558   5.58
O01X  3 -0.03253  0.64640  0.41380 11.00000  0.08884   5.57
C01Y  1  1.13243 -0.13874  0.98099 11.00000  0.00623   5.55
C01Z  1  1.41064  0.32386  0.54869 11.00000  0.02759   5.55
C020  1 -0.52721  0.61795  0.63619 11.00000  0.03255   5.48
C021  1  1.76312  0.16423  0.73012 11.00000  0.00734   5.47
C022  1  0.37474  0.50941  0.10413 11.00000  0.01906   5.46
C023  1 -1.16844  0.56273  0.91437 11.00000  0.04439   5.39
C024  1  1.23262  0.36716  0.47932 11.00000  0.00768   5.36
C025  1 -0.33029  1.05079  0.04481 11.00000  0.01447   5.36
C026  1  1.80064  0.12225  0.78553 11.00000  0.01521   5.20
C027  1  0.61680  0.67236  0.22472 11.00000  0.03621   5.08
C028  1  0.57980  1.06131  0.40591 11.00000  0.02267   5.07
C029  1  0.32883  0.75943  0.28419 11.00000  0.02446   5.03
C02A  1 -0.28465  1.16545  0.07897 11.00000  0.03540   4.90
C02B  1  2.10775  0.31235  0.78441 11.00000  0.07544   4.84
C02C  1 -0.24956  0.55844  0.54036 11.00000  0.02875   4.83
C02D  1 -1.11744  0.61976  0.86102 11.00000  0.02082   4.77
C02E  1  1.53682 -0.00840  0.80091 11.00000  0.04929   4.70
C02F  1 -0.06504  0.67940  0.46113 11.00000  0.02215   4.69
O02G  3  1.52412  0.34523  0.58201 11.00000  0.04523   4.48
C02H  1  1.97538 -0.00444  0.60998 11.00000  0.05308   4.47
C02I  1 -0.24113  1.00892  0.10590 11.00000  0.03978   4.41
C02J  1  0.97343  0.45756  0.36051 11.00000  0.02431   4.39
C02K  1  2.02640  0.24793  0.78587 11.00000  0.05590   4.27
C02L  1  0.10290  0.82669  0.33420 11.00000  0.04622   4.23
C02M  1  1.34276  0.24847  0.55987 11.00000  0.02404   3.74
HKLF 4
END
