TITL 19_a.res in P1
REM Old TITL 19 in P-1
REM SHELXT solution in P1: R1 0.250, Rweak 0.052, Alpha 0.000
REM <I/s>   0.000 for    0 systematic absences,  Orientation as input
REM Flack x =  0.171 ( 0.247 ) from   457 Parsons' quotients
REM Formula found by SHELXT:  C50 N14 O19 Cl7

CELL  0.71073   3.7900  19.9300  21.9500   68.280   90.000   90.000
ZERR   20.000   0.0008   0.0040   0.0044    0.030    0.030    0.030
LATT -1
SFAC C N O CL
UNIT 20 20 20 20
L.S. 10
BOND
LIST 6
FMAP 2
PLAN 20
CL01  4  1.41692  0.91030  0.44520 11.00000  0.07984  15.09
CL02  4 -0.08761  0.08841  0.53904 11.00000  0.08145  13.54
CL03  4 -0.41119  0.70411  0.86000 11.00000  0.11168  13.33
CL04  4  1.09464  0.30063  0.11767 11.00000  0.08867  12.65
O005  3  1.35607  0.50704  0.15501 11.00000  0.03117  11.82
CL06  4  1.40337  1.20301  0.35918 11.00000  0.10175  11.74
CL07  4 -0.10339 -0.20035  0.61824 11.00000  0.08976  11.60
O008  3  1.04479  1.06830  0.27953 11.00000  0.04515  11.00
O009  3 -0.44075  0.40985  0.94658 11.00000  0.01974  10.75
CL0A  4  1.05456  0.59066  0.03618 11.00000  0.10640   9.95
O00B  3  0.28294  1.24941 -0.05929 11.00000  0.04722   9.88
O00C  3  0.39335  0.50975  0.58855 11.00000  0.04302   9.37
N00D  2  1.35625  1.05360  0.39455 11.00000  0.05008   9.33
O00E  3  0.46695  1.06080  0.02587 11.00000  0.04122   9.28
O00F  3  1.55348  0.43380  0.26218 11.00000  0.05829   8.84
O00G  3  0.81941  1.12927  0.17254 11.00000  0.02415   8.84
O00H  3 -0.37326  0.00165  0.65707 11.00000  0.04593   8.60
N00I  2  1.31516  1.12368  0.35031 11.00000  0.03358   8.56
O00J  3  0.89758  0.83699  0.32207 11.00000  0.04680   8.53
O00K  3 -0.78980 -0.03791  0.84778 11.00000  0.04763   8.29
O00L  3 -0.13018  0.62674  0.79048 11.00000  0.04875   8.21
O00M  3  0.19602  0.63016  0.67460 11.00000  0.03941   8.01
N00N  2 -0.08044  0.56180  0.78712 11.00000  0.03934   8.00
O00O  3  1.96346  0.33803  0.41780 11.00000  0.05338   7.99
O00P  3  2.30593  0.34457  0.57452 11.00000  0.09873   7.94
C00Q  1 -1.23624 -0.18266  1.03851 11.00000  0.02160   7.85
O00R  3  1.33638  0.36820  0.18932 11.00000  0.08010   7.85
O00S  3  0.85456  1.01062  0.20080 11.00000  0.04229   7.63
N00T  2  1.84253  0.38020  0.36217 11.00000  0.04370   7.34
N00U  2  0.59009  1.01049  0.08227 11.00000  0.03599   7.25
N00V  2 -0.60838 -0.06626  0.76633 11.00000  0.02438   7.12
C00W  1  0.27876  1.18068 -0.04405 11.00000  0.03460   7.00
N00X  2 -0.38217  0.55442  0.89981 11.00000  0.03324   6.99
C00Y  1 -0.43028 -0.06215  0.70819 11.00000  0.03588   6.91
N00Z  2  0.11602  0.51230  0.69994 11.00000  0.04486   6.84
N010  2  0.09084  0.56245  0.71938 11.00000  0.07033   6.81
N011  2  1.32403  0.99244  0.38721 11.00000  0.01562   6.74
N012  2  0.87836  1.06508  0.21201 11.00000  0.03898   6.73
N013  2 -1.30593 -0.15442  1.07397 11.00000  0.08419   6.64
N014  2  0.71487  0.74607  0.43787 11.00000  0.05110   6.59
C015  1  1.13381  1.12837  0.28488 11.00000  0.01852   6.47
C016  1  0.02412  0.33013  0.81883 11.00000  0.03566   6.45
C017  1 -0.83322 -0.11521  0.86191 11.00000  0.02955   6.44
C018  1  0.40190  1.12552  0.01888 11.00000  0.02946   6.43
C019  1 -0.42976  0.17775  0.71444 11.00000  0.02183   6.43
C01A  1  1.06602  0.83400  0.25932 11.00000  0.04462   6.30
C01B  1  0.30845  0.62109  0.61885 11.00000  0.03817   6.22
C01C  1  0.56007  0.62471  0.52505 11.00000  0.05689   6.13
C01D  1  0.45688  0.66998  0.56021 11.00000  0.03325   6.07
O01E  3  0.80746  0.65229  0.41428 11.00000  0.05573   6.02
C01F  1 -0.35350 -0.13612  0.69518 11.00000  0.05163   6.01
C01G  1  0.51054  0.55564  0.52864 11.00000  0.03423   5.89
C01H  1  1.78588  0.45948  0.34524 11.00000  0.05198   5.84
C01I  1 -0.16117 -0.00126  0.58842 11.00000  0.08570   5.82
C01J  1 -0.29044  0.61913  0.84924 11.00000  0.03816   5.73
C01K  1  0.71463  1.04125  0.13297 11.00000  0.03684   5.50
C01L  1  1.32925  0.74726  0.21313 11.00000  0.06129   5.47
C01M  1  1.32697  0.62153  0.26804 11.00000  0.04968   5.43
C01N  1 -0.36404  0.12260  0.77220 11.00000  0.05656   5.37
C01O  1 -0.67158 -0.13131  0.81407 11.00000  0.05738   5.32
C01P  1 -0.24527  0.25269  0.70409 11.00000  0.06740   5.22
C01Q  1  1.13029  0.88232  0.21330 11.00000  0.04384   5.16
C01R  1 -0.93671 -0.16108  0.92347 11.00000  0.04076   5.02
C01S  1 -0.19471 -0.13005  0.64033 11.00000  0.04926   5.02
C01T  1  0.69852  1.11246  0.12668 11.00000  0.05081   5.01
C01U  1  1.64833  0.48908  0.28715 11.00000  0.04229   4.93
C01V  1  1.41714  0.44510  0.20267 11.00000  0.03327   4.93
C01W  1 -1.06190 -0.05371  0.95042 11.00000  0.06420   4.89
C01X  1  2.22629  0.32341  0.53485 11.00000  0.03826   4.85
C01Y  1 -1.07004 -0.13594  0.97103 11.00000  0.01230   4.84
C01Z  1  0.16177  1.14836 -0.08522 11.00000  0.02973   4.82
C020  1  0.72764  0.67677  0.45381 11.00000  0.04369   4.78
C021  1 -0.68558 -0.00949  0.78485 11.00000  0.01825   4.73
C022  1  2.05527  0.36364  0.46834 11.00000  0.01858   4.64
O023  3 -0.14926  0.25557  0.76401 11.00000  0.08008   4.29
C024  1  1.09292  0.44558  0.08022 11.00000  0.02528   4.24
C025  1 -0.84616 -0.14656  1.08522 11.00000  0.12601   4.07
N026  2  1.51611  0.66345  0.17999 11.00000  0.12969   4.06
C027  1  0.30000  0.54921  0.63141 11.00000  0.05848   3.92
C028  1  1.40917  0.67959  0.20670 11.00000  0.02962   3.90
C029  1  0.55638  1.18026  0.06617 11.00000  0.09998   3.84
C02A  1 -0.13972  0.38210  0.71011 11.00000  0.04892   3.82
C02B  1 -0.07026 -0.05851  0.57722 11.00000  0.04561   3.77
C02C  1  1.88210  0.48957  0.38493 11.00000  0.04857   3.58
C02D  1 -1.21653 -0.24941  1.04562 11.00000  0.07385   3.54
C02E  1  1.18798  0.37332  0.13522 11.00000  0.04509   3.44
C02F  1  1.18160  0.75181  0.27445 11.00000  0.06889   3.41
C02G  1 -0.63362  0.15857  0.67606 11.00000  0.05562   3.36
C02H  1 -0.31847  0.49225  0.88507 11.00000  0.02391   3.35
C02I  1 -0.19917  0.49078  0.83880 11.00000  0.07828   3.04
HKLF 4
END
