TITL 1_a.res in P1
REM Old TITL 1 in P1
REM SHELXT solution in P1: R1 0.265, Rweak 0.142, Alpha 0.000
REM <I/s>   0.000 for    0 systematic absences,  Orientation as input
REM Flack x = -0.561 ( 1.831 ) from     6 Parsons' quotients
REM Formula found by SHELXT:  C19 N10 O11 Cl5

CELL  0.71073   3.7500  12.8315  16.0313   81.576   83.283   81.598
ZERR   10.000   0.0008   0.0026   0.0032    0.030    0.030    0.030
LATT -1
SFAC C N O CL
UNIT 10 10 10 10
L.S. 10
BOND
LIST 6
FMAP 2
PLAN 20
CL01  4 -0.20175  0.29536  0.69044 11.00000  0.08255  17.98
CL02  4  1.47390 -0.01647  0.22998 11.00000  0.07504  16.33
CL03  4  0.55899  0.13068  0.40308 11.00000  0.12348  15.19
N004  2  0.23897  0.82867  0.39981 11.00000  0.06280  11.76
CL05  4  0.24211  0.84394  0.69622 11.00000  0.14518  11.54
O006  3  0.79718  0.58306  0.09085 11.00000  0.02619  10.64
CL07  4  0.89391  0.42680  0.18505 11.00000  0.11135  10.30
O008  3  0.48970  0.71195  0.81526 11.00000  0.07696   9.57
O009  3  0.33507  0.78433  0.22121 11.00000  0.05689   9.54
N00A  2  0.14127  0.72694  0.46700 11.00000  0.03605   9.47
N00B  2  0.35324  0.70682  0.22113 11.00000  0.03375   9.22
N00C  2  0.46103  0.58540  0.17570 11.00000  0.04104   8.97
O00D  3  1.07648  0.01136  0.22562 11.00000  0.03482   8.86
O00E  3  0.91346  0.16266  0.21202 11.00000  0.02523   8.75
N00F  2  0.09932  0.67923  0.38270 11.00000  0.05928   8.68
N00G  2  0.55747  0.68798  0.15612 11.00000  0.02247   8.33
O00H  3  0.28192  0.66373  0.33790 11.00000  0.05619   8.01
O00I  3  0.18550  0.96030  0.44850 11.00000  0.08481   7.85
O00J  3  0.03312  0.55514  0.87581 11.00000  0.06202   7.84
O00K  3  0.66582  1.01647  0.64248 11.00000  0.10076   7.64
N00L  2  0.40602  1.00292  0.89511 11.00000  0.03612   7.19
N00M  2  0.05095  0.42456  0.62492 11.00000  0.00963   6.97
O00N  3  0.01742  0.70825  0.89392 11.00000  0.05559   6.97
N00O  2  0.89750  0.38914  0.10328 11.00000  0.03170   6.94
O00P  3  0.10913  0.59299  0.48085 11.00000  0.06349   6.85
C00Q  1  0.24134  0.63760  0.62031 11.00000  0.05803   6.20
C00R  1 -0.21303  0.63834  0.59441 11.00000  0.03962   6.06
C00S  1  0.28393  0.80211  0.47965 11.00000  0.03024   5.96
C00T  1  0.51718  0.18957  0.21315 11.00000  0.02006   5.91
N00U  2  0.85279  0.39571  0.47599 11.00000  0.07680   5.68
C00V  1  0.93129 -0.01170  0.18482 11.00000  0.08723   5.37
C00W  1 -0.47390  0.28704  0.79081 11.00000  0.03140   5.25
C00X  1  0.02681  0.63123  0.48030 11.00000  0.01966   5.20
C00Y  1  0.79101  0.38973  0.40209 11.00000  0.01806   5.19
C00Z  1  0.54586  0.65777  0.72111 11.00000  0.03388   5.14
C010  1  0.25933  0.58766  0.17900 11.00000  0.00624   4.98
C011  1  0.11628  0.73533  0.96141 11.00000  0.03739   4.71
C012  1  0.27811  0.95186  0.89963 11.00000  0.03125   4.67
C013  1  0.86612  0.28140  0.32180 11.00000  0.05299   4.63
C014  1  0.42256  0.75565  0.48154 11.00000  0.04215   4.14
C015  1 -0.12551  0.80788  0.36724 11.00000  0.05895   4.03
C016  1  0.54598  0.59754  0.03859 11.00000  0.12620   3.84
C017  1  0.14440  0.54553  0.94851 11.00000  0.02025   3.84
C018  1  0.70444  0.24392  0.43813 11.00000  0.01518   3.39
C019  1  0.19450  0.52652  0.74486 11.00000  0.05510   3.18
HKLF 4
END
