TITL 21_b.res in P1
REM Old TITL 21 in P1
REM SHELXT solution in P1: R1 0.244, Rweak 0.088, Alpha 0.000
REM <I/s>   0.000 for    0 systematic absences,  Orientation as input
REM Flack x =  0.196 ( 0.205 ) from   773 Parsons' quotients
REM Formula found by SHELXT:  C54 N16 O17 Cl8

CELL  0.71073   3.7900  19.8800  21.8100   68.350   90.000   90.000
ZERR   20.000   0.0008   0.0040   0.0044    0.030    0.030    0.030
LATT -1
SFAC C N O CL
UNIT 20 20 20 20
L.S. 10
BOND
LIST 6
FMAP 2
PLAN 20
CL01  4 -0.07713  0.27208  0.29798 11.00000  0.06770  12.35
CL02  4  1.07582  0.77669 -0.20326 11.00000  0.06891  11.56
CL03  4 -0.39138  0.88820  0.62149 11.00000  0.07810  11.55
CL04  4  1.09314  0.48524 -0.12127 11.00000  0.07120  10.90
CL05  4  1.43865  0.09701  1.20326 11.00000  0.08062  10.84
CL06  4 -0.43113  0.59454  0.70568 11.00000  0.07734  10.40
CL07  4 -0.08921 -0.01551  0.37875 11.00000  0.08215  10.04
CL08  4  1.39135  0.38825  1.12160 11.00000  0.07790   9.95
O009  3  1.90661  0.67494  0.15306 11.00000  0.00983   9.55
N00A  2  0.92852  0.24832  0.97705 11.00000  0.03136   8.86
O00B  3  2.03193  0.62412  0.21370 11.00000  0.04032   8.62
O00C  3  1.14022  0.30848  1.04767 11.00000  0.03524   8.60
O00D  3  1.12356  0.63295 -0.15680 11.00000  0.02269   8.59
O00E  3 -0.22699  0.05961  0.39449 11.00000  0.05307   8.57
O00F  3 -0.89814  0.17377  0.65396 11.00000  0.01771   8.57
N00G  2  1.09386  0.24048  1.04093 11.00000  0.01400   8.26
O00H  3  1.12990  0.17669  1.09016 11.00000  0.04373   8.23
C00I  1  0.70976  0.86672  0.20732 11.00000  0.02041   8.08
O00J  3 -1.07297  0.12619  0.71194 11.00000  0.05682   7.83
N00K  2 -0.07582  0.75086  0.53801 11.00000  0.03212   7.70
N00L  2 -0.79169  0.13971  0.61220 11.00000  0.02229   7.61
N00M  2  0.86326  0.19973  0.96128 11.00000  0.02059   7.50
O00N  3 -1.30376  0.03120  0.83416 11.00000  0.05795   7.40
O00O  3  0.91147  1.02074  0.07440 11.00000  0.04665   7.34
N00P  2  1.64240  0.67855  0.04934 11.00000  0.03127   7.30
N00Q  2  0.43982  0.31919  0.77582 11.00000  0.00743   7.30
O00R  3  0.30446  0.43215  0.69543 11.00000  0.03083   7.27
N00S  2 -0.13829  0.12597  0.34124 11.00000  0.02580   7.24
N00T  2 -0.37078  0.05674  0.45150 11.00000  0.00924   7.23
N00U  2  1.17172  0.55616 -0.10366 11.00000  0.03688   7.16
C00V  1  0.05890  0.74849  0.47735 11.00000  0.04370   7.14
C00W  1 -0.14251  0.67894  0.59115 11.00000  0.01471   7.09
N00X  2  1.70085  0.55513  0.07417 11.00000  0.03199   7.01
N00Y  2 -0.69271  0.05612  0.57341 11.00000  0.02493   6.96
N00Z  2  0.58390  0.82144  0.27481 11.00000  0.03464   6.94
N010  2  0.14832  0.69796  0.45781 11.00000  0.02908   6.87
N011  2 -0.41342  0.35766  0.47351 11.00000  0.04366   6.70
N012  2 -0.30140  0.67656  0.64685 11.00000  0.02398   6.65
C013  1  1.17397  0.69207 -0.14577 11.00000  0.02238   6.45
C014  1  1.34887  0.80653  0.02884 11.00000  0.00018   6.42
C015  1 -0.94755  0.02692  0.68462 11.00000  0.02345   6.39
C016  1  0.14859  0.33728  0.67492 11.00000  0.02900   6.39
C017  1  0.28183  0.79928  0.38329 11.00000  0.02270   6.37
C018  1  0.29198  0.36748  0.70528 11.00000  0.03432   6.36
C019  1  1.82867  0.56543  0.11970 11.00000  0.03743   6.32
C01A  1  0.19691  0.81459  0.43450 11.00000  0.00693   6.20
C01B  1  2.22347  0.50817  0.29119 11.00000  0.01737   6.15
C01C  1  1.45287  0.61795 -0.03880 11.00000  0.01309   6.04
C01D  1 -0.51297  0.35345  0.41659 11.00000  0.02582   5.99
O01E  3 -0.34217  0.30833  0.52608 11.00000  0.03405   5.98
C01F  1 -0.42829  0.12561  0.46210 11.00000  0.01252   5.91
O01G  3  0.11348  0.52054  0.57074 11.00000  0.04461   5.90
C01H  1  1.76342  0.64125  0.11203 11.00000  0.01907   5.83
C01I  1  1.29683  0.17314  1.15006 11.00000  0.01542   5.83
C01J  1 -0.17323  0.82275  0.54388 11.00000  0.04312   5.80
C01K  1  0.67683  0.29861  0.88147 11.00000  0.01632   5.79
C01L  1 -0.10318  0.56746  0.46268 11.00000  0.03250   5.73
C01M  1  1.14450  0.93711  0.02580 11.00000  0.03628   5.67
C01N  1  1.43493  0.85733 -0.02975 11.00000  0.02352   5.65
O01O  3  0.71937  0.93199  0.19754 11.00000  0.06827   5.65
C01P  1  1.96653  0.52405  0.17527 11.00000  0.01587   5.61
C01Q  1 -0.61686  0.11883  0.52798 11.00000  0.00010   5.59
O01R  3  1.14154  1.06467 -0.02425 11.00000  0.13937   5.57
C01S  1  0.45555  0.85672  0.31780 11.00000  0.02235   5.53
C01T  1  0.68404  0.22524  0.89638 11.00000  0.02341   5.52
C01U  1 -0.84236  0.06285  0.62747 11.00000  0.00487   5.50
C01V  1  0.55602  0.35747  0.81659 11.00000  0.02312   5.39
C01W  1 -0.63585  0.17727  0.54187 11.00000  0.01007   5.39
C01X  1  1.06679  1.00312  0.02810 11.00000  0.05562   5.31
O01Y  3  2.30376  0.53408  0.33674 11.00000  0.05817   4.94
C01Z  1  2.06192  0.55777  0.22609 11.00000  0.04756   4.88
C020  1 -1.18921 -0.06467  0.80210 11.00000  0.04746   4.76
C021  1  2.27360  0.43852  0.28877 11.00000  0.06059   4.70
C022  1  0.82549  0.84057  0.16952 11.00000  0.02485   4.63
C023  1  1.26642  0.30448  1.11235 11.00000  0.01073   4.59
C024  1 -0.33274  0.19210  0.41804 11.00000  0.02427   4.58
C025  1  1.30226  0.93340 -0.03327 11.00000  0.03819   4.47
C026  1 -0.06802  0.51082  0.52465 11.00000  0.04352   4.40
C027  1  0.81289  0.31786  0.93509 11.00000  0.00010   4.38
C028  1 -0.42315  0.73697  0.65810 11.00000  0.03504   4.37
C029  1 -0.28849  0.42615  0.47152 11.00000  0.03781   4.28
C02A  1 -0.13978  0.43460  0.52698 11.00000  0.03081   4.21
C02B  1 -0.17064  0.18634  0.35912 11.00000  0.03739   4.09
C02C  1  1.36771  0.55491 -0.05242 11.00000  0.02351   4.06
C02D  1  0.30042  0.72866  0.39882 11.00000  0.02036   3.99
C02E  1 -1.22292  0.00599  0.79388 11.00000  0.03363   3.94
C02F  1  1.42402  0.24578  1.15828 11.00000  0.03763   3.79
C02G  1  1.32786  0.68798 -0.08329 11.00000  0.03017   3.70
C02H  1  0.51700  0.73835  0.28901 11.00000  0.01837   3.53
C02I  1  1.59506  0.61641  0.02476 11.00000  0.01270   3.53
C02J  1  0.46069  0.24186  0.78867 11.00000  0.03909   3.38
C02K  1 -1.04168  0.05396  0.72902 11.00000  0.00984   3.34
C02L  1 -0.32143  0.71180  0.53434 11.00000  0.10976   3.29
O02M  3  1.57018  0.84723 -0.07614 11.00000  0.11391   3.21
C02N  1 -0.31031  0.80182  0.61347 11.00000  0.03207   3.01
HKLF 4
END
