TITL 22_a.res in P-1
REM Old TITL 22 in P1
REM SHELXT solution in P-1: R1 0.306, Rweak 0.104, Alpha 0.246
REM <I/s>   0.000 for    0 systematic absences,  Orientation as input
REM Formula found by SHELXT:  C36 N4 O4 Cl4

CELL  0.71073   3.7900  19.8800  21.8100   68.350   90.000   90.000
ZERR   20.000   0.0008   0.0040   0.0044    0.030    0.030    0.030
LATT  1
SFAC C N O CL
UNIT 20 20 20 20
L.S. 10
BOND
LIST 6
FMAP 2
PLAN 20
CL01  4  1.67635  0.83831 -0.20324 11.00000  0.07227  11.53
CL02  4 -0.18340  0.34032  0.29493 11.00000  0.07325  10.79
CL03  4 -0.15289  0.04858  0.37795 11.00000  0.07189  10.61
CL04  4  1.64908  0.54859 -0.12121 11.00000  0.07961  10.45
N005  2  1.05626  0.62135  0.07083 11.00000  0.02473   6.77
N006  2  0.38711  0.23879  0.54335 11.00000  0.02637   6.73
N007  2  0.79368  0.18979  0.71249 11.00000  0.03194   6.59
C008  1  0.18482  0.18838  0.46144 11.00000  0.01933   6.59
N009  2  0.10621  0.12151  0.45002 11.00000  0.02610   6.52
C00A  1  1.32677  0.68805 -0.03809 11.00000  0.01703   6.37
C00B  1  1.11409  0.73895  0.04180 11.00000  0.00980   6.33
C00C  1  0.10165  0.25576  0.41519 11.00000  0.02234   6.29
C00D  1  0.10800  0.37024  0.52851 11.00000  0.03219   6.19
C00E  1  0.95055  0.70600  0.10758 11.00000  0.01363   6.18
C00F  1 -0.04153  0.12476  0.39122 11.00000  0.01977   6.14
C00G  1  0.57149  0.13290  0.62023 11.00000  0.02824   6.14
C00H  1 -0.14164  0.19514  0.34359 11.00000  0.01639   6.11
C00I  1  1.39225  0.61974 -0.04570 11.00000  0.02486   6.05
C00J  1  0.53728  0.56748  0.29486 11.00000  0.02819   6.05
C00K  1  1.40465  0.75498 -0.08551 11.00000  0.02632   6.03
C00L  1  0.96265  0.07014  0.79235 11.00000  0.02655   6.01
C00M  1  0.33790  0.18477  0.52338 11.00000  0.01841   6.00
C00N  1  1.54409  0.62829 -0.10853 11.00000  0.02711   5.92
C00O  1 -0.06180  0.25856  0.35212 11.00000  0.01639   5.89
O00P  3  1.18022  0.91552 -0.07351 11.00000  0.07582   5.89
C00Q  1  0.81091  0.11689  0.72557 11.00000  0.01638   5.85
C00R  1  1.15532  0.68455  0.02629 11.00000  0.01698   5.84
C00S  1  0.65683  0.23927  0.65071 11.00000  0.02701   5.81
C00T  1  0.93844  0.63221  0.12207 11.00000  0.01881   5.77
C00U  1  1.38493  0.87081  0.02929 11.00000  0.02964   5.75
C00V  1  0.18119  0.42516  0.47219 11.00000  0.03952   5.73
C00W  1  0.79842  0.58607  0.18264 11.00000  0.02763   5.69
O00X  3  0.44317  0.59313  0.33046 11.00000  0.07317   5.68
O00Y  3  1.06338  0.10005  0.83157 11.00000  0.07115   5.60
C00Z  1  0.54164  0.20767  0.60825 11.00000  0.02571   5.59
C010  1  0.70238  0.08313  0.67986 11.00000  0.02590   5.57
C011  1  0.85061  0.73937  0.15315 11.00000  0.03559   5.57
C012  1  0.97124  0.00254  0.79878 11.00000  0.03724   5.56
C013  1  1.63841  0.69317 -0.15848 11.00000  0.02735   5.48
C014  1  0.44156  0.11753  0.56854 11.00000  0.00804   5.48
C015  1  1.55733  0.75653 -0.14405 11.00000  0.02272   5.47
C016  1  0.70550  0.69446  0.21234 11.00000  0.03499   5.43
C017  1  1.32761  0.92241 -0.02788 11.00000  0.03908   5.39
C018  1  0.54652  0.50176  0.30380 11.00000  0.03610   5.21
C019  1  0.69404  0.61600  0.22755 11.00000  0.02040   5.15
C01A  1  0.08430  0.49815  0.47168 11.00000  0.05450   5.09
O01B  3  0.33269  0.41517  0.42340 11.00000  0.08738   4.68
C01C  1  1.43627  0.99767 -0.02849 11.00000  0.04012   4.00
HKLF 4
END
