TITL 23_a.res in P1
REM Old TITL 23 in P-1
REM SHELXT solution in P1: R1 0.283, Rweak 0.128, Alpha 0.000
REM <I/s>   0.000 for    0 systematic absences,  Orientation as input
REM Flack x =  0.486 ( 0.183 ) from   894 Parsons' quotients
REM Formula found by SHELXT:  C58 N15 O24 Cl4

CELL  0.71073   3.7700  19.8800  21.7500   68.880   90.000   90.000
ZERR   20.000   0.0008   0.0040   0.0044    0.030    0.030    0.030
LATT -1
SFAC C N O CL
UNIT 20 20 20 20
L.S. 10
BOND
LIST 6
FMAP 2
PLAN 20
CL01  4  1.05614  0.48282  0.76623 11.00000  0.07715  11.90
O002  3 -0.00864  0.69456  0.34050 11.00000  0.03051  11.29
CL03  4  0.22672  0.27520  0.18219 11.00000  0.07105  11.27
CL04  4  0.53267  0.88901  0.50609 11.00000  0.06886  11.10
O005  3  1.09383  0.77736  0.68100 11.00000  0.00244  11.08
CL06  4  0.73129  0.09607  1.08912 11.00000  0.07403  10.80
N007  2  1.35223  0.64647  0.99514 11.00000  0.02014  10.30
O008  3  0.57851  0.59386  0.59081 11.00000  0.01171  10.18
O009  3  1.30230  0.19748  0.84266 11.00000  0.01748   9.86
N00A  2  0.06569  0.75319  0.36100 11.00000  0.01053   9.47
N00B  2  0.45255  0.67415  0.53771 11.00000  0.01481   9.46
N00C  2  1.24759  0.24996  0.86048 11.00000  0.00847   9.20
N00D  2  1.09402  0.24556  0.91936 11.00000  0.01321   9.15
O00E  3  0.23880 -0.01442  0.26323 11.00000  0.01560   9.15
O00F  3  0.75772  0.38852  1.00752 11.00000  0.01143   9.13
O00G  3 -0.67007  0.84047  0.05110 11.00000  0.01451   9.00
O00H  3 -0.94489  1.01209 -0.08572 11.00000  0.02961   8.93
O00I  3  0.52730  0.73956  0.54177 11.00000  0.01712   8.69
N00J  2  0.31441  0.68512  0.46895 11.00000  0.03676   8.55
O00K  3  0.91916  0.14362  0.49617 11.00000  0.05123   8.12
N00L  2  1.00934  0.18242  0.96569 11.00000  0.02118   8.03
O00M  3  1.24426  0.67030  1.03876 11.00000  0.07162   7.95
N00N  2 -0.42628  0.81888  0.15917 11.00000  0.02509   7.69
N00O  2  0.51231  0.06187  0.33462 11.00000  0.02637   7.62
O00P  3  1.94736  0.33868  0.55466 11.00000  0.02253   7.49
O00Q  3 -0.42744  0.85362 -0.19014 11.00000  0.02825   7.44
N00R  2  0.78777  0.55794  0.82779 11.00000  0.06038   7.38
C00S  1  0.90792  0.51111  1.17841 11.00000  0.01000   7.17
N00T  2 -0.05566  0.81585  0.31329 11.00000  0.00844   7.03
N00U  2 -0.18565  0.93160 -0.14441 11.00000  0.01973   6.98
O00V  3  1.02527  0.17706  0.53830 11.00000  0.04102   6.96
N00W  2  1.13262  0.63013  1.09777 11.00000  0.03279   6.83
N00X  2 -0.38609  0.75148  0.17340 11.00000  0.02217   6.76
N00Y  2  0.83825  0.18089  1.02788 11.00000  0.05624   6.67
C00Z  1 -0.31569  0.84603  0.20718 11.00000  0.02988   6.42
C010  1  0.21549  0.51054  0.40951 11.00000  0.01123   6.29
C011  1  0.95748  0.68917  0.74125 11.00000  0.01914   6.24
C012  1 -0.16142  0.80580  0.26375 11.00000  0.00797   6.23
O013  3  1.18323  0.13217  0.59941 11.00000  0.04461   6.23
C014  1  1.82605  0.43892  0.58217 11.00000  0.03497   6.21
C015  1  1.58781  0.34505  0.70342 11.00000  0.02367   6.20
C016  1  0.49198  0.43160  0.36045 11.00000  0.05390   6.18
C017  1  0.75970  0.24323  1.04026 11.00000  0.00511   6.16
C018  1  1.38366  0.00854  0.67630 11.00000  0.03999   6.15
C019  1  0.59762  0.12777  0.33875 11.00000  0.02874   6.09
C01A  1  0.42124  0.80646  0.49898 11.00000  0.02200   6.04
O01B  3  0.94013  0.44220  1.19014 11.00000  0.04578   6.02
C01C  1  1.70393  0.24186  0.67385 11.00000  0.04990   5.99
C01D  1 -0.94736  1.06041 -0.15084 11.00000  0.05088   5.99
O01E  3  0.52182  0.69459  1.07688 11.00000  0.21303   5.95
C01F  1  1.70263  0.31945  0.65875 11.00000  0.01489   5.81
C01G  1  0.23709  0.56303  0.34942 11.00000  0.05570   5.80
C01H  1  0.80294  0.69264  0.79051 11.00000  0.01894   5.78
C01I  1  0.49415  0.30661  0.40964 11.00000  0.01391   5.70
C01J  1  1.01349  0.07031  0.51108 11.00000  0.04123   5.68
C01K  1  0.31020  0.81741  0.43229 11.00000  0.02123   5.68
C01L  1  1.34066  0.56860  1.00426 11.00000  0.01500   5.68
C01M  1  1.22894  0.67771  0.87189 11.00000  0.17317   5.67
O01N  3  1.33801 -0.06041  0.68956 11.00000  0.03384   5.54
C01O  1  0.22163  0.74825  0.42228 11.00000  0.01967   5.46
C01P  1  0.84161  0.30836  0.99006 11.00000  0.03281   5.42
C01Q  1  1.19669  0.51398  1.06883 11.00000  0.04396   5.39
C01R  1 -0.56300  0.86811  0.09165 11.00000  0.02887   5.22
C01S  1  0.49366  0.19313  0.29927 11.00000  0.02202   5.09
C01T  1  0.76583  0.17405  0.42730 11.00000  0.02116   5.07
O01U  3 -0.19518  0.80504 -0.08941 11.00000  0.03594   4.99
C01V  1  0.31311  0.18933  0.24576 11.00000  0.04873   4.99
C01W  1  1.10074  0.68969  0.59832 11.00000  0.10786   4.98
C01X  1  1.44860  0.55053  0.95238 11.00000  0.02964   4.89
O01Y  3 -0.59383  0.93759  0.08960 11.00000  0.08719   4.78
C01Z  1  0.70627  0.35230  0.30780 11.00000  0.01705   4.72
C020  1  1.49133  0.30258  0.75909 11.00000  0.04481   4.65
O021  3  0.04952  0.52417  0.43939 11.00000  0.08619   4.59
C022  1  1.19576  0.05260  0.61271 11.00000  0.02883   4.56
C023  1  1.09381  0.01886  0.56543 11.00000  0.03562   4.55
C024  1  0.97208  0.71035  0.54206 11.00000  0.11011   4.49
C025  1  1.54943  0.19687  0.73987 11.00000  0.03544   4.42
C026  1  1.33282  0.31281  0.81514 11.00000  0.00439   4.37
C027  1  0.85193  0.46553  1.02169 11.00000  0.17734   4.36
C028  1  0.33912  0.06143  0.27503 11.00000  0.02109   4.16
C029  1  1.07633  0.54920  1.11414 11.00000  0.04070   4.13
C02A  1  0.85046  0.05353  0.45023 11.00000  0.01363   4.13
C02B  1  0.13432  0.68742  0.25310 11.00000  0.10452   4.10
O02C  3 -0.21140  0.92399  0.19016 11.00000  0.32460   4.09
C02D  1  1.82176  0.37328  0.58776 11.00000  0.04626   3.93
C02E  1 -0.15329  0.72587  0.28234 11.00000  0.01825   3.92
C02F  1  0.80058  0.67424  1.08820 11.00000  0.19874   3.90
C02G  1  0.77744  0.62763  0.84527 11.00000  0.04676   3.89
O02H  3  1.25182  0.18879  0.61803 11.00000  0.23766   3.88
C02I  1  1.05199  0.65009  0.66616 11.00000  0.16074   3.86
C02J  1  0.41252  0.64451  0.30169 11.00000  0.09661   3.72
C02K  1  0.99019  0.31752  0.92830 11.00000  0.00644   3.57
C02L  1  0.77222  0.69695  0.45928 11.00000  0.11549   3.51
C02M  1  0.32829  0.44057  0.41871 11.00000  0.02893   3.47
C02N  1  0.22399  0.12440  0.23256 11.00000  0.07042   3.46
C02O  1 -0.31544  0.70007  0.23943 11.00000  0.04377   3.43
C02P  1  0.93812  0.56234  0.78184 11.00000  0.03224   3.43
C02Q  1  1.45222  0.23176  0.78370 11.00000  0.01675   3.39
C02R  1 -0.66246  0.92093 -0.07295 11.00000  0.09117   3.20
O02S  3  0.74808  0.43321  1.10211 11.00000  0.27427   3.15
C02T  1  0.71953  0.12118  0.40995 11.00000  0.05777   3.05
HKLF 4
END
