TITL 24_a.res in P1
REM Old TITL 24 in P-1
REM SHELXT solution in P1: R1 0.283, Rweak 0.142, Alpha 0.000
REM <I/s>   0.000 for    0 systematic absences,  Orientation as input
REM Flack x =  0.250 ( 0.174 ) from   899 Parsons' quotients
REM Formula found by SHELXT:  C61 N11 O12 Cl5

CELL  0.71073   3.7800  19.9100  21.7500   68.760   90.000   90.000
ZERR   20.000   0.0008   0.0040   0.0044    0.030    0.030    0.030
LATT -1
SFAC C N O CL
UNIT 20 20 20 20
L.S. 10
BOND
LIST 6
FMAP 2
PLAN 20
CL01  4  1.05340  0.77463 -0.20464 11.00000  0.07185  11.31
CL02  4  1.09071  0.48089 -0.11991 11.00000  0.07647  10.92
CL03  4 -0.07487  0.27390  0.29622 11.00000  0.06488  10.59
CL04  4 -0.40405  0.88582  0.62442 11.00000  0.09282  10.02
O005  3  2.30034  0.53214  0.33447 11.00000  0.02798   9.75
CL06  4 -0.10636 -0.01879  0.38131 11.00000  0.08225   9.74
O007  3  2.05856  0.55289  0.22697 11.00000  0.01756   9.54
O008  3  1.39063  0.38329  1.12481 11.00000  0.01590   9.37
N009  2  0.71707  0.22458  0.89141 11.00000  0.01151   9.06
O00A  3 -1.30034  0.03273  0.82865 11.00000  0.02999   8.87
O00B  3 -0.43626  0.59548  0.70419 11.00000  0.02280   8.81
N00C  2 -1.06437  0.04959  0.72533 11.00000  0.01580   8.71
C00D  1  0.28528  0.72589  0.39199 11.00000  0.00122   8.60
O00E  3  1.40165  0.09415  1.20464 11.00000  0.02204   8.59
O00F  3  1.35793  0.55145 -0.04833 11.00000  0.07578   7.78
C00G  1 -0.42733  0.35526  0.47355 11.00000  0.01070   7.76
C00H  1 -0.17347  0.56631  0.47645 11.00000  0.01648   7.74
O00I  3  1.63549  0.66912  0.04325 11.00000  0.04947   7.43
N00J  2 -0.08857  0.12814  0.34299 11.00000  0.04402   7.34
N00K  2  1.10190  0.63242 -0.15577 11.00000  0.04178   7.29
C00L  1 -0.56607  0.11887  0.52137 11.00000  0.03840   7.27
C00M  1  1.81492  0.56227  0.12159 11.00000  0.04048   7.16
N00N  2 -0.65630  0.17570  0.53817 11.00000  0.02436   6.95
N00O  2  1.22477  0.55737 -0.10913 11.00000  0.04888   6.92
N00P  2 -0.67052  0.04818  0.57197 11.00000  0.02855   6.86
N00Q  2 -1.07029  0.12779  0.71369 11.00000  0.06431   6.71
N00R  2  1.91982  0.51776  0.18066 11.00000  0.03913   6.67
N00S  2 -0.33538  0.67912  0.64159 11.00000  0.03250   6.56
C00T  1  2.22292  0.44004  0.29438 11.00000  0.03089   6.43
C00U  1  0.02759  0.51337  0.57958 11.00000  0.04614   6.41
C00V  1 -0.83945  0.06463  0.62197 11.00000  0.01457   6.39
C00W  1  1.68399  0.54814  0.07064 11.00000  0.00433   6.38
C00X  1 -0.42617  0.12008  0.46067 11.00000  0.04725   6.37
O00Y  3  0.90757  1.01408  0.08278 11.00000  0.06314   6.36
C00Z  1  1.18181  0.69495 -0.14977 11.00000  0.02250   6.27
C010  1 -0.33640  0.05221  0.45424 11.00000  0.03039   6.15
O011  3 -1.21812 -0.06498  0.79566 11.00000  0.05931   6.11
O012  3  1.34132  0.80826  0.02763 11.00000  0.06677   6.00
C013  1  1.32223  0.68785 -0.08480 11.00000  0.01819   5.94
C014  1  1.42558  0.62198 -0.03933 11.00000  0.00710   5.93
C015  1  1.56785  0.62552  0.02324 11.00000  0.04362   5.92
C016  1  0.72448  0.85806  0.20688 11.00000  0.03630   5.91
C017  1  1.06305  0.24618  1.03892 11.00000  0.06280   5.89
C018  1  2.04121  0.61927  0.21922 11.00000  0.01670   5.79
C019  1 -0.97478  0.02193  0.68151 11.00000  0.04888   5.72
C01A  1  0.27991  0.36143  0.70887 11.00000  0.00517   5.71
C01B  1 -0.16161  0.68223  0.58522 11.00000  0.03048   5.69
C01C  1  0.91092  0.25378  0.97514 11.00000  0.01251   5.62
C01D  1  0.60665  0.19547  0.84917 11.00000  0.02599   5.60
C01E  1 -0.93642  0.17428  0.64939 11.00000  0.03120   5.53
C01F  1 -0.41480  0.30740  0.53482 11.00000  0.04021   5.49
C01G  1  0.83663  0.19286  0.95503 11.00000  0.02789   5.48
C01H  1  1.32217  0.17893  1.14342 11.00000  0.03060   5.47
C01I  1  1.13475  0.30944  1.05327 11.00000  0.01637   5.39
C01J  1 -0.20740  0.06019  0.39659 11.00000  0.03569   5.25
C01K  1  1.12759  1.06498 -0.02691 11.00000  0.03581   5.19
C01L  1  1.39810  0.85793 -0.02208 11.00000  0.02603   5.16
C01M  1  0.47205  0.23862  0.79420 11.00000  0.02657   5.07
C01N  1  0.67244  0.29963  0.88135 11.00000  0.04568   5.05
C01O  1  1.13201  0.17680  1.08561 11.00000  0.03457   4.98
C01P  1 -0.06604  0.74400  0.53572 11.00000  0.01933   4.96
C01Q  1 -0.12287  0.81151  0.54618 11.00000  0.02333   4.91
C01R  1  0.43070  0.85375  0.31550 11.00000  0.03032   4.84
C01S  1  0.79857  0.30875  0.93093 11.00000  0.02194   4.74
C01T  1  1.29980  0.30585  1.11291 11.00000  0.02384   4.69
C01U  1 -0.29750  0.80708  0.61010 11.00000  0.02699   4.66
C01V  1  0.37716  0.69986  0.34816 11.00000  0.04734   4.64
C01W  1  0.51562  0.74361  0.28820 11.00000  0.03272   4.58
C01X  1 -0.34669  0.19502  0.41191 11.00000  0.02666   4.56
C01Y  1  0.68642  0.93415  0.18589 11.00000  0.03680   4.52
C01Z  1  1.90893  0.66961  0.15458 11.00000  0.04718   4.52
C020  1  1.35769  0.92581 -0.03588 11.00000  0.05562   4.51
C021  1 -0.33573  0.42597  0.47325 11.00000  0.01441   4.41
C022  1  0.30055  0.80129  0.37725 11.00000  0.04405   4.37
C023  1  0.21502  0.81285  0.42979 11.00000  0.02036   4.23
N024  2  0.14963  0.69892  0.44566 11.00000  0.04241   4.21
C025  1  0.50365  0.34518  0.82328 11.00000  0.02468   4.13
C026  1  1.20454  0.93768  0.02431 11.00000  0.03499   3.97
C027  1 -1.21639 -0.00468  0.80167 11.00000  0.02743   3.95
C028  1 -0.09029  0.49967  0.73602 11.00000  0.31318   3.90
C029  1  0.10063  0.74998  0.47473 11.00000  0.01193   3.86
C02A  1  1.03571  1.00992  0.03546 11.00000  0.04557   3.78
C02B  1 -0.79932  0.14331  0.60405 11.00000  0.05399   3.76
O02C  3 -0.58527  0.34612  0.42960 11.00000  0.07482   3.57
C02D  1  1.60291  0.84437 -0.06900 11.00000  0.05460   3.55
C02E  1 -0.35241  0.74024  0.65957 11.00000  0.04143   3.34
C02F  1 -0.23501  0.19734  0.35009 11.00000  0.04790   3.29
C02G  1  1.38028  0.24241  1.15851 11.00000  0.02962   3.16
C02H  1  0.32209  0.43598  0.68867 11.00000  0.03897   3.12
HKLF 4
END
