TITL 25_a.res in P1
REM Old TITL 25 in P-1
REM SHELXT solution in P1: R1 0.414, Rweak 0.034, Alpha 0.000
REM <I/s>   0.000 for    0 systematic absences,  Orientation as input
REM Flack x =  0.390 ( 0.294 ) from   273 Parsons' quotients
REM Formula found by SHELXT:  C51 N23 O27 Cl4

CELL  0.71073   3.7900  20.1600  22.0600   66.940   90.000   90.000
ZERR   21.000   0.0008   0.0040   0.0044    0.030    0.030    0.030
LATT -1
SFAC C N O CL
UNIT 21 21 21 21
L.S. 10
BOND
LIST 6
FMAP 2
PLAN 20
CL01  4  0.01543  0.81722  0.28558 11.00000  0.08275  14.32
CL02  4  0.68890  0.47717  0.62154 11.00000  0.10242  13.41
CL03  4  0.55816  0.91848  0.10758 11.00000  0.09404  12.64
CL04  4  0.85868  0.33107  0.78526 11.00000  0.08402  12.56
O005  3  0.78108  0.40587  0.60665 11.00000  0.04014  12.00
O006  3  0.90747  0.98233  0.11612 11.00000  0.05998  11.81
O007  3  1.18896  0.17682  0.76738 11.00000  0.02708  11.57
N008  2  0.93695  0.11362  0.69806 11.00000  0.04497  11.38
O009  3  1.00034  0.46487  0.35849 11.00000  0.00997  11.04
O00A  3  0.72921  0.33255  0.67054 11.00000  0.00391  10.59
N00B  2  0.51471  0.56189  0.25476 11.00000  0.00144  10.57
O00C  3  1.27428  0.43528  0.59799 11.00000  0.04781  10.44
O00D  3 -0.25989  0.81809  0.29315 11.00000  0.02005  10.36
O00E  3  0.84964  0.55925  0.36125 11.00000  0.06249  10.22
O00F  3  0.86625  0.15615  0.70988 11.00000  0.04034  10.16
C00G  1 -0.48714  0.88831  0.32415 11.00000  0.01870   9.79
N00H  2  0.93399  0.21455  0.73717 11.00000  0.03238   9.62
N00I  2  0.54541  0.38045  0.22521 11.00000  0.02725   9.48
O00J  3  1.20424 -0.07948  0.70997 11.00000  0.04621   9.17
O00K  3  0.17411  0.62137  0.21267 11.00000  0.04083   9.16
O00L  3  1.44237  0.26142  0.76915 11.00000  0.07452   9.06
O00M  3  0.17982  0.68508  0.26300 11.00000  0.02025   8.85
O00N  3  1.04757  0.82775  0.16730 11.00000  0.00851   8.67
O00O  3  1.26116  0.22040  0.86522 11.00000  0.08315   8.64
O00P  3  0.93237  0.92707  0.10295 11.00000  0.06172   8.58
O00Q  3  0.46373  0.59506  0.19495 11.00000  0.05005   8.53
O00R  3  0.26471  0.76110  0.26505 11.00000  0.04914   8.36
N00S  2  1.03335  0.25077  0.78243 11.00000  0.05658   8.35
O00T  3  1.29207  0.40702  0.46528 11.00000  0.06386   8.20
O00U  3  1.39559 -0.09670  0.96907 11.00000  0.07076   8.14
O00V  3  0.80408  0.27515  0.65042 11.00000  0.06533   8.03
O00W  3  1.77539 -0.22319  0.93544 11.00000  0.05199   7.99
O00X  3  1.05967  0.37199  0.83648 11.00000  0.07761   7.79
O00Y  3  1.76880  0.05096  0.85548 11.00000  0.06251   7.77
N00Z  2  0.89000  0.06916  0.67519 11.00000  0.01789   7.76
N010  2  0.23648  0.42885  0.19037 11.00000  0.07808   7.73
O011  3 -0.19752  0.42336  0.03859 11.00000  0.07705   7.65
C012  1  1.83393 -0.17076  0.93941 11.00000  0.05046   7.61
O013  3  0.94540  0.05877  0.52875 11.00000  0.04632   7.56
N014  2  0.26635  0.64757  0.62246 11.00000  0.05211   7.50
N015  2  1.28939  0.05673  0.73957 11.00000  0.02484   7.20
N016  2  0.55074  0.57379  0.60146 11.00000  0.06961   7.18
N017  2  1.34389 -0.08811  0.76359 11.00000  0.07760   7.17
N018  2  1.59997 -0.03026  0.85256 11.00000  0.01588   7.05
N019  2  0.73299  1.14270  0.11448 11.00000  0.08125   6.97
N01A  2  0.45569  0.97588  0.10928 11.00000  0.03967   6.94
N01B  2  1.47535  0.10823  0.87492 11.00000  0.07210   6.85
N01C  2  0.76230  0.27564  0.43275 11.00000  0.07012   6.83
N01D  2  0.38498  0.24935  0.61837 11.00000  0.09887   6.79
N01E  2  0.16805  0.34243  0.18985 11.00000  0.05621   6.72
N01F  2 -0.73713  0.97744  0.35167 11.00000  0.03048   6.65
C01G  1  1.55711  0.18209  0.90577 11.00000  0.04601   6.48
C01H  1  1.40406  0.30928  0.78646 11.00000  0.06139   6.23
C01I  1  0.55960  0.09344  0.54511 11.00000  0.06782   6.20
C01J  1  0.62774 -0.08574  0.53538 11.00000  0.05232   6.19
C01K  1  0.58102  0.86175  0.19639 11.00000  0.01346   6.18
C01L  1  0.73580 -0.13254  0.72821 11.00000  0.02442   6.07
C01M  1  0.99227 -0.02156  0.73355 11.00000  0.05244   6.04
C01N  1  1.25878 -0.17711  0.68605 11.00000  0.06765   5.72
C01O  1  0.51263  1.23442  0.01857 11.00000  0.06641   5.62
C01P  1  0.25910  0.90999  0.22687 11.00000  0.00010   5.54
C01Q  1  1.16093  0.37700  0.47451 11.00000  0.03393   5.51
N01R  2 -0.83393  0.91034  0.35318 11.00000  0.08917   5.51
C01S  1  0.91150  0.77267  0.13427 11.00000  0.03139   5.46
C01T  1  0.74912  1.07824  0.09451 11.00000  0.07094   5.45
C01U  1  1.17114 -0.23442  0.66492 11.00000  0.02090   5.43
C01V  1 -0.41748  0.91912  0.38959 11.00000  0.03051   5.39
C01W  1  1.60117  0.05828  0.76484 11.00000  0.01428   5.31
C01X  1  0.67698  0.79238  0.18395 11.00000  0.04322   5.15
C01Y  1  1.48256  0.11300  0.81245 11.00000  0.00796   5.10
C01Z  1  1.03843  0.06218  0.74455 11.00000  0.05085   5.07
O020  3  1.52605  0.40929  0.87470 11.00000  0.23550   4.98
C021  1  0.63032  0.72229  0.24627 11.00000  0.02550   4.96
C022  1  0.08585  0.34351  0.24065 11.00000  0.02584   4.89
C023  1  0.95649 -0.12896  0.62403 11.00000  0.02703   4.88
C024  1  0.83467  0.62774  0.60770 11.00000  0.06443   4.79
N025  2  0.20594  0.63227  0.12358 11.00000  0.11306   4.66
C026  1  1.55267  0.06530  0.70424 11.00000  0.02236   4.65
C027  1  0.53859  0.61358  0.30963 11.00000  0.00636   4.63
C028  1  1.77621  0.04785  0.96907 11.00000  0.03856   4.57
C029  1  0.30001  0.72376  0.52248 11.00000  0.03293   4.55
C02A  1 -0.43489  0.80367  0.36081 11.00000  0.04813   4.51
N02B  2  0.64106  0.53846  0.31060 11.00000  0.02035   4.24
C02C  1  0.69762 -0.17070  0.79659 11.00000  0.02913   4.16
C02D  1  1.50764  0.48967  0.92102 11.00000  0.05742   4.12
C02E  1  0.77591  0.55602  0.23937 11.00000  0.00067   4.11
C02F  1  1.01299  0.49205  0.67376 11.00000  0.05007   4.07
C02G  1  1.29869  0.02717  0.80932 11.00000  0.00857   4.04
N02H  2  1.32571  0.36057  0.98143 11.00000  0.06354   3.99
C02I  1  1.33545  0.37139  0.70354 11.00000  0.08639   3.93
C02J  1 -0.33924  0.81766  0.43814 11.00000  0.07750   3.84
C02K  1  0.65759  0.44110  0.22194 11.00000  0.08122   3.81
C02L  1  1.20275  0.53057  0.87793 11.00000  0.06916   3.75
C02M  1 -0.05143  0.46825  0.11789 11.00000  0.02239   3.60
C02N  1 -0.04215  0.31162  0.29149 11.00000  0.04347   3.52
C02O  1  1.40386  0.41710  0.72178 11.00000  0.01050   3.51
C02P  1 -0.17923  0.72352  0.48317 11.00000  0.07433   3.48
C02Q  1  0.35614  0.59465  0.04985 11.00000  0.05690   3.48
C02R  1  0.30905  0.62087  0.58399 11.00000  0.08593   3.47
C02S  1  0.96106  1.05182  0.05963 11.00000  0.06398   3.31
C02T  1  0.47129  0.55171  0.66805 11.00000  0.06926   3.31
C02U  1  1.46009  0.01155  0.90832 11.00000  0.09408   3.25
C02V  1  1.47337  0.48728  0.85073 11.00000  0.09784   3.09
C02W  1  0.89681  0.72619  0.08748 11.00000  0.11160   3.04
C02X  1 -0.13980  0.53719  0.02153 11.00000  0.05402   3.01
HKLF 4
END
