TITL 26_a.res in P1
REM Old TITL 26 in P-1
REM SHELXT solution in P1: R1 0.459, Rweak 0.047, Alpha 0.000
REM <I/s>   0.000 for    0 systematic absences,  Orientation as input
REM Flack x = -7.563 ( 9.990 ) from    94 Parsons' quotients
REM Formula found by SHELXT:  C65 N17 O23

CELL  0.71073   3.7500  20.1200  22.2200   67.690   90.000   90.000
ZERR   21.000   0.0008   0.0040   0.0044    0.030    0.030    0.030
LATT -1
SFAC C N O CL
UNIT 21 21 21 21
L.S. 10
BOND
LIST 6
FMAP 2
PLAN 20
O001  3  1.40271  0.33245  0.12960 11.00000  0.05541  11.68
O002  3  1.42952  0.27723  0.12262 11.00000  0.05028  10.96
N003  2  0.66263  0.29835  0.37471 11.00000  0.00010  10.65
C004  1  0.39701  0.32956  0.75164 11.00000  0.00010   9.84
N005  2 -0.03164  0.25646  0.70541 11.00000  0.02638   9.57
N006  2  1.11679  0.41831  0.19695 11.00000  0.00831   9.40
O007  3  0.74321  0.48991  0.15059 11.00000  0.02476   9.20
O008  3  0.75138  0.75520  0.21236 11.00000  0.01229   8.87
N009  2  0.25677  0.48277  0.71669 11.00000  0.03173   8.82
C00A  1  1.32675  0.18910  0.18055 11.00000  0.00010   8.64
O00B  3  0.95202  0.71160  0.71057 11.00000  0.04084   8.40
O00C  3  0.69336  0.83728  0.63602 11.00000  0.05874   8.31
C00D  1  0.83940  0.47762  0.54319 11.00000  0.03530   8.26
O00E  3  1.69670  0.23819  0.00256 11.00000  0.07939   8.21
O00F  3  0.92873  0.92761  0.27156 11.00000  0.03367   8.14
O00G  3  1.20415  0.71840  0.26199 11.00000  0.05399   8.06
O00H  3  1.74210  0.32998  0.01704 11.00000  0.06382   8.06
O00I  3  0.48658  0.82933  0.51460 11.00000  0.08430   8.02
O00J  3  0.19139 -0.02098  0.64297 11.00000  0.05125   7.80
O00K  3  0.34790  0.79087  0.89120 11.00000  0.04128   7.76
O00L  3  1.43146  0.21105  0.20712 11.00000  0.02698   7.72
O00M  3  0.44190  0.74242  0.50537 11.00000  0.05155   7.72
C00N  1  0.25997  0.82227  0.61610 11.00000  0.02436   7.59
N00O  2  1.13594  0.46651  0.13923 11.00000  0.01098   7.57
O00P  3  0.56545  0.50786  0.94030 11.00000  0.08782   7.46
N00Q  2  0.52566  0.69510  0.68792 11.00000  0.02826   7.36
N00R  2  1.29035  0.51213  0.19774 11.00000  0.00715   7.36
N00S  2 -0.12204 -0.07886  0.69944 11.00000  0.04015   7.03
N00T  2  0.75270  0.77044  0.62639 11.00000  0.02754   6.75
N00U  2  0.94015  0.68142  0.86223 11.00000  0.01452   6.74
N00V  2  1.10063  0.66559  0.15886 11.00000  0.00010   6.66
N00W  2 -0.06887  0.42933  0.76548 11.00000  0.12800   6.64
O00X  3  1.35625  0.53971  0.35266 11.00000  0.03597   6.61
N00Y  2  0.96768  0.57958  0.14774 11.00000  0.00010   6.60
C00Z  1  0.65873  0.25669  0.37367 11.00000  0.10288   6.59
N010  2  0.82696  0.63295  0.79287 11.00000  0.02033   6.56
N011  2  0.20268  0.44344  0.77424 11.00000  0.05936   6.47
C012  1  0.10288  0.32887  0.60685 11.00000  0.04958   6.36
C013  1  0.62307  0.48661  0.63323 11.00000  0.03545   6.35
C014  1  0.89918  0.55038  0.50888 11.00000  0.03350   6.24
C015  1  0.97810  0.76193  0.18953 11.00000  0.06072   6.19
C016  1  0.27830  0.60771  0.99438 11.00000  0.03220   6.11
C017  1  0.37945  0.18171  0.68073 11.00000  0.02085   6.01
C018  1  0.55715  0.25952  0.41452 11.00000  0.11650   6.01
C019  1  0.23563  0.72662  0.60780 11.00000  0.09007   5.99
C01A  1  0.69038  0.85041  0.23697 11.00000  0.09532   5.99
C01B  1  0.74227  0.49121  1.01928 11.00000  0.03639   5.98
C01C  1  0.53851 -0.01488  0.64487 11.00000  0.05967   5.91
C01D  1  0.39343  0.07762  0.63697 11.00000  0.04803   5.78
C01E  1  0.54955  0.98168  0.22350 11.00000  0.01505   5.74
C01F  1  1.06319  0.26886  0.24388 11.00000  0.00010   5.65
C01G  1  1.78462  0.33467 -0.04840 11.00000  0.05952   5.45
C01H  1  1.37550  0.58701  0.30289 11.00000  0.03128   5.44
C01I  1  0.76875  0.78727  0.87614 11.00000  0.07618   5.36
C01J  1  0.19872  0.83141  0.25812 11.00000  0.00010   5.30
O01K  3  0.54129  0.37802  0.43923 11.00000  0.07941   5.22
N01L  2  0.28621  0.27575  0.81269 11.00000  0.03926   5.21
C01M  1  0.26859  0.69161  0.94891 11.00000  0.06044   5.10
C01N  1  0.41687  0.69233  0.56083 11.00000  0.01666   5.05
C01O  1  0.79237  0.76682  0.74380 11.00000  0.03604   5.05
O01P  3  0.36307  0.87426  0.93910 11.00000  0.10568   5.01
O01Q  3  0.89862  0.43851  0.52451 11.00000  0.13791   5.00
C01R  1 -0.79495  0.98658  1.04840 11.00000  0.09171   4.99
C01S  1  0.15371 -0.09439  0.76441 11.00000  0.02731   4.86
C01T  1  0.39000  0.29576  0.38666 11.00000  0.01205   4.79
O01U  3  0.33709  0.57981  1.03907 11.00000  0.05643   4.78
C01V  1  0.78124  0.69097  0.80378 11.00000  0.02361   4.69
C01W  1  0.78920  0.71328  0.11837 11.00000  0.00010   4.58
C01X  1  0.66183  1.09439  0.90133 11.00000  0.06933   4.55
C01Y  1  1.12157  0.65110  0.21836 11.00000  0.00010   4.51
C01Z  1  0.17228  0.01630  0.70066 11.00000  0.06263   4.46
C020  1  0.34047  0.22831  0.73642 11.00000  0.04972   4.43
O021  3  0.80322  0.18847  0.36332 11.00000  0.04042   4.42
C022  1  0.06331  0.35697  0.76267 11.00000  0.08989   4.42
C023  1  1.43771  0.40452  0.24979 11.00000  0.01439   4.38
C024  1  1.02319  0.59883  0.85344 11.00000  0.03059   4.34
C025  1  1.26031  0.37543  0.14448 11.00000  0.05067   4.30
C026  1  0.56780  0.56711  0.70472 11.00000  0.04671   4.30
C027  1  0.80983  0.44908  0.21061 11.00000  0.04561   4.28
C028  1  0.54856  0.36818  0.70877 11.00000  0.06914   4.23
C029  1  0.06122 -0.02455  0.52172 11.00000  0.01471   4.20
C02A  1  0.81020  0.68578  0.45662 11.00000  0.14523   4.20
C02B  1  0.61558  0.22583  0.76802 11.00000  0.00575   4.20
C02C  1  0.59813  0.63916  0.11806 11.00000  0.08668   4.19
C02D  1  0.22182  0.96162  0.93483 11.00000  0.00010   4.17
C02E  1  1.30395  0.83112  0.13697 11.00000  0.08625   4.11
C02F  1 -0.31469  0.94420  1.02004 11.00000  0.05452   4.03
C02G  1  0.59809  0.69567  0.20559 11.00000  0.06846   4.00
C02H  1  0.58212  0.33934  0.53067 11.00000  0.08612   3.95
C02I  1  0.23584  0.07949  0.53311 11.00000  0.02239   3.89
O02J  3  1.79495  0.21415  0.20194 11.00000  0.21319   3.88
C02K  1  0.48417  0.26004  0.71258 11.00000  0.02910   3.81
C02L  1  1.19237  0.57981  0.18957 11.00000  0.02455   3.80
C02M  1  0.14655  0.91276  0.98814 11.00000  0.06565   3.67
C02N  1  0.96539  0.41953  0.66893 11.00000  0.05362   3.62
C02O  1 -0.22661 -0.00521  0.43901 11.00000  0.07240   3.59
N02P  2  0.44755  0.79871  0.58254 11.00000  0.07931   3.52
C02Q  1  0.29525  0.59763  0.58991 11.00000  0.05064   3.48
C02R  1  0.84426  0.33419  0.31887 11.00000  0.02004   3.45
C02S  1  0.29764  1.03861  0.85691 11.00000  0.01066   3.44
C02T  1  1.65125  0.19435  0.06084 11.00000  0.02556   3.39
C02U  1  0.63972  1.09098  0.79500 11.00000  0.01763   3.34
C02V  1  1.23871  0.32538  0.25016 11.00000  0.05282   3.34
C02W  1 -0.27373  0.41099  0.78473 11.00000  0.03482   3.30
C02X  1  0.40910  0.63858  0.62035 11.00000  0.05329   3.27
HKLF 4
END
