TITL 29_a.res in P1
REM Old TITL 29 in P-1
REM SHELXT solution in P1: R1 0.441, Rweak 0.081, Alpha 0.000
REM <I/s>   0.000 for    0 systematic absences,  Orientation as input
REM Flack x =  0.101 ( 1.138 ) from    25 Parsons' quotients
REM Formula found by SHELXT:  C63 N24 O28 Cl4

CELL  0.71073   3.7700  20.0500  22.2900   68.100   90.000   90.000
ZERR   21.000   0.0008   0.0040   0.0045    0.030    0.030    0.030
LATT -1
SFAC C N O CL
UNIT 21 21 21 21
L.S. 10
BOND
LIST 6
FMAP 2
PLAN 20
CL01  4 -0.78448  0.76028 -0.16986 11.00000  0.10421  12.90
O002  3  0.01980  0.26665  0.32978 11.00000  0.02754  12.44
CL03  4  1.53500  0.08421  1.23351 11.00000  0.08398  12.30
N004  2 -0.97370  0.04791  0.74919 11.00000  0.01022  11.77
CL05  4  0.71700  0.58331  0.73430 11.00000  0.09520  11.17
O006  3  0.04980 -0.02463  0.40400 11.00000  0.02157  11.03
N007  2  0.19251  0.55069  0.24520 11.00000  0.00010  10.70
O008  3  0.73763  0.87937  0.64662 11.00000  0.01719  10.39
O009  3  0.33144  0.42944  0.33051 11.00000  0.01609  10.23
O00A  3  1.50596  0.24013  1.18544 11.00000  0.06499  10.20
CL0B  4 -0.82042  0.47820 -0.09627 11.00000  0.10524  10.09
O00C  3  0.73260  0.19014  0.87738 11.00000  0.02146   9.88
O00D  3 -0.47495  0.16808  0.57611 11.00000  0.04468   9.86
O00E  3  1.53870  0.37867  1.14798 11.00000  0.01451   9.74
C00F  1 -1.12737  0.00945  0.81530 11.00000  0.00314   9.60
N00G  2 -0.04147  0.56916  0.12787 11.00000  0.02080   9.37
O00H  3 -0.13492  0.55243  0.09330 11.00000  0.00010   9.36
C00I  1  1.00799  0.24325  1.00338 11.00000  0.00010   9.31
O00J  3 -0.44247  0.86055 -0.00873 11.00000  0.06831   9.31
O00K  3 -0.57390  0.05038  0.59520 11.00000  0.01258   9.13
O00L  3  0.67503  0.73386  0.69263 11.00000  0.09478   9.04
N00M  2  1.16771  0.24049  1.07513 11.00000  0.02021   8.71
N00N  2 -0.70179  0.07073  0.63740 11.00000  0.04617   8.63
N00O  2 -0.06474  0.05527  0.42501 11.00000  0.02458   8.52
O00P  3  0.09113  0.52219  0.21611 11.00000  0.03552   8.26
C00Q  1 -0.63538  0.14065  0.62869 11.00000  0.01929   8.10
N00R  2  0.13936  0.61208  0.23195 11.00000  0.09283   8.02
C00S  1  0.53455  0.23085  0.81961 11.00000  0.00897   8.00
C00T  1 -1.06889 -0.07275  0.83361 11.00000  0.00563   7.88
N00U  2 -1.19665  1.07275  0.00387 11.00000  0.07053   7.85
O00V  3  1.29370  0.30441  1.07257 11.00000  0.03334   7.72
O00W  3 -0.64661  0.54858 -0.08213 11.00000  0.04194   7.62
O00X  3 -0.30960  0.84818 -0.04827 11.00000  0.07791   7.54
O00Y  3 -0.23733  0.04182  0.47003 11.00000  0.07830   7.51
N00Z  2 -0.16766  0.17075  0.44326 11.00000  0.05016   7.48
O010  3 -0.90594  0.11227  0.73975 11.00000  0.10753   7.31
N011  2  1.53546  0.68874  0.37729 11.00000  0.02791   7.26
N012  2 -0.05089  0.63865  0.13535 11.00000  0.03805   7.23
N013  2  1.43987  0.18054  1.16436 11.00000  0.03939   7.22
N014  2  0.81723  0.67358  0.66830 11.00000  0.05163   7.20
N015  2  1.63798  0.36552  0.84613 11.00000  0.06351   7.10
N016  2 -0.56118  0.68509 -0.06286 11.00000  0.05814   7.05
N017  2 -0.90560  0.02551  0.71247 11.00000  0.01036   7.01
N018  2  0.87039  0.21901  0.92019 11.00000  0.04930   6.94
C019  1  0.30815  0.50301  0.31466 11.00000  0.03064   6.72
N01A  2 -0.60333  0.92764 -0.00085 11.00000  0.06612   6.70
N01B  2  0.82587  0.29910  0.54837 11.00000  0.03767   6.69
C01C  1  0.97358  0.19646  0.97314 11.00000  0.01313   6.64
N01D  2  0.99216  0.58014  0.51781 11.00000  0.09823   6.63
N01E  2  0.64349  0.56998  0.50386 11.00000  0.05965   6.63
N01F  2 -0.66801  0.69167 -0.12858 11.00000  0.02206   6.55
O01G  3 -1.08994  0.83600  0.19963 11.00000  0.04691   6.54
N01H  2 -0.47359  0.54440 -0.03996 11.00000  0.05640   6.54
C01I  1 -0.53753  0.61161 -0.00079 11.00000  0.02145   6.45
C01J  1 -0.31598  0.11872  0.49936 11.00000  0.09983   6.24
C01K  1 -0.46708  0.11604  0.55587 11.00000  0.05725   6.14
C01L  1 -0.29858  0.02615  0.43068 11.00000  0.04011   6.13
C01M  1  1.10912  0.73869  0.57905 11.00000  0.02232   6.04
C01N  1 -0.31232  0.61570  0.05337 11.00000  0.02471   6.02
C01O  1  0.91610  0.81029  0.63284 11.00000  0.04013   5.95
C01P  1  1.05196  0.51349  0.54949 11.00000  0.02211   5.94
C01Q  1 -1.24399  0.99464  0.04821 11.00000  0.05263   5.92
C01R  1  1.39079  0.29049  1.13645 11.00000  0.02047   5.82
C01S  1 -0.23196  0.66605  0.06957 11.00000  0.01909   5.78
C01T  1  1.61736  0.72021  0.32269 11.00000  0.05259   5.77
C01U  1 -0.44013  0.92956 -0.07758 11.00000  0.04187   5.75
O01V  3 -1.23369  0.04339  0.84688 11.00000  0.07515   5.74
O01W  3  0.48212  0.24506  0.77360 11.00000  0.10856   5.71
C01X  1  1.97756  0.38763  0.82771 11.00000  0.08163   5.60
C01Y  1  0.53030  0.34320  0.45744 11.00000  0.02489   5.59
C01Z  1  1.23937  0.74104  0.50672 11.00000  0.03257   5.57
O020  3  1.01298  0.29768  0.95981 11.00000  0.06687   5.36
C021  1  2.24399  0.48528  0.73592 11.00000  0.11625   5.36
C022  1 -0.53128  0.79896  0.05143 11.00000  0.00941   5.29
C023  1  0.94398  0.80256  0.57438 11.00000  0.03211   5.14
C024  1 -0.23756 -0.01525  0.39188 11.00000  0.07813   5.13
C025  1  0.94727  0.35985  0.70945 11.00000  0.06793   5.11
C026  1 -1.21075  0.79902  0.16144 11.00000  0.06134   5.10
C027  1 -0.74973  1.05895  0.00936 11.00000  0.05245   5.07
O028  3 -0.69830  0.15361  0.66242 11.00000  0.12351   5.05
O029  3  1.33171  0.74412  0.28878 11.00000  0.17053   5.01
C02A  1 -0.02035  0.37305  0.41928 11.00000  0.09392   5.01
C02B  1  1.93717  0.88647  0.34635 11.00000  0.10383   5.00
C02C  1 -0.89252  1.02770  0.04492 11.00000  0.03821   4.82
C02D  1  0.46513  0.34493  0.51193 11.00000  0.05498   4.76
C02E  1  0.76690  0.30721  0.65791 11.00000  0.08842   4.68
C02F  1 -0.00989  0.12370  0.37376 11.00000  0.03963   4.62
C02G  1  0.86073  0.53712  0.36182 11.00000  0.10218   4.47
C02H  1  0.84047  0.41616  0.49981 11.00000  0.04870   4.45
C02I  1  0.25233  0.36822  0.48420 11.00000  0.05839   4.34
C02J  1 -1.16141  0.00186  0.74424 11.00000  0.06118   4.29
O02K  3 -0.76551 -0.05641  0.80826 11.00000  0.07851   4.26
C02L  1  1.10447  0.38782  0.59262 11.00000  0.12071   4.18
C02M  1  1.50674  0.85558  0.34108 11.00000  0.05056   4.17
O02N  3  1.14793  0.10078  1.11903 11.00000  0.20772   4.13
C02O  1  0.37291  0.64217  0.16191 11.00000  0.14589   4.07
C02P  1  0.59830  0.32623  0.70969 11.00000  0.06646   4.07
C02Q  1  1.05369  0.18526  1.00975 11.00000  0.11512   3.98
O02R  3  0.16200  0.27615  0.45021 11.00000  0.08897   3.92
C02S  1  1.34677  0.73447  0.41157 11.00000  0.05426   3.92
O02T  3  1.02139  0.38371  1.08583 11.00000  0.11099   3.89
C02U  1 -0.53370  0.82932 -0.23351 11.00000  0.11682   3.77
N02V  2  0.34124  0.20534  0.35791 11.00000  0.14234   3.73
C02W  1  0.24758  0.64848  0.20174 11.00000  0.21181   3.70
C02X  1  1.47448  0.79380  0.46914 11.00000  0.03280   3.60
C02Y  1 -0.32264  0.69647  0.10221 11.00000  0.04799   3.59
C02Z  1 -1.23850  0.50214 -0.11944 11.00000  0.10340   3.49
C030  1 -0.91925  0.88786  0.09497 11.00000  0.07195   3.46
C031  1  0.43994  0.44199  0.49377 11.00000  0.05556   3.43
C032  1 -0.92296  0.62386 -0.12494 11.00000  0.03061   3.40
C033  1  0.06866  0.19189  0.41298 11.00000  0.06379   3.34
C034  1  1.30378  0.16407  1.10487 11.00000  0.01396   3.23
C035  1  1.19673  0.45148  1.04505 11.00000  0.05000   3.23
C036  1  0.42654  0.52438  0.35590 11.00000  0.03468   3.22
C037  1  0.57951  0.51953  0.44596 11.00000  0.07212   3.16
C038  1  0.06712  0.72765 -0.00269 11.00000  0.08819   3.16
C039  1  0.39857  0.31404  0.27888 11.00000  0.03917   3.13
C03A  1  1.30850  0.69213  0.48561 11.00000  0.04212   3.11
C03B  1  1.34962  0.30416  0.87487 11.00000  0.07842   3.01
HKLF 4
END
