TITL 30_a.res in P1
REM Old TITL 30 in P-1
REM SHELXT solution in P1: R1 0.412, Rweak 0.071, Alpha 0.000
REM <I/s>   0.000 for    0 systematic absences,  Orientation as input
REM Flack x = -0.023 ( 0.778 ) from   107 Parsons' quotients
REM Formula found by SHELXT:  C55 N16 O15 Cl3

CELL  0.71073   3.7800  20.1600  22.1900   68.510   90.000   90.000
ZERR   21.000   0.0008   0.0040   0.0044    0.030    0.030    0.030
LATT -1
SFAC C N O CL
UNIT 21 21 21 21
L.S. 10
BOND
LIST 6
FMAP 2
PLAN 20
CL01  4  2.03812  0.89964 -0.20338 11.00000  0.09081  12.67
CL02  4  0.18882  0.40393  0.29662 11.00000  0.08334  11.35
O003  3  2.02496  0.61433 -0.11978 11.00000  0.03623  11.28
CL04  4  0.20274  0.11337  0.38389 11.00000  0.09509  11.26
O005  3  0.52404  0.72443  0.70441 11.00000  0.03367  10.26
N006  2  1.29261  0.13427  0.79826 11.00000  0.02166   9.95
O007  3 -1.30166  0.22115  1.20338 11.00000  0.04159   9.41
O008  3  0.81295  0.18518  0.57201 11.00000  0.01576   8.88
N009  2  0.51853  0.24955  0.46834 11.00000  0.03926   8.76
O00A  3  0.85746  0.63805  0.29738 11.00000  0.05123   8.68
O00B  3  0.51714  1.01599  0.62773 11.00000  0.02210   8.54
O00C  3  1.38181  0.69007  0.07350 11.00000  0.03969   8.43
O00D  3 -0.76661  0.32481  0.96220 11.00000  0.03627   8.41
N00E  2  0.91166  0.27484  0.60671 11.00000  0.00548   8.32
N00F  2  1.63085  0.75206 -0.04129 11.00000  0.03979   8.29
O00G  3 -1.28878  0.51413  1.12659 11.00000  0.02907   8.26
O00H  3 -0.51032  0.32631  0.84366 11.00000  0.04689   7.81
O00I  3  1.90866  0.68477 -0.10532 11.00000  0.06244   7.68
N00J  2  0.71503  0.24717  0.52712 11.00000  0.03457   7.66
O00K  3  0.47898  0.19072  0.45271 11.00000  0.10417   7.61
N00L  2 -0.03008  0.82558  0.46140 11.00000  0.02156   7.47
N00M  2 -0.46856  0.87049  0.30622 11.00000  0.10214   7.44
N00N  2 -1.29174  0.36595  1.16442 11.00000  0.05794   7.38
N00O  2  1.67247  0.70173 -0.05421 11.00000  0.04004   7.36
N00P  2  1.75859  0.82018 -0.08257 11.00000  0.05090   7.13
N00Q  2  1.31762  0.77735  0.10676 11.00000  0.03479   7.10
C00R  1  1.48745  0.75179  0.02667 11.00000  0.01560   6.91
N00S  2 -0.23063  0.82530  0.34834 11.00000  0.04244   6.78
N00T  2  1.92096  0.81984 -0.13865 11.00000  0.05510   6.63
N00U  2  2.23257  0.14202  1.07172 11.00000  0.04893   6.58
N00V  2  0.55012  0.86729  0.66143 11.00000  0.04538   6.52
N00W  2 -0.40727  0.36158  0.79552 11.00000  0.06920   6.51
C00X  1  0.34223  0.19209  0.39005 11.00000  0.04075   6.35
C00Y  1  0.26724  0.32258  0.35951 11.00000  0.05669   6.26
C00Z  1  0.19909  0.64595  0.52554 11.00000  0.03158   6.03
C010  1  0.93026  0.56055  0.31798 11.00000  0.05757   6.01
C011  1  0.45285  0.42857  0.53106 11.00000  0.00777   5.90
C012  1  1.09021  0.13359  0.69862 11.00000  0.03527   5.89
O013  3 -0.28050  0.93367  0.37291 11.00000  0.07649   5.75
C014  1  0.39956  0.31871  0.42168 11.00000  0.01320   5.57
C015  1 -1.20372  0.31039  1.14271 11.00000  0.04227   5.51
O016  3  1.35018  0.05931  0.81147 11.00000  0.16256   5.51
C017  1  1.77187 -0.06068  1.02437 11.00000  0.03594   5.47
C018  1  0.47320  0.55873  0.46797 11.00000  0.04413   5.46
C019  1  0.69449  0.48870  0.42215 11.00000  0.05039   5.44
C01A  1  1.19156  0.16750  0.73229 11.00000  0.04291   5.43
C01B  1  0.94658  0.19651  0.61747 11.00000  0.04607   5.41
C01C  1  1.17183  0.64394  0.20042 11.00000  0.06158   5.38
C01D  1  1.97199  0.18930  0.96141 11.00000  0.07479   5.33
C01E  1  1.81044  0.05764  0.96197 11.00000  0.03063   5.33
C01F  1  0.43824  1.06068  0.20109 11.00000  0.02163   5.28
C01G  1  2.09260  0.14081  1.02535 11.00000  0.05004   5.27
C01H  1  0.39073  0.80179  0.66364 11.00000  0.03095   5.15
C01I  1  0.75860  0.30374  0.54689 11.00000  0.05243   5.14
C01J  1 -0.26809  0.43237  0.77768 11.00000  0.08114   5.06
C01K  1 -1.14137  0.42827  1.11080 11.00000  0.05550   5.05
C01L  1 -0.33495  0.96904  0.32966 11.00000  0.04810   4.99
C01M  1 -0.69297  0.45494  0.93316 11.00000  0.08571   4.97
C01N  1  1.34823  0.16723  0.83413 11.00000  0.03139   4.96
O01O  3  0.22593  0.98262  0.16107 11.00000  0.11233   4.92
C01P  1 -0.05970  0.46321  0.67770 11.00000  0.03842   4.91
C01Q  1  1.03822  0.66876  0.23737 11.00000  0.04170   4.85
C01R  1  1.32341  0.68743  0.13366 11.00000  0.04242   4.81
C01S  1  0.36486  0.94674  0.61028 11.00000  0.07733   4.81
C01T  1 -0.52089  0.43918  0.87708 11.00000  0.02816   4.80
C01U  1  0.22804  0.93782  0.55899 11.00000  0.05043   4.74
C01V  1 -0.45231  0.93187  0.28973 11.00000  0.02456   4.46
C01W  1  1.05003  0.30131  0.64601 11.00000  0.01713   4.39
C01X  1  0.01815  0.64872  0.57609 11.00000  0.06023   4.35
C01Y  1 -0.37342  0.46847  0.82883 11.00000  0.04356   4.32
C01Z  1  0.30587  0.25457  0.33939 11.00000  0.09989   4.27
C020  1 -1.05175  0.32003  1.07842 11.00000  0.06764   4.27
C021  1  1.41851  0.80281  0.04951 11.00000  0.02919   4.17
C022  1  1.18328  0.25190  0.71563 11.00000  0.03756   4.09
C023  1  0.12812  0.86865  0.56005 11.00000  0.04305   3.87
C024  1  0.23852  0.80975  0.58094 11.00000  0.04591   3.81
C025  1  2.30166  0.16314  1.00314 11.00000  0.07271   3.77
C026  1 -0.94489  0.37339  1.05323 11.00000  0.07769   3.76
C027  1  1.60167 -0.02182  0.92467 11.00000  0.06238   3.75
C028  1 -0.27804  0.62934  0.54630 11.00000  0.14076   3.63
C029  1  1.20649  0.80401  0.14553 11.00000  0.09459   3.58
C02A  1  0.57304  0.49137  0.45801 11.00000  0.08150   3.54
C02B  1 -0.23061  0.94097  0.19947 11.00000  0.17206   3.45
C02C  1 -0.00885  0.87741  0.48584 11.00000  0.01798   3.42
C02D  1 -1.09491  0.44356  1.04952 11.00000  0.04682   3.31
C02E  1 -0.16600  0.55434  0.70564 11.00000  0.05367   3.21
C02F  1  1.06355  0.75248  0.20796 11.00000  0.04805   3.16
C02G  1 -0.16265  0.69806  0.46793 11.00000  0.13893   3.12
C02H  1  0.06739  0.49778  0.79160 11.00000  0.07084   3.12
HKLF 4
END
