TITL 3_a.res in P1
REM Old TITL 3 in P1
REM SHELXT solution in P1: R1 0.351, Rweak 0.129, Alpha 0.000
REM <I/s>   0.000 for    0 systematic absences,  Orientation as input
REM Flack x =  0.409 ( 0.597 ) from    79 Parsons' quotients
REM Formula found by SHELXT:  C47 N23 O31 Cl17

CELL  0.71073   3.7700  19.8000  22.0700   72.560   90.000   90.000
ZERR   21.000   0.0008   0.0040   0.0044    0.030    0.030    0.030
LATT -1
SFAC C N O CL
UNIT 21 21 21 21
L.S. 10
BOND
LIST 6
FMAP 2
PLAN 20
CL01  4  0.22275  0.77232  0.27732 11.00000  0.09204  17.63
CL02  4  1.00742  0.26197  0.78109 11.00000  0.06825  17.37
CL03  4  1.01040 -0.02488  0.64380 11.00000  0.08193  16.15
CL04  4  0.49067  0.05645  0.59196 11.00000  0.13012  15.60
CL05  4  0.67017  0.02005  0.92137 11.00000  0.08962  15.48
CL06  4  0.24228  0.27829  0.12141 11.00000  0.09869  15.01
CL07  4  0.72172  0.67091  0.72958 11.00000  0.07742  14.65
CL08  4 -0.00530  0.70389  0.20052 11.00000  0.06631  14.40
CL09  4  0.41323  0.11589  0.59000 11.00000  0.07386  14.36
CL0A  4  0.45568  0.36142  0.62199 11.00000  0.12009  14.17
CL0B  4  0.35973  0.48720  0.72954 11.00000  0.07914  13.94
CL0C  4  0.37036  0.07089  0.80998 11.00000  0.07805  13.91
CL0D  4  1.01001  0.70009  0.60635 11.00000  0.12213  13.65
CL0E  4  0.92823  0.10947  0.81358 11.00000  0.10508  13.21
CL0F  4  0.27308  1.13407  0.17413 11.00000  0.13476  13.20
CL0G  4 -0.48475  0.38997  0.19249 11.00000  0.13011  12.52
N00H  2  0.48893  0.28418  0.58710 11.00000  0.00010  12.12
O00I  3 -0.18142  0.36062  0.28049 11.00000  0.03154  11.76
O00J  3  0.41419  0.25676  0.19021 11.00000  0.02198  11.63
O00K  3  0.02278  0.78987  0.25243 11.00000  0.01477  11.55
O00L  3 -0.00131  0.13546  0.35329 11.00000  0.03972  11.25
O00M  3  0.53309  0.30272  0.45140 11.00000  0.03485  10.97
O00N  3  0.79708  0.90938  0.78344 11.00000  0.06687  10.81
O00O  3  1.41146  0.64381  0.85516 11.00000  0.02708  10.66
O00P  3  1.16343  0.31029  0.74673 11.00000  0.03333  10.50
O00Q  3  0.04476  0.32866  0.37975 11.00000  0.04470  10.45
O00R  3 -0.63545  0.37556  0.02390 11.00000  0.00087  10.07
O00S  3  0.29174  0.52129  0.66897 11.00000  0.00768  10.05
O00T  3  0.75487  0.19094  0.70453 11.00000  0.00573  10.01
O00U  3  0.60926  0.61853  0.46672 11.00000  0.04048   9.87
O00V  3  0.88800  0.96011  0.13964 11.00000  0.02791   9.79
N00W  2  0.69303  0.04602  0.85918 11.00000  0.08744   9.75
N00X  2  0.27448  0.89049  0.23463 11.00000  0.06826   9.70
CL0Y  4 -0.84106  0.50782  0.12102 11.00000  0.18129   9.67
O00Z  3  0.87304  0.79482  0.61121 11.00000  0.04270   9.47
N010  2  0.55622  0.51802  0.43290 11.00000  0.05099   8.98
O011  3  0.70538  0.47525  0.62984 11.00000  0.03224   8.96
N012  2  0.35643  0.84361  0.26692 11.00000  0.02124   8.93
O013  3  0.34927 -0.13407  0.45170 11.00000  0.03622   8.84
O014  3  0.08916  0.25042  0.10395 11.00000  0.02445   8.78
N015  2  0.56270  0.35742  0.56820 11.00000  0.01683   8.66
N016  2  0.24687  0.97207  0.25152 11.00000  0.00939   8.65
O017  3  0.54710  0.21363  0.60855 11.00000  0.00937   8.60
O018  3  0.55095  0.37460  0.44373 11.00000  0.05234   8.57
O019  3  0.75486  0.28756  0.83192 11.00000  0.00460   8.56
O01A  3  1.36228  0.78650  0.76279 11.00000  0.06774   8.54
N01B  2 -0.19038  0.79462  0.11129 11.00000  0.06640   8.54
O01C  3  1.01807  0.73611  0.79405 11.00000  0.07859   8.50
C01D  1  1.05858  1.08065  0.06021 11.00000  0.00987   8.37
O01E  3  0.81079  0.47145  0.82648 11.00000  0.08136   8.31
C01F  1 -0.16683  0.63727  0.24142 11.00000  0.00304   8.28
N01G  2  0.20894  0.08382  0.37713 11.00000  0.05059   8.26
N01H  2  0.30204  0.07569  0.54536 11.00000  0.01990   8.12
O01I  3 -0.32928  0.70534  0.19953 11.00000  0.02004   7.90
O01J  3 -0.13478  0.79778  0.14922 11.00000  0.01912   7.68
C01K  1 -0.15405  0.70918  0.10732 11.00000  0.01290   7.59
O01L  3  1.80164  0.64539  0.91444 11.00000  0.04877   7.55
O01M  3  0.50675  0.17050  0.75523 11.00000  0.00010   7.53
N01N  2  1.01045  1.01781  0.07951 11.00000  0.08760   7.41
N01O  2  0.86834  0.06231  0.76044 11.00000  0.04654   7.40
N01P  2 -0.77673  0.40113  0.09770 11.00000  0.00332   7.38
O01Q  3  0.69934  0.92662  0.27940 11.00000  0.03431   7.36
N01R  2  0.79605  0.62808  0.61927 11.00000  0.09068   7.21
N01S  2  0.58991  1.05884  0.23080 11.00000  0.07647   7.18
N01T  2  0.79810  0.71960  0.48402 11.00000  0.03489   7.14
N01U  2  0.18878  0.20430  0.01072 11.00000  0.03543   7.09
N01V  2  0.53361  0.81176  0.35742 11.00000  0.03301   7.05
N01W  2  1.12326  0.86917  0.95341 11.00000  0.01112   6.92
N01X  2  0.54760  0.93763  0.20306 11.00000  0.00892   6.89
N01Y  2  1.21932  0.93592  0.88907 11.00000  0.00891   6.87
N01Z  2  1.57312  0.85343  0.98928 11.00000  0.03544   6.82
O020  3 -0.28749  0.59529  0.23598 11.00000  0.01863   6.71
N021  2  0.17912  0.28088  0.60047 11.00000  0.02563   6.67
C022  1 -0.26119  0.25788  0.05608 11.00000  0.00010   6.46
C023  1  0.64543  0.07695  0.69682 11.00000  0.10566   6.40
C024  1  0.68824  0.43158  0.57418 11.00000  0.01985   6.35
C025  1  0.56002 -0.02128  0.40279 11.00000  0.04684   6.30
C026  1  0.37696  0.43195  0.48615 11.00000  0.05745   6.24
C027  1  0.44625  0.27478  0.39117 11.00000  0.00092   6.19
C028  1  0.93319  0.92966  0.82627 11.00000  0.02406   6.10
C029  1  0.80252  0.58645  0.76881 11.00000  0.02380   6.09
C02A  1  0.43458  1.05622  0.15121 11.00000  0.02700   6.07
C02B  1  0.25954  0.13475  0.53910 11.00000  0.06809   6.05
C02C  1  1.04325  0.09443  0.72836 11.00000  0.00010   5.94
C02D  1  0.23722  0.06388  0.89558 11.00000  0.02475   5.84
O02E  3  1.10150  0.76984  0.83966 11.00000  0.06392   5.82
C02F  1  0.57113  0.23169  0.30177 11.00000  0.00600   5.75
C02G  1  0.59082  0.02652  0.41192 11.00000  0.04748   5.70
C02H  1  0.76489  0.13991  0.68104 11.00000  0.03360   5.63
C02I  1  0.22380  0.57257  0.29585 11.00000  0.00010   5.52
C02J  1  0.10588  0.27631  0.63233 11.00000  0.02464   5.07
C02K  1  0.23384  0.00561  0.52431 11.00000  0.01333   5.06
C02L  1  0.66512  0.00290  0.49612 11.00000  0.01407   4.90
C02M  1  0.81704  0.79258  0.85342 11.00000  0.02677   4.88
C02N  1  0.44743  0.19722  0.62513 11.00000  0.01402   4.79
C02O  1  1.59418  0.61163  0.88352 11.00000  0.04824   4.75
C02P  1  0.50039  0.55590  0.70454 11.00000  0.00874   4.72
C02Q  1  1.08498  0.01716  0.71415 11.00000  0.00010   4.69
C02R  1  1.71553  0.58506  0.91829 11.00000  0.04983   4.67
C02S  1  0.41851  0.10877  0.96520 11.00000  0.01398   4.59
C02T  1  0.62666  0.53051  0.76281 11.00000  0.02713   4.30
C02U  1  0.22849  0.86937  0.30827 11.00000  0.03952   4.25
C02V  1  0.96836  0.49716  0.44396 11.00000  0.03621   4.05
C02W  1  1.84106  0.51786  0.93099 11.00000  0.00010   4.01
C02X  1  0.88483  0.45693  0.35187 11.00000  0.01596   3.93
C02Y  1  0.53685  0.67918  0.39082 11.00000  0.03131   3.73
C02Z  1  0.41619  0.79519  0.63150 11.00000  0.03434   3.72
C030  1  0.31041 -0.09009  0.51523 11.00000  0.07505   3.72
C031  1 -0.27193  0.11728  0.45346 11.00000  0.01529   3.59
C032  1  0.86774  1.02770  0.16133 11.00000  0.01175   3.59
C033  1 -0.07858  0.16609  0.40677 11.00000  0.02840   3.58
C034  1 -0.52262  0.83131  0.15834 11.00000  0.04500   3.41
C035  1  1.07781  0.33639  0.87265 11.00000  0.05928   3.29
C036  1  0.16620  0.30361  0.25119 11.00000  0.04820   3.22
C037  1 -0.16506  0.60563  0.14055 11.00000  0.03821   3.19
C038  1  0.74617  0.34375  0.67842 11.00000  0.02080   3.13
C039  1  0.96093  0.35911  0.47509 11.00000  0.02986   3.01
C03A  1  0.40352  0.57995  0.39546 11.00000  0.03781   3.01
HKLF 4
END
