TITL 5_a.res in P1
REM Old TITL 5 in P1
REM SHELXT solution in P1: R1 0.357, Rweak 0.288, Alpha 0.000
REM <I/s>   0.000 for    0 systematic absences,  Orientation as input
REM Flack x =  0.142 ( 0.796 ) from    64 Parsons' quotients
REM Formula found by SHELXT:  C56 N18 O30 Cl11

CELL  0.71073   3.7600  19.8100  22.2100   71.900   90.000   90.000
ZERR   21.000   0.0008   0.0040   0.0044    0.030    0.030    0.030
LATT -1
SFAC C N O CL
UNIT 21 21 21 21
L.S. 10
BOND
LIST 6
FMAP 2
PLAN 20
CL01  4  0.75543  0.77459  0.36045 11.00000  0.09156  17.53
CL02  4  0.47759  0.24456  0.69411 11.00000  0.08667  17.46
CL03  4 -0.60204  0.67643  0.94563 11.00000  0.11176  14.61
CL04  4 -0.53752  0.70895  0.89408 11.00000  0.07098  13.56
CL05  4  1.29904  0.19732  0.57589 11.00000  0.08183  13.22
CL06  4  0.31981  0.50764  0.63208 11.00000  0.16281  13.05
CL07  4  1.00857  0.42394  0.43277 11.00000  0.08532  12.89
CL08  4 -0.21824  0.30419  0.16061 11.00000  0.09856  12.66
O009  3  0.22102  0.58538  0.73882 11.00000  0.06946  11.44
O00A  3  0.45505  0.75343  0.44979 11.00000  0.01662  11.44
CL0B  4  1.66162  0.04052  0.37283 11.00000  0.10258  11.44
O00C  3  0.03495  0.58617  1.07922 11.00000  0.02956  11.28
O00D  3 -0.86544  0.44184  0.09145 11.00000  0.03736  11.20
O00E  3  0.96654  0.72707  0.52538 11.00000  0.04073  10.96
CL0F  4  0.03623  0.16222  0.91364 11.00000  0.14182  10.68
O00G  3  1.03727  0.31237  0.40365 11.00000  0.11033  10.53
N00H  2  0.24308  0.52431  0.52311 11.00000  0.02516  10.46
O00I  3  0.04985  0.75605  0.14718 11.00000  0.02982  10.37
O00J  3  1.20702  0.03751  0.78248 11.00000  0.01996  10.30
CL0K  4 -0.52153  0.56664  0.87049 11.00000  0.16182  10.26
O00L  3  0.38353  0.48373  0.58874 11.00000  0.06848  10.22
O00M  3 -0.46024  0.44863  0.23966 11.00000  0.01459  10.11
C00N  1  1.21183  0.23030  0.51276 11.00000  0.00332  10.02
O00O  3  1.25183 -0.04529  0.73006 11.00000  0.05120   9.99
N00P  2  0.60761  0.79631  0.48476 11.00000  0.00489   9.91
O00Q  3  0.19557  0.65554  0.44999 11.00000  0.01314   9.64
O00R  3  0.42448  0.88229  0.54427 11.00000  0.04520   9.57
O00S  3  0.69662  0.20885  0.73911 11.00000  0.02435   9.56
O00T  3 -0.38178  0.32678  0.08994 11.00000  0.04332   9.44
O00U  3  0.28402  0.61146  0.77072 11.00000  0.05822   9.40
O00V  3 -0.01178  0.65352  0.66167 11.00000  0.03861   8.85
O00W  3  1.14388  0.10094  0.55353 11.00000  0.04028   8.60
O00X  3  0.44745  0.75726  0.18056 11.00000  0.04401   8.49
N00Y  2  0.78588  0.36737  0.51083 11.00000  0.01762   8.42
N00Z  2  0.62729  0.38537  0.56022 11.00000  0.01863   8.36
O010  3  1.15163  0.40157  0.38824 11.00000  0.05060   8.31
C011  1  0.54049  0.85584  0.47157 11.00000  0.00545   8.09
O012  3  0.35073  0.64974  0.71510 11.00000  0.02984   8.04
N013  2  0.62960  0.27474  0.71698 11.00000  0.02822   7.98
O014  3  0.73161  0.74480  0.54202 11.00000  0.01011   7.76
O015  3  1.18579  0.88214  0.07037 11.00000  0.02267   7.63
O016  3 -0.07196  0.59010  0.54733 11.00000  0.05663   7.63
N017  2  0.59317  0.22887  0.37759 11.00000  0.06866   7.56
O018  3  1.41236  1.01389  0.12564 11.00000  0.03858   7.53
O019  3  0.94887  0.72495  0.49671 11.00000  0.11238   7.51
N01A  2  1.21150  0.20036  0.38718 11.00000  0.02516   7.43
O01B  3  0.00875  0.54538  0.26217 11.00000  0.04650   7.35
N01C  2 -0.46056  0.41016  0.09948 11.00000  0.04325   7.31
N01D  2  0.76758  0.32286  0.58272 11.00000  0.00646   7.29
N01E  2  0.41599  0.27174  0.62980 11.00000  0.04324   7.28
N01F  2 -0.13100  0.34676 -0.01698 11.00000  0.00010   7.08
C01G  1 -0.29003  0.51580  0.18124 11.00000  0.09539   7.05
N01H  2 -0.06653  0.40923  0.66405 11.00000  0.03111   6.97
O01I  3  0.77903  0.31805  0.81405 11.00000  0.04662   6.87
N01J  2  0.19390  0.31024 -0.02918 11.00000  0.03228   6.86
N01K  2  0.93979  0.23083  0.47092 11.00000  0.01986   6.86
N01L  2  1.86544 -0.07252  0.36913 11.00000  0.11233   6.80
N01M  2  0.00419  0.53820  0.78407 11.00000  0.06893   6.60
N01N  2 -0.12782  0.63805  0.40706 11.00000  0.04470   6.56
C01O  1  1.21510  0.07176  0.44662 11.00000  0.05095   6.40
C01P  1  1.67794  0.00626  0.70322 11.00000  0.01965   6.39
C01Q  1  0.04171  0.60321  0.48003 11.00000  0.01750   6.38
C01R  1  1.24393  0.22980  0.31252 11.00000  0.04322   6.37
C01S  1  1.27076  0.27705  0.31281 11.00000  0.04530   6.34
N01T  2  0.21599  0.59325  0.36901 11.00000  0.04965   6.18
C01U  1  0.65052  0.27819  0.54508 11.00000  0.04690   6.06
C01V  1  0.67578  0.72181  0.27187 11.00000  0.04630   5.77
C01W  1  0.82509  0.84867  0.62505 11.00000  0.09293   5.69
C01X  1  1.35225  0.16996  0.45347 11.00000  0.01996   5.66
O01Y  3  1.11849  0.94131  0.12633 11.00000  0.03936   5.63
C01Z  1  0.32190  0.81999  0.77297 11.00000  0.03976   5.59
C020  1 -0.66478  0.60965  0.96832 11.00000  0.01036   5.58
C021  1  0.58188  0.56589  0.49550 11.00000  0.03665   5.54
C022  1 -0.27004  0.46975  0.71770 11.00000  0.03505   5.50
C023  1  0.56960  0.31789  0.65415 11.00000  0.01332   5.43
C024  1  0.08785  0.85709  0.83253 11.00000  0.03080   5.41
C025  1  1.03974  0.06280  0.81320 11.00000  0.04323   5.36
C026  1  1.77935  1.06367  0.15611 11.00000  0.10400   5.25
C027  1  0.46672  0.17993  0.86438 11.00000  0.08520   5.23
C028  1  0.66779  0.96111  0.51611 11.00000  0.05256   5.23
C029  1 -0.22271  0.60984  0.92850 11.00000  0.02407   5.21
C02A  1 -0.04116  0.82190  0.89189 11.00000  0.01582   5.20
C02B  1  0.81861  0.09108  0.57865 11.00000  0.03260   5.17
C02C  1 -0.53096  0.73800  1.01135 11.00000  0.06900   5.14
C02D  1  0.97590  0.20329  0.42576 11.00000  0.03342   5.00
C02E  1 -0.28563  0.73896  0.97764 11.00000  0.04649   5.00
C02F  1 -0.20721  0.43477  0.84972 11.00000  0.03600   4.97
C02G  1  0.21953  0.34658  0.65597 11.00000  0.00606   4.81
C02H  1  1.60022  1.07252  0.07656 11.00000  0.01779   4.78
C02I  1  1.15361  0.30589  0.33721 11.00000  0.02518   4.69
C02J  1 -0.37200  0.34817  0.20953 11.00000  0.05310   4.58
C02K  1  0.61821  0.26968  0.86854 11.00000  0.04496   4.49
C02L  1  0.88054  0.09755  0.77039 11.00000  0.06001   4.47
O02M  3  0.40464  0.92317  0.46727 11.00000  0.10636   4.12
C02N  1  0.71313  0.15259  0.40990 11.00000  0.05156   4.04
C02O  1  1.43832  0.89877 -0.02417 11.00000  0.02744   3.95
C02P  1  0.76184  0.93221 -0.07922 11.00000  0.05080   3.93
C02Q  1  0.04728  0.36728  0.62176 11.00000  0.02785   3.91
C02R  1  1.00631  0.89632 -0.01740 11.00000  0.04657   3.76
C02S  1 -0.02840  0.57375  0.82940 11.00000  0.02071   3.76
C02T  1 -0.68236  0.27367  0.07762 11.00000  0.00375   3.74
C02U  1  0.81376  0.49678  0.55445 11.00000  0.07643   3.65
C02V  1  0.14385  0.62607  0.23964 11.00000  0.03479   3.63
C02W  1  0.95374  0.22883  0.35903 11.00000  0.01093   3.60
C02X  1  1.08886  0.78756  0.28188 11.00000  0.03397   3.60
C02Y  1  0.20897  0.30016  0.57133 11.00000  0.02504   3.57
C02Z  1 -0.11807  0.68709  0.18398 11.00000  0.07324   3.57
C030  1  0.61081  1.00471 -0.06731 11.00000  0.10726   3.51
C031  1  0.25821  0.56750  0.25993 11.00000  0.02015   3.51
C032  1  1.04808  0.33781  0.45915 11.00000  0.04060   3.37
C033  1  0.96344  0.87933  0.22436 11.00000  0.02390   3.32
C034  1 -0.09283  0.55790  1.01744 11.00000  0.00027   3.27
C035  1 -0.25196  0.24173  0.03391 11.00000  0.02540   3.19
C036  1  1.23424  0.98487  0.21631 11.00000  0.00010   3.15
C037  1  1.12903  0.95151  0.22347 11.00000  0.10682   3.02
HKLF 4
END
