TITL 7_a.res in P1
REM Old TITL 7 in P1
REM SHELXT solution in P1: R1 0.321, Rweak 0.158, Alpha 0.000
REM <I/s>   0.000 for    0 systematic absences,  Orientation as input
REM Flack x =  0.026 ( 0.346 ) from   250 Parsons' quotients
REM Formula found by SHELXT:  C54 N8 O15 Cl2

CELL  0.71073   3.7900  19.8600  22.7200   69.080   90.000   90.000
ZERR   21.000   0.0008   0.0040   0.0045    0.030    0.030    0.030
LATT -1
SFAC C N O CL
UNIT 21 21 21 21
L.S. 10
BOND
LIST 6
FMAP 2
PLAN 20
O001  3  0.73585  0.76520  0.39740 11.00000  0.04431  11.91
CL02  4  0.21853  0.65434  0.57080 11.00000  0.11027  11.33
CL03  4  1.06924  0.15362  1.07197 11.00000  0.10389  10.86
O004  3  0.55111  0.26823  0.89579 11.00000  0.04679  10.43
O005  3  0.43921  0.18640  0.88248 11.00000  0.04352  10.11
O006  3  0.87783  0.68175  0.38250 11.00000  0.05873  10.09
O007  3  1.04686  0.86662  0.15274 11.00000  0.04261   9.22
O008  3  1.02800  0.68492  0.32804 11.00000  0.06701   9.21
O009  3  1.32974  0.94696  0.39908 11.00000  0.03778   8.82
O00A  3  0.21048  0.12498  0.81164 11.00000  0.04926   8.70
O00B  3  1.28255  1.01675  0.38288 11.00000  0.06835   8.21
O00C  3  0.25484  0.36354  0.65335 11.00000  0.05677   7.82
O00D  3  1.05938  0.54949  0.92589 11.00000  0.04564   7.53
N00E  2  0.98014  0.55948  0.35776 11.00000  0.03022   7.39
N00F  2  0.26503  0.18863  0.82801 11.00000  0.05134   7.27
N00G  2  0.28473  0.05834  0.86769 11.00000  0.06823   7.15
N00H  2 -0.34806  0.11945  0.56348 11.00000  0.05715   7.12
N00I  2  1.07557  0.62511  0.32198 11.00000  0.06381   7.01
O00J  3  0.96096  0.81206  0.58237 11.00000  0.10919   6.97
C00K  1 -0.24639  0.23728  0.24496 11.00000  0.05935   6.96
N00L  2  1.23443  1.05686  0.42053 11.00000  0.06464   6.89
N00M  2  0.49643  0.11707  0.93861 11.00000  0.09340   6.80
O00N  3  0.03891  0.08347  0.71167 11.00000  0.14286   6.44
C00O  1 -0.51913  0.24319  0.48604 11.00000  0.05799   6.40
C00P  1 -0.18399  0.17488  0.65284 11.00000  0.06818   6.39
C00Q  1  0.66349  0.62466  0.06672 11.00000  0.06957   6.38
C00R  1 -0.66999  0.21037  0.43917 11.00000  0.05419   6.32
C00S  1  0.84365  0.53806  0.42524 11.00000  0.04338   6.20
C00T  1  0.91690  0.45587  0.88526 11.00000  0.05646   6.19
C00U  1  0.68106  0.78822 -0.07197 11.00000  0.07046   6.12
C00V  1  0.71457  0.47607  0.48469 11.00000  0.03187   5.87
C00W  1  0.91963  0.51966  0.88354 11.00000  0.04044   5.78
C00X  1  1.24708  0.43662  0.99581 11.00000  0.04621   5.70
C00Y  1 -0.39743  0.22764  0.59011 11.00000  0.06922   5.60
C00Z  1  1.44267  0.93521  0.34053 11.00000  0.03459   5.46
C010  1  0.25079  0.57829  0.22207 11.00000  0.03627   5.37
C011  1  0.26561  0.50994  0.62222 11.00000  0.06867   5.05
C012  1  0.72435  0.61294  0.44077 11.00000  0.04192   4.97
C013  1  1.34032  0.97452  0.56723 11.00000  0.08356   4.93
C014  1  0.32504  0.56929  0.62388 11.00000  0.07106   4.92
C015  1  1.55752  1.00152  0.30005 11.00000  0.04987   4.81
C016  1 -0.61726  0.31586  0.47140 11.00000  0.07417   4.77
C017  1  1.05246  0.93019  0.50149 11.00000  0.03390   4.75
C018  1  1.48390  0.68016  0.80255 11.00000  0.04583   4.73
C019  1  0.94467  0.71323 -0.05733 11.00000  0.03889   4.59
C01A  1  0.74060  0.25961  0.95419 11.00000  0.07580   4.53
C01B  1  0.72410  0.72496  0.70489 11.00000  0.03710   4.47
C01C  1  0.58246  0.47218  0.75728 11.00000  0.12418   4.43
C01D  1  0.42561  0.57500  0.68353 11.00000  0.07364   4.38
C01E  1  0.92737  0.68726  0.11593 11.00000  0.07843   4.34
C01F  1  0.57184 -0.02661  0.97821 11.00000  0.02546   4.23
N01G  2 -0.42340 -0.05686  0.78961 11.00000  0.13954   4.21
C01H  1  0.53777  0.65798  0.68431 11.00000  0.06335   4.21
C01I  1  0.81827  0.43205  0.84420 11.00000  0.04074   4.18
C01J  1  0.51958  0.74411  0.45972 11.00000  0.10744   4.16
C01K  1  0.70284  0.29044  1.01341 11.00000  0.12053   4.14
C01L  1 -0.69181  0.25881  0.45428 11.00000  0.14868   4.13
O01M  3  0.45441  0.67236  0.21218 11.00000  0.08776   4.05
C01N  1  0.49266  0.68034  0.15614 11.00000  0.06198   4.04
C01O  1 -0.29214  0.27374  0.35900 11.00000  0.07507   3.97
C01P  1  0.81191  0.73032 -0.01489 11.00000  0.09559   3.85
C01Q  1  1.07875  1.00765  0.48228 11.00000  0.06216   3.84
C01R  1 -0.08448  0.09032  0.66183 11.00000  0.08690   3.83
C01S  1  0.36554  0.56799  0.08499 11.00000  0.07964   3.82
O01T  3 -0.40804  0.23265  0.19820 11.00000  0.08821   3.56
C01U  1  0.43968  0.05050  0.91906 11.00000  0.03172   3.53
C01V  1  0.91639  0.88174  0.56191 11.00000  0.03266   3.52
C01W  1  0.73261  0.49952  0.78914 11.00000  0.05719   3.48
C01X  1  0.74647  0.48585  0.28849 11.00000  0.07224   3.47
C01Y  1  0.56402  0.73269  0.09542 11.00000  0.06012   3.46
C01Z  1 -0.40751  0.20540  0.54685 11.00000  0.06052   3.39
C020  1  0.82167  0.53652  0.68554 11.00000  0.09733   3.23
C021  1  1.23547  0.62347  0.86013 11.00000  0.06270   3.18
C022  1  1.69181  0.99973  0.22912 11.00000  0.06971   3.17
C023  1  1.07489  0.40289  0.96028 11.00000  0.05436   3.14
C024  1  0.48616  0.35278  0.74718 11.00000  0.09884   3.13
C025  1 -0.18465  0.18252  0.30387 11.00000  0.05774   3.10
C026  1  0.27820 -0.04031  0.93262 11.00000  0.11885   3.00
C027  1  0.75155  0.56284  0.81202 11.00000  0.04309   3.00
HKLF 4
END
