TITL 8_a.res in P1
REM Old TITL 8 in P-1
REM SHELXT solution in P1: R1 0.334, Rweak 0.112, Alpha 0.000
REM <I/s>   0.000 for    0 systematic absences,  Orientation as input
REM Flack x =  0.427 ( 0.296 ) from   379 Parsons' quotients
REM Formula found by SHELXT:  C66 N12 O23 Cl3

CELL  0.71073   3.7900  20.1500  22.5300   68.080   90.000   90.000
ZERR   21.000   0.0008   0.0040   0.0045    0.030    0.030    0.030
LATT -1
SFAC C N O CL
UNIT 21 21 21 21
L.S. 10
BOND
LIST 6
FMAP 2
PLAN 20
CL01  4  0.55064  0.98202  0.26762 11.00000  0.11345  12.89
CL02  4  0.03912  0.38406  1.01057 11.00000  0.11628  12.70
O003  3  0.30724  0.30860  0.94038 11.00000  0.05347  11.13
O004  3  0.02606  0.09283  1.09506 11.00000  0.04813  11.11
O005  3  1.39280  0.01848  0.57497 11.00000  0.05787  10.30
CL06  4  0.50392  0.27384  0.19016 11.00000  0.11047  10.25
N007  2  0.31788  0.17925  0.98016 11.00000  0.03885  10.16
O008  3  0.36630  0.77208  0.68845 11.00000  0.03233  10.04
O009  3  0.02989  0.69341  0.23331 11.00000  0.08038   9.83
O00A  3 -0.25213  0.55348  0.95806 11.00000  0.03897   9.79
O00B  3  0.33884  0.48015  0.76920 11.00000  0.04044   9.67
O00C  3  0.83530  0.74023  0.54927 11.00000  0.05564   9.43
O00D  3  0.83794  0.88396  0.51060 11.00000  0.03829   9.36
O00E  3  0.87984  0.59278  0.59789 11.00000  0.04388   9.17
O00F  3 -0.21629  0.67580  0.92986 11.00000  0.08925   9.10
N00G  2  0.33332  0.75130  0.36383 11.00000  0.04696   9.09
O00H  3  0.13298  0.72235  0.28956 11.00000  0.05253   8.97
O00I  3  0.30962  0.70230  0.34152 11.00000  0.07776   8.60
C00J  1 -0.47562  0.52017  1.07170 11.00000  0.03785   8.51
O00K  3 -0.72955  0.55531  0.26794 11.00000  0.15607   8.25
O00L  3  0.58893  0.80900  0.44393 11.00000  0.04791   8.15
O00M  3  1.77579  0.03687  0.72329 11.00000  0.10182   7.81
O00N  3  0.56051  0.24866  0.86771 11.00000  0.06170   7.60
N00O  2  0.42837  0.23939  0.93920 11.00000  0.13862   7.47
N00P  2  1.27091  0.06823  0.51124 11.00000  0.06553   7.45
C00Q  1 -0.36332  0.56791  1.01208 11.00000  0.05578   7.40
N00R  2  0.69973  0.21743  0.79816 11.00000  0.07080   7.39
N00S  2  0.74606  0.67435  0.53732 11.00000  0.04826   7.09
N00T  2  1.14198  0.04803  0.46464 11.00000  0.04686   6.84
N00U  2  0.90285  0.11731  0.35587 11.00000  0.06337   6.82
N00V  2 -0.57162  0.78524  0.17397 11.00000  0.11679   6.66
C00W  1  1.16648  0.14272  0.50356 11.00000  0.06335   6.61
C00X  1  0.45116  0.36124  0.37580 11.00000  0.14893   6.55
C00Y  1  0.01574  0.88579  0.12640 11.00000  0.08067   6.42
C00Z  1  0.06221  0.23618  1.05840 11.00000  0.06278   6.41
C010  1  0.57154  0.67835  0.47782 11.00000  0.03177   6.39
C011  1  0.51584  0.51041  0.41594 11.00000  0.03797   6.29
C012  1  0.82607  0.19261  0.73870 11.00000  0.08083   6.26
C013  1 -0.58603  0.62445  1.09965 11.00000  0.02988   6.18
C014  1  1.51703  0.04720  0.62029 11.00000  0.04324   6.13
O015  3  0.34904  0.62913  0.74603 11.00000  0.13130   6.12
C016  1  1.04249  0.38973  0.51209 11.00000  0.14379   6.10
O017  3 -0.17295  0.30326  0.41614 11.00000  0.08306   6.09
C018  1 -0.34946  0.83783  0.05722 11.00000  0.04540   6.06
C019  1  0.72529  0.80402  0.50599 11.00000  0.03768   5.99
C01A  1  1.59336  0.26471  0.63181 11.00000  0.11151   5.96
C01B  1 -0.38537  0.64600  0.23963 11.00000  0.09540   5.94
C01C  1 -0.06788  0.73516  0.18302 11.00000  0.06552   5.90
C01D  1  0.75179  0.49615  0.81360 11.00000  0.08557   5.86
C01E  1  0.01704  0.62067  0.85523 11.00000  0.03891   5.78
O01F  3 -0.77375  0.43430  1.19820 11.00000  0.06656   5.77
C01G  1  0.60044  0.19878  0.84372 11.00000  0.04411   5.76
N01H  2 -0.59854  0.54559  1.11557 11.00000  0.07326   5.71
C01I  1  1.09975  0.17558  0.43295 11.00000  0.06798   5.64
C01J  1 -0.77579  0.49981  1.17892 11.00000  0.04708   5.60
C01K  1  0.24433  0.80660  0.33458 11.00000  0.05006   5.51
C01L  1  1.23017  0.33315  0.56297 11.00000  0.06127   5.42
C01M  1  0.21961  0.56541  0.78419 11.00000  0.06756   5.38
C01N  1  0.87258  0.84255 -0.17969 11.00000  0.05385   5.26
C01O  1  0.14088  0.18013  1.03628 11.00000  0.04202   5.06
C01P  1 -0.46947  0.66734  1.03979 11.00000  0.04728   5.05
C01Q  1  0.09329  0.80461 -0.07872 11.00000  0.04645   5.03
C01R  1  1.07438  0.57793  0.42944 11.00000  0.10514   5.01
C01S  1  1.45448  0.12161  0.61033 11.00000  0.05439   5.00
C01T  1  0.41910  0.00361  1.09045 11.00000  0.11973   4.91
C01U  1  0.14082  0.30775  0.99866 11.00000  0.07726   4.89
N01V  2  0.99533  0.17970  0.20083 11.00000  0.12292   4.86
C01W  1  0.72959  0.39040  0.82963 11.00000  0.13637   4.84
C01X  1  1.33628  0.17025  0.54572 11.00000  0.06578   4.81
N01Y  2  0.78013  0.42355  0.36488 11.00000  0.08440   4.78
C01Z  1  0.39684  0.46807  0.37413 11.00000  0.10096   4.77
C020  1  0.79119  0.71452  0.36610 11.00000  0.14550   4.60
C021  1  0.83244  0.57874  0.51337 11.00000  0.16548   4.58
O022  3  1.68145 -0.06819  0.69778 11.00000  0.08475   4.54
C023  1  1.23304  0.28428  0.70392 11.00000  0.13849   4.52
C024  1 -0.11176  0.78951  0.68449 11.00000  0.08949   4.51
C025  1  1.01318 -0.07710  0.59365 11.00000  0.11530   4.47
O026  3  1.67564  0.19884  0.57406 11.00000  0.22994   4.42
C027  1 -0.15321  0.93135 -0.01421 11.00000  0.13578   4.39
C028  1  0.79519  0.44169  0.47318 11.00000  0.13304   4.36
C029  1  0.85784  0.38812  0.46775 11.00000  0.09643   4.26
C02A  1  1.64391  0.00328  0.68495 11.00000  0.04111   4.25
C02B  1  0.76752  0.19716  0.30294 11.00000  0.08422   4.16
C02C  1  0.25364  0.93470 -0.07988 11.00000  0.06242   4.15
C02D  1  1.13551  0.36600  0.59563 11.00000  0.04510   4.13
C02E  1  0.11430  0.80370  0.26856 11.00000  0.06938   4.08
C02F  1  0.36599  1.00549 -0.08167 11.00000  0.04164   4.07
C02G  1  0.11337  0.86939 -0.02113 11.00000  0.08545   4.06
C02H  1  1.45181  0.51848  0.57973 11.00000  0.13174   4.05
C02I  1  1.28767  0.89359 -0.19820 11.00000  0.12833   3.97
C02J  1 -0.12688  0.61669  0.92507 11.00000  0.08226   3.94
C02K  1 -0.09455  0.81647  0.16542 11.00000  0.04933   3.92
C02L  1  0.54178  0.74049  0.43282 11.00000  0.09008   3.75
C02M  1 -0.32312  0.64114  1.00137 11.00000  0.06305   3.75
C02N  1  0.94041  0.49846  0.49051 11.00000  0.20437   3.62
C02O  1  0.80579  0.30511  0.76765 11.00000  0.07117   3.61
C02P  1  0.10742  0.54267  0.85799 11.00000  0.08219   3.54
C02Q  1  1.31905  0.46169  0.54228 11.00000  0.14440   3.47
C02R  1  0.06055  0.94624  0.18688 11.00000  0.09641   3.46
C02S  1  0.50655  0.83266 -0.10856 11.00000  0.11050   3.45
C02T  1  0.02447  0.11097  1.00097 11.00000  0.12387   3.40
C02U  1  0.24983  0.31641  0.43495 11.00000  0.15785   3.39
C02V  1 -0.14194  0.07054  1.13587 11.00000  0.12303   3.21
O02W  3  0.31680  1.07710 -0.14950 11.00000  0.09160   3.15
HKLF 4
END
