TITL 2_expF_1_2_expS_0_9_2_a.res in P2(1)/n
REM Old TITL 1 in P2/n
REM SHELXT solution in P2(1)/n: R1 0.273, Rweak 0.031, Alpha 0.047
REM <I/s>   1.372 for  106 systematic absences,  Orientation as input
REM Formula found by SHELXT:  C10 O

CELL  0.71073   7.0400   9.2900  11.5500   90.000   97.870   90.000
ZERR   16.000   0.0014   0.0019   0.0023    0.000    0.030    0.000
LATT  1
SYMM 1/2-X, 1/2+Y, 1/2-Z
SFAC C N O
UNIT 16 16 16
L.S. 10
BOND
LIST 6
FMAP 2
PLAN 20
C001  1  0.55135  0.55261  0.34016 11.00000  0.03427   6.45
C002  1  0.66133  0.92314  0.72106 11.00000  0.03095   6.39
O003  3  0.85021  0.49526  0.30817 11.00000  0.06137   6.11
C004  1  0.67836  0.48727  0.27822 11.00000  0.03685   6.11
C005  1  0.78096  0.73814  0.60979 11.00000  0.04069   6.07
C006  1  0.58696  0.64321  0.43854 11.00000  0.03696   5.95
C007  1  0.46309  0.82959  0.55616 11.00000  0.04299   5.87
C008  1  0.63353  0.83174  0.63002 11.00000  0.03920   5.81
C009  1  0.76005  0.64347  0.51409 11.00000  0.04092   5.74
C00A  1  0.43910  0.73505  0.45955 11.00000  0.04252   5.56
C00B  1  0.59153  0.39954  0.17661 11.00000  0.04367   5.39
HKLF 4
END
