TITL 2_expF_1_0_expS_1_0_2_b.res in Pn
REM Old TITL 1 in P2/n
REM SHELXT solution in Pn: R1 0.231, Rweak 0.047, Alpha 0.031
REM <I/s>   1.134 for  100 systematic absences,  Orientation as input
REM Formula found by SHELXT:  C17 N3 O2

CELL  0.71073   7.0400   9.2900  11.5500   90.000   97.870   90.000
ZERR   16.000   0.0014   0.0019   0.0023    0.000    0.030    0.000
LATT -1
SYMM 1/2+X, -Y, 1/2+Z
SFAC C N O
UNIT 16 16 16
L.S. 10
BOND
LIST 6
FMAP 2
PLAN 20
C001  1  0.68334  0.73919  0.28282 11.00000  0.03184   7.49
N002  2  0.77603  0.89472  0.51513 11.00000  0.05440   6.95
N003  2  0.77823  0.98161  0.61063 11.00000  0.03055   6.64
C004  1  0.59479  0.89120  0.44468 11.00000  0.02477   6.60
N005  2  0.56150  0.50995  0.54336 11.00000  0.04448   6.54
C006  1  0.66858  1.16851  0.72203 11.00000  0.01975   6.42
O007  3  0.15047  0.76057  0.69164 11.00000  0.01863   6.22
C008  1  0.55559  0.80324  0.34060 11.00000  0.02823   5.96
C009  1  0.63846  1.08294  0.62632 11.00000  0.02969   5.82
C00A  1  0.59497  0.65233  0.17650 11.00000  0.03889   5.75
C00B  1  0.54819  0.42267  0.44764 11.00000  0.03979   5.57
C00C  1  0.45370  0.70007  0.66244 11.00000  0.02833   5.56
C00D  1  0.47307  1.08071  0.55742 11.00000  0.03323   5.05
C00E  1  0.34163  0.32091  0.27684 11.00000  0.03335   4.97
O00F  3  0.84953  0.76494  0.30651 11.00000  0.11717   4.83
C00G  1  0.37163  0.41955  0.36396 11.00000  0.03382   4.45
C00H  1  0.21110  0.50423  0.38862 11.00000  0.04438   4.44
C00I  1  0.41830  0.60439  0.57088 11.00000  0.03755   4.23
C00J  1  0.40847  0.85427  0.82350 11.00000  0.03279   3.88
C00K  1  0.32853  0.76425  0.72410 11.00000  0.03293   3.67
C00L  1  0.44062  0.98347  0.46186 11.00000  0.03560   3.57
C00M  1  0.25406  0.60715  0.48588 11.00000  0.02237   3.25
HKLF 4
END
