TITL 2_expF_1_0_expS_1_0_2_a.res in P2(1)/n
REM Old TITL 1 in P2/n
REM SHELXT solution in P2(1)/n: R1 0.267, Rweak 0.060, Alpha 0.105
REM <I/s>   1.206 for  106 systematic absences,  Orientation as input
REM Formula found by SHELXT:  C10 O

CELL  0.71073   7.0400   9.2900  11.5500   90.000   97.870   90.000
ZERR   16.000   0.0014   0.0019   0.0023    0.000    0.030    0.000
LATT  1
SYMM 1/2-X, 1/2+Y, 1/2-Z
SFAC C N O
UNIT 16 16 16
L.S. 10
BOND
LIST 6
FMAP 2
PLAN 20
C001  1  0.44907  0.44873  0.66056 11.00000  0.02351   6.50
C002  1  0.33609  0.07617  0.27811 11.00000  0.02282   6.33
C003  1  0.32161  0.51268  0.72160 11.00000  0.02634   6.24
O004  3  0.14873  0.50555  0.69185 11.00000  0.04183   6.21
C005  1  0.21901  0.26345  0.38994 11.00000  0.02889   6.05
C006  1  0.41175  0.35678  0.56186 11.00000  0.02753   5.99
C007  1  0.36698  0.16965  0.37009 11.00000  0.02855   5.88
C008  1  0.24037  0.35722  0.48539 11.00000  0.02817   5.72
C009  1  0.53913  0.17083  0.44490 11.00000  0.03232   5.63
C00A  1  0.56108  0.26426  0.54075 11.00000  0.03077   5.56
C00B  1  0.40833  0.60065  0.82322 11.00000  0.03050   5.45
HKLF 4
END
