TITL 1_expF_1_3_expS_1_1_1_a.res in P2(1)
REM Old TITL 1 in P2
REM SHELXT solution in P2(1): R1 0.256, Rweak 0.050, Alpha 0.008
REM <I/s>   6.200 for    3 systematic absences,  Orientation as input
REM Formula found by SHELXT:  C16 N O

CELL  0.71073   8.0000   5.0200  16.0200   90.000  103.140   90.000
ZERR   12.000   0.0016   0.0010   0.0032    0.000    0.030    0.000
LATT -1
SYMM -X, 1/2+Y, -Z
SFAC C N O
UNIT 12 12 12
L.S. 10
BOND
LIST 6
FMAP 2
PLAN 20
O001  3  0.14466  0.85343  0.25205 11.00000  0.07847   7.02
N002  2  0.54342  0.57860  0.22185 11.00000  0.06583   6.68
C003  1  0.20154  0.43351  0.37865 11.00000  0.05217   6.49
C004  1  0.15664  0.63767  0.51283 11.00000  0.05935   6.46
C005  1  0.12909  0.62924  0.42223 11.00000  0.05769   6.21
C006  1  0.26795  0.45047  0.55868 11.00000  0.05917   6.12
C007  1  0.30442  0.24229  0.42706 11.00000  0.06158   6.02
C008  1  0.16581  0.42064  0.28723 11.00000  0.04373   5.92
C009  1  0.14839  0.62001  0.23076 11.00000  0.06022   5.89
C00A  1  0.27441  0.64302  0.10626 11.00000  0.05499   5.84
C00B  1 -0.04247  0.67007  0.08570 11.00000  0.05810   5.82
C00C  1  0.11748  0.55323  0.13782 11.00000  0.05104   5.79
C00D  1  0.73659  0.21638  0.21431 11.00000  0.06381   5.55
C00E  1  0.47843  0.28218  0.09822 11.00000  0.06528   5.54
C00F  1  0.34556  0.25853  0.51866 11.00000  0.05646   5.49
C00G  1  0.68538  0.42762  0.25823 11.00000  0.05779   5.48
C00H  1  0.63006  0.14657  0.13411 11.00000  0.06987   5.44
C00I  1  0.44239  0.49971  0.14133 11.00000  0.05877   5.24
HKLF 4
END
