TITL 1_expF_0_9_expS_0_5_1_a.res in P2(1)
REM Old TITL 1 in P2
REM SHELXT solution in P2(1): R1 0.214, Rweak 0.174, Alpha 0.031
REM <I/s>   3.738 for    3 systematic absences,  Orientation as input
REM Formula found by SHELXT:  C16 N O

CELL  0.71073   8.0000   5.0200  16.0200   90.000  103.140   90.000
ZERR   12.000   0.0016   0.0010   0.0032    0.000    0.030    0.000
LATT -1
SYMM -X, 1/2+Y, -Z
SFAC C N O
UNIT 12 12 12
L.S. 10
BOND
LIST 6
FMAP 2
PLAN 20
O001  3  0.14753  0.85068  0.25217 11.00000  0.05040   7.15
N002  2  0.16340  0.41630  0.28831 11.00000  0.03433   6.55
C003  1  0.20343  0.43652  0.37829 11.00000  0.03211   6.48
C004  1  0.54081  0.57935  0.22330 11.00000  0.03739   6.43
C005  1  0.27185  0.45346  0.55858 11.00000  0.03683   6.26
C006  1  0.30212  0.24033  0.42579 11.00000  0.03651   6.24
C007  1  0.14283  0.61880  0.23143 11.00000  0.03427   6.12
C008  1  0.15939  0.63510  0.51226 11.00000  0.03872   5.91
C009  1  0.13216  0.62984  0.42147 11.00000  0.03398   5.90
C00A  1  0.34178  0.25598  0.51884 11.00000  0.04039   5.84
C00B  1 -0.04739  0.66609  0.08575 11.00000  0.03839   5.71
C00C  1  0.11970  0.54975  0.13912 11.00000  0.02717   5.49
C00D  1  0.73787  0.21722  0.21495 11.00000  0.04557   5.39
C00E  1  0.44223  0.50285  0.14255 11.00000  0.03166   5.39
C00F  1  0.62801  0.14932  0.13431 11.00000  0.04995   5.34
C00G  1  0.27432  0.64799  0.10488 11.00000  0.03730   5.33
C00H  1  0.68646  0.42605  0.25887 11.00000  0.04219   5.31
C00I  1  0.48650  0.28078  0.09674 11.00000  0.04206   4.92
HKLF 4
END
