TITL 1_expF_1_2_expS_1_0_1_a.res in P2(1)
REM Old TITL 1 in P2
REM SHELXT solution in P2(1): R1 0.233, Rweak 0.072, Alpha 0.008
REM <I/s>   5.377 for    3 systematic absences,  Orientation as input
REM Formula found by SHELXT:  C15 N2 O

CELL  0.71073   8.0000   5.0200  16.0200   90.000  103.140   90.000
ZERR   12.000   0.0016   0.0010   0.0032    0.000    0.030    0.000
LATT -1
SYMM -X, 1/2+Y, -Z
SFAC C N O
UNIT 12 12 12
L.S. 10
BOND
LIST 6
FMAP 2
PLAN 20
O001  3  0.85225  0.14805  0.74717 11.00000  0.06957   7.19
N002  2  0.45460  0.42135  0.77837 11.00000  0.06086   6.63
N003  2  0.79735  0.56178  0.62122 11.00000  0.06040   6.51
C004  1  0.84106  0.36442  0.48680 11.00000  0.05181   6.41
C005  1  0.87088  0.37173  0.57828 11.00000  0.05151   6.25
C006  1  0.72900  0.54998  0.44051 11.00000  0.05451   6.22
C007  1  0.69643  0.75624  0.57310 11.00000  0.05317   6.17
C008  1  0.83555  0.58101  0.71210 11.00000  0.03852   6.04
C009  1  0.85453  0.37849  0.76839 11.00000  0.05387   5.93
C00A  1  0.88224  0.44700  0.86191 11.00000  0.04281   5.88
C00B  1  1.04519  0.33098  0.91409 11.00000  0.05352   5.86
C00C  1  0.72860  0.35353  0.89471 11.00000  0.05028   5.79
C00D  1  0.26668  0.78028  0.78599 11.00000  0.06034   5.68
C00E  1  0.65352  0.74135  0.48025 11.00000  0.05300   5.61
C00F  1  0.31303  0.57481  0.74161 11.00000  0.05583   5.48
C00G  1  0.37089  0.85195  0.86545 11.00000  0.06449   5.42
C00H  1  0.52047  0.71779  0.90185 11.00000  0.05783   5.37
C00I  1  0.55872  0.49870  0.85862 11.00000  0.05165   5.31
HKLF 4
END
