TITL 1_expF_0_9_expS_0_7_1_a.res in P2(1)
REM Old TITL 1 in P2
REM SHELXT solution in P2(1): R1 0.209, Rweak 0.168, Alpha 0.062
REM <I/s>   3.515 for    3 systematic absences,  Orientation as input
REM Formula found by SHELXT:  C14 N3 O

CELL  0.71073   8.0000   5.0200  16.0200   90.000  103.140   90.000
ZERR   12.000   0.0016   0.0010   0.0032    0.000    0.030    0.000
LATT -1
SYMM -X, 1/2+Y, -Z
SFAC C N O
UNIT 12 12 12
L.S. 10
BOND
LIST 6
FMAP 2
PLAN 20
O001  3  0.85491  0.14772  0.74665 11.00000  0.04512   8.05
N002  2  0.69810  0.76123  0.57313 11.00000  0.04172   6.86
N003  2  0.79812  0.56457  0.62121 11.00000  0.04014   6.76
N004  2  0.84011  0.36643  0.48747 11.00000  0.04796   6.57
C005  1  0.83616  0.58468  0.71152 11.00000  0.02235   6.25
C006  1  0.65470  0.74273  0.48234 11.00000  0.03601   6.23
C007  1  0.45776  0.42240  0.77790 11.00000  0.03477   6.17
C008  1  1.04778  0.33701  0.91458 11.00000  0.03629   6.14
C009  1  0.72794  0.54515  0.44109 11.00000  0.03441   6.11
C00A  1  0.85610  0.38128  0.76848 11.00000  0.03333   5.96
C00B  1  0.88038  0.44915  0.86104 11.00000  0.02573   5.87
C00C  1  0.86956  0.37129  0.57860 11.00000  0.03266   5.79
C00D  1  0.26372  0.78210  0.78562 11.00000  0.04365   5.54
C00E  1  0.72716  0.35328  0.89485 11.00000  0.03220   5.50
C00F  1  0.55746  0.49977  0.85783 11.00000  0.03050   5.23
C00G  1  0.31328  0.57287  0.74162 11.00000  0.03921   5.17
C00H  1  0.51690  0.71896  0.90136 11.00000  0.04185   5.05
C00I  1  0.36974  0.85228  0.86620 11.00000  0.04679   4.96
HKLF 4
END
