TITL 1_expF_1_4_expS_0_5_1_a.res in P2(1)
REM Old TITL 1 in P2
REM SHELXT solution in P2(1): R1 0.260, Rweak 0.042, Alpha 0.007
REM <I/s>   9.354 for    3 systematic absences,  Orientation as input
REM Formula found by SHELXT:  C15 N2 O

CELL  0.71073   8.0000   5.0200  16.0200   90.000  103.140   90.000
ZERR   12.000   0.0016   0.0010   0.0032    0.000    0.030    0.000
LATT -1
SYMM -X, 1/2+Y, -Z
SFAC C N O
UNIT 12 12 12
L.S. 10
BOND
LIST 6
FMAP 2
PLAN 20
O001  3  0.85448  0.85018  0.74681 11.00000  0.09420   6.92
N002  2  0.45387  0.58355  0.78065 11.00000  0.07204   6.70
N003  2  0.84367  0.63727  0.48777 11.00000  0.07759   6.51
C004  1  0.79810  0.43639  0.61997 11.00000  0.05983   6.36
C005  1  0.86694  0.63251  0.57900 11.00000  0.06716   6.33
C006  1  0.73153  0.44735  0.44013 11.00000  0.07231   6.07
C007  1  0.85387  0.61523  0.76838 11.00000  0.06599   5.96
C008  1  0.69698  0.24541  0.57562 11.00000  0.07177   5.94
C009  1  0.72784  0.64548  0.89505 11.00000  0.06251   5.80
C00A  1  1.04458  0.67243  0.91182 11.00000  0.06326   5.75
C00B  1  0.51983  0.28371  0.90184 11.00000  0.06560   5.75
C00C  1  0.83283  0.42185  0.71470 11.00000  0.05316   5.74
C00D  1  0.88173  0.56091  0.86113 11.00000  0.05874   5.66
C00E  1  0.36626  0.14982  0.86681 11.00000  0.08015   5.64
C00F  1  0.31110  0.43157  0.74184 11.00000  0.06579   5.53
C00G  1  0.25771  0.21535  0.78523 11.00000  0.07963   5.53
C00H  1  0.55349  0.50037  0.85988 11.00000  0.06950   5.30
C00I  1  0.65655  0.25713  0.48194 11.00000  0.06198   5.27
HKLF 4
END
