TITL 1_expF_1_3_expS_1_5_1_a.res in P2(1)
REM Old TITL 1 in P2
REM SHELXT solution in P2(1): R1 0.282, Rweak 0.048, Alpha 0.010
REM <I/s>   5.853 for    3 systematic absences,  Orientation as input
REM Formula found by SHELXT:  C16 N O

CELL  0.71073   8.0000   5.0200  16.0200   90.000  103.140   90.000
ZERR   12.000   0.0016   0.0010   0.0032    0.000    0.030    0.000
LATT -1
SYMM -X, 1/2+Y, -Z
SFAC C N O
UNIT 12 12 12
L.S. 10
BOND
LIST 6
FMAP 2
PLAN 20
O001  3  0.14275  0.85477  0.25097 11.00000  0.07309   7.02
N002  2  0.54068  0.57725  0.22205 11.00000  0.06478   6.80
C003  1  0.15739  0.64175  0.51187 11.00000  0.05639   6.47
C004  1  0.20074  0.43563  0.37831 11.00000  0.05105   6.44
C005  1  0.12624  0.62954  0.42157 11.00000  0.05448   6.19
C006  1  0.26945  0.45206  0.55860 11.00000  0.05753   6.10
C007  1  0.30442  0.24046  0.42744 11.00000  0.05749   5.99
C008  1  0.14933  0.62367  0.23183 11.00000  0.05690   5.92
C009  1  0.16606  0.42001  0.28630 11.00000  0.04214   5.89
C00A  1  0.27491  0.64587  0.10736 11.00000  0.05146   5.85
C00B  1 -0.04146  0.67685  0.08717 11.00000  0.05724   5.78
C00C  1  0.11647  0.55315  0.13816 11.00000  0.04709   5.72
C00D  1  0.73397  0.21761  0.21455 11.00000  0.06183   5.60
C00E  1  0.47932  0.28419  0.09767 11.00000  0.06543   5.55
C00F  1  0.68419  0.42844  0.25843 11.00000  0.05430   5.48
C00G  1  0.34413  0.26003  0.51818 11.00000  0.05446   5.46
C00H  1  0.63062  0.14523  0.13465 11.00000  0.06828   5.39
C00I  1  0.44362  0.50418  0.14238 11.00000  0.05578   5.27
HKLF 4
END
