TITL 1_expF_1_4_expS_0_9_1_a.res in P2(1)
REM Old TITL 1 in P2
REM SHELXT solution in P2(1): R1 0.270, Rweak 0.042, Alpha 0.007
REM <I/s>   7.816 for    3 systematic absences,  Orientation as input
REM Formula found by SHELXT:  C15 N2 O

CELL  0.71073   8.0000   5.0200  16.0200   90.000  103.140   90.000
ZERR   12.000   0.0016   0.0010   0.0032    0.000    0.030    0.000
LATT -1
SYMM -X, 1/2+Y, -Z
SFAC C N O
UNIT 12 12 12
L.S. 10
BOND
LIST 6
FMAP 2
PLAN 20
O001  3  0.85409  0.85111  0.74831 11.00000  0.09269   6.92
N002  2  0.45643  0.58292  0.77947 11.00000  0.07074   6.70
N003  2  0.84552  0.63789  0.48763 11.00000  0.07689   6.51
C004  1  0.79974  0.43250  0.62078 11.00000  0.06076   6.36
C005  1  0.87047  0.62936  0.57791 11.00000  0.06637   6.33
C006  1  0.73182  0.44920  0.43979 11.00000  0.06872   6.07
C007  1  0.85220  0.61478  0.76905 11.00000  0.06627   5.96
C008  1  0.69818  0.24406  0.57349 11.00000  0.07065   5.94
C009  1  0.72825  0.64285  0.89429 11.00000  0.06180   5.80
C00A  1  1.04280  0.67304  0.91239 11.00000  0.06351   5.75
C00B  1  0.52316  0.28352  0.90122 11.00000  0.06883   5.75
C00C  1  0.83284  0.42317  0.71448 11.00000  0.05212   5.74
C00D  1  0.88036  0.56065  0.86142 11.00000  0.05807   5.66
C00E  1  0.36638  0.14889  0.86545 11.00000  0.07815   5.64
C00F  1  0.31247  0.42665  0.74215 11.00000  0.06309   5.53
C00G  1  0.26104  0.21529  0.78441 11.00000  0.07906   5.53
C00H  1  0.55397  0.49981  0.85956 11.00000  0.06739   5.30
C00I  1  0.65551  0.25686  0.48221 11.00000  0.06187   5.27
HKLF 4
END
