TITL 1_expF_1_1_expS_0_5_1_a.res in P2(1)
REM Old TITL 1 in P2
REM SHELXT solution in P2(1): R1 0.219, Rweak 0.093, Alpha 0.013
REM <I/s>   5.325 for    3 systematic absences,  Orientation as input
REM Formula found by SHELXT:  C17 O

CELL  0.71073   8.0000   5.0200  16.0200   90.000  103.140   90.000
ZERR   12.000   0.0016   0.0010   0.0032    0.000    0.030    0.000
LATT -1
SYMM -X, 1/2+Y, -Z
SFAC C N O
UNIT 12 12 12
L.S. 10
BOND
LIST 6
FMAP 2
PLAN 20
O001  3  0.85224  0.85075  0.74563 11.00000  0.06991   7.20
C002  1  0.45619  0.58107  0.77782 11.00000  0.04842   6.46
C003  1  0.79585  0.43571  0.62128 11.00000  0.04563   6.45
C004  1  0.72695  0.45203  0.44160 11.00000  0.05012   6.32
C005  1  0.69491  0.24545  0.57538 11.00000  0.05291   6.22
C006  1  0.84162  0.63639  0.48642 11.00000  0.05352   6.22
C007  1  0.86693  0.63052  0.57917 11.00000  0.04794   6.17
C008  1  0.83428  0.41919  0.71065 11.00000  0.03849   6.09
C009  1  0.85530  0.62068  0.76855 11.00000  0.05042   6.04
C00A  1  0.88185  0.55344  0.86124 11.00000  0.04076   5.84
C00B  1  1.04509  0.66600  0.91371 11.00000  0.05283   5.79
C00C  1  0.26514  0.22359  0.78638 11.00000  0.05839   5.61
C00D  1  0.72263  0.64983  0.89512 11.00000  0.05251   5.59
C00E  1  0.65553  0.25714  0.47971 11.00000  0.05444   5.52
C00F  1  0.31211  0.42654  0.74123 11.00000  0.05737   5.48
C00G  1  0.36960  0.14925  0.86545 11.00000  0.06016   5.44
C00H  1  0.55868  0.50554  0.85815 11.00000  0.04807   5.28
C00I  1  0.51821  0.27850  0.90165 11.00000  0.05902   4.93
HKLF 4
END
