TITL 1_expF_1_3_expS_1_3_1_a.res in P2(1)
REM Old TITL 1 in P2
REM SHELXT solution in P2(1): R1 0.269, Rweak 0.050, Alpha 0.010
REM <I/s>   5.966 for    3 systematic absences,  Orientation as input
REM Formula found by SHELXT:  C16 N O

CELL  0.71073   8.0000   5.0200  16.0200   90.000  103.140   90.000
ZERR   12.000   0.0016   0.0010   0.0032    0.000    0.030    0.000
LATT -1
SYMM -X, 1/2+Y, -Z
SFAC C N O
UNIT 12 12 12
L.S. 10
BOND
LIST 6
FMAP 2
PLAN 20
O001  3  0.85609  0.14579  0.74852 11.00000  0.07501   6.94
N002  2  0.45831  0.42213  0.77808 11.00000  0.06481   6.74
C003  1  0.84346  0.36039  0.48771 11.00000  0.05776   6.42
C004  1  0.79866  0.56539  0.62159 11.00000  0.05146   6.29
C005  1  0.87292  0.37041  0.57805 11.00000  0.05570   6.22
C006  1  0.69556  0.75873  0.57271 11.00000  0.05912   6.12
C007  1  0.73109  0.54883  0.44118 11.00000  0.05785   6.10
C008  1  0.85091  0.37807  0.76873 11.00000  0.05811   6.03
C009  1  0.83386  0.57956  0.71322 11.00000  0.04253   5.90
C00A  1  0.72571  0.35563  0.89312 11.00000  0.05308   5.84
C00B  1  1.04151  0.32659  0.91361 11.00000  0.05747   5.72
C00C  1  0.26516  0.78325  0.78559 11.00000  0.06263   5.69
C00D  1  0.88289  0.44684  0.86206 11.00000  0.04858   5.61
C00E  1  0.31512  0.57203  0.74166 11.00000  0.05570   5.54
C00F  1  0.36963  0.85421  0.86554 11.00000  0.06915   5.52
C00G  1  0.52166  0.71708  0.90217 11.00000  0.06521   5.47
C00H  1  0.55690  0.49793  0.85812 11.00000  0.05718   5.42
C00I  1  0.65514  0.74081  0.48175 11.00000  0.05518   5.41
HKLF 4
END
