TITL 1_expF_1_2_expS_0_5_1_a.res in P2(1)
REM Old TITL 1 in P2
REM SHELXT solution in P2(1): R1 0.231, Rweak 0.061, Alpha 0.010
REM <I/s>   6.400 for    3 systematic absences,  Orientation as input
REM Formula found by SHELXT:  C16 N O

CELL  0.71073   8.0000   5.0200  16.0200   90.000  103.140   90.000
ZERR   12.000   0.0016   0.0010   0.0032    0.000    0.030    0.000
LATT -1
SYMM -X, 1/2+Y, -Z
SFAC C N O
UNIT 12 12 12
L.S. 10
BOND
LIST 6
FMAP 2
PLAN 20
O001  3  0.14946  0.14909  0.25360 11.00000  0.07717   6.78
N002  2  0.54570  0.41793  0.22277 11.00000  0.06266   6.58
C003  1  0.20578  0.56355  0.37844 11.00000  0.04879   6.47
C004  1  0.27140  0.55000  0.55937 11.00000  0.05602   6.25
C005  1  0.15583  0.36207  0.51403 11.00000  0.05521   6.24
C006  1  0.12955  0.37158  0.42143 11.00000  0.05256   6.21
C007  1  0.16382  0.57919  0.28851 11.00000  0.04295   6.16
C008  1  0.30570  0.74954  0.42574 11.00000  0.05949   6.04
C009  1  0.14351  0.37901  0.23175 11.00000  0.05613   5.95
C00A  1 -0.04506  0.33357  0.08578 11.00000  0.05554   5.79
C00B  1  0.11686  0.44622  0.13855 11.00000  0.04742   5.79
C00C  1  0.27460  0.35046  0.10460 11.00000  0.05755   5.67
C00D  1  0.68863  0.57725  0.25945 11.00000  0.06004   5.57
C00E  1  0.34702  0.74146  0.52024 11.00000  0.06001   5.56
C00F  1  0.62544  0.85091  0.13495 11.00000  0.06592   5.51
C00G  1  0.73507  0.77405  0.21379 11.00000  0.06524   5.47
C00H  1  0.48094  0.72116  0.09838 11.00000  0.06197   5.35
C00I  1  0.44216  0.49606  0.14188 11.00000  0.05396   5.10
HKLF 4
END
