TITL 1_expF_0_9_expS_0_6_1_a.res in P2(1)
REM Old TITL 1 in P2
REM SHELXT solution in P2(1): R1 0.210, Rweak 0.169, Alpha 0.052
REM <I/s>   3.628 for    3 systematic absences,  Orientation as input
REM Formula found by SHELXT:  C17 O

CELL  0.71073   8.0000   5.0200  16.0200   90.000  103.140   90.000
ZERR   12.000   0.0016   0.0010   0.0032    0.000    0.030    0.000
LATT -1
SYMM -X, 1/2+Y, -Z
SFAC C N O
UNIT 12 12 12
L.S. 10
BOND
LIST 6
FMAP 2
PLAN 20
O001  3  0.85248  0.14878  0.74708 11.00000  0.04958   7.04
C002  1  0.79713  0.56404  0.62120 11.00000  0.03335   6.50
C003  1  0.72824  0.54640  0.44137 11.00000  0.03744   6.39
C004  1  0.83621  0.58395  0.71161 11.00000  0.02398   6.38
C005  1  0.85626  0.38049  0.76812 11.00000  0.03559   6.35
C006  1  0.69682  0.76102  0.57408 11.00000  0.03590   6.31
C007  1  0.45850  0.42323  0.77717 11.00000  0.03790   6.28
C008  1  0.83944  0.36612  0.48801 11.00000  0.03887   5.91
C009  1  0.86767  0.36976  0.57846 11.00000  0.03533   5.89
C00A  1  1.04798  0.33459  0.91418 11.00000  0.03906   5.79
C00B  1  0.88018  0.44989  0.86094 11.00000  0.02774   5.66
C00C  1  0.65726  0.74368  0.48125 11.00000  0.04032   5.52
C00D  1  0.26314  0.78342  0.78542 11.00000  0.04518   5.46
C00E  1  0.31357  0.57365  0.74148 11.00000  0.04307   5.37
C00F  1  0.37080  0.85122  0.86566 11.00000  0.05011   5.35
C00G  1  0.72636  0.35281  0.89503 11.00000  0.03652   5.19
C00H  1  0.55682  0.49928  0.85776 11.00000  0.03244   5.08
C00I  1  0.51434  0.71856  0.90291 11.00000  0.04229   4.60
HKLF 4
END
