TITL 1_expF_0_7_expS_0_5_1_a.res in P2(1)
REM Old TITL 1 in P2
REM SHELXT solution in P2(1): R1 0.227, Rweak 0.309, Alpha 0.093
REM <I/s>   2.674 for    3 systematic absences,  Orientation as input
REM Formula found by SHELXT:  C16 N O

CELL  0.71073   8.0000   5.0200  16.0200   90.000  103.140   90.000
ZERR   12.000   0.0016   0.0010   0.0032    0.000    0.030    0.000
LATT -1
SYMM -X, 1/2+Y, -Z
SFAC C N O
UNIT 12 12 12
L.S. 10
BOND
LIST 6
FMAP 2
PLAN 20
O001  3  0.85331  0.14849  0.74691 11.00000  0.02848   8.01
C002  1  0.85865  0.38133  0.76852 11.00000  0.02179   6.75
N003  2  0.79514  0.56078  0.62175 11.00000  0.03064   6.62
C004  1  0.83590  0.58566  0.71108 11.00000  0.01100   6.49
C005  1  0.69668  0.76329  0.57411 11.00000  0.02019   6.48
C006  1  0.72758  0.54491  0.44153 11.00000  0.02259   6.39
C007  1  0.45891  0.42420  0.77728 11.00000  0.02384   6.20
C008  1  1.04892  0.33835  0.91425 11.00000  0.02736   6.09
C009  1  0.86998  0.36945  0.57866 11.00000  0.02259   6.05
C00A  1  0.83819  0.36790  0.48864 11.00000  0.02966   5.99
C00B  1  0.88021  0.44865  0.86083 11.00000  0.01386   5.71
C00C  1  0.65907  0.74203  0.48127 11.00000  0.02796   5.51
C00D  1  0.31450  0.57439  0.74109 11.00000  0.03006   5.33
C00E  1  0.37307  0.85151  0.86674 11.00000  0.03757   5.31
C00F  1  0.26379  0.78514  0.78514 11.00000  0.03316   5.24
C00G  1  0.55575  0.49831  0.85736 11.00000  0.01836   5.23
C00H  1  0.72904  0.35433  0.89532 11.00000  0.02086   4.58
C00I  1  0.51341  0.71625  0.90442 11.00000  0.02934   4.03
HKLF 4
END
