TITL 1_expF_1_5_expS_0_5_1_a.res in P2(1)
REM Old TITL 1 in P2
REM SHELXT solution in P2(1): R1 0.293, Rweak 0.036, Alpha 0.011
REM <I/s>  11.383 for    3 systematic absences,  Orientation as input
REM Formula found by SHELXT:  C15 N2 O

CELL  0.71073   8.0000   5.0200  16.0200   90.000  103.140   90.000
ZERR   12.000   0.0016   0.0010   0.0032    0.000    0.030    0.000
LATT -1
SYMM -X, 1/2+Y, -Z
SFAC C N O
UNIT 12 12 12
L.S. 10
BOND
LIST 6
FMAP 2
PLAN 20
O001  3  0.84457  0.14866  0.74915 11.00000  0.10385   6.81
N002  2  0.45478  0.40364  0.77751 11.00000  0.08598   6.64
N003  2  0.85216  0.35308  0.48422 11.00000  0.09204   6.62
C004  1  0.79231  0.54689  0.62120 11.00000  0.07279   6.47
C005  1  0.86858  0.36152  0.57611 11.00000  0.07315   6.33
C006  1  0.72839  0.34787  0.89380 11.00000  0.07558   5.99
C007  1  0.73309  0.54916  0.43962 11.00000  0.07502   5.97
C008  1  0.85328  0.37155  0.76875 11.00000  0.07407   5.92
C009  1  0.69883  0.75486  0.57374 11.00000  0.07677   5.92
C00A  1  0.52611  0.70788  0.90045 11.00000  0.08647   5.85
C00B  1  0.87836  0.43412  0.86163 11.00000  0.06286   5.75
C00C  1  1.04386  0.31787  0.91669 11.00000  0.07611   5.71
C00D  1  0.31046  0.56480  0.74210 11.00000  0.07485   5.69
C00E  1  0.25542  0.77488  0.78372 11.00000  0.09105   5.64
C00F  1  0.83798  0.57729  0.71533 11.00000  0.06427   5.61
C00G  1  0.37016  0.85134  0.86147 11.00000  0.08085   5.61
C00H  1  0.65566  0.74235  0.48325 11.00000  0.07143   5.24
C00I  1  0.55357  0.49539  0.85924 11.00000  0.07464   5.16
HKLF 4
END
