TITL 1_expF_1_3_expS_0_9_1_a.res in P2(1)
REM Old TITL 1 in P2
REM SHELXT solution in P2(1): R1 0.246, Rweak 0.051, Alpha 0.015
REM <I/s>   6.557 for    3 systematic absences,  Orientation as input
REM Formula found by SHELXT:  C16 N O

CELL  0.71073   8.0000   5.0200  16.0200   90.000  103.140   90.000
ZERR   12.000   0.0016   0.0010   0.0032    0.000    0.030    0.000
LATT -1
SYMM -X, 1/2+Y, -Z
SFAC C N O
UNIT 12 12 12
L.S. 10
BOND
LIST 6
FMAP 2
PLAN 20
O001  3  0.14458  0.14715  0.25267 11.00000  0.08173   6.94
N002  2  0.54542  0.42065  0.22136 11.00000  0.06715   6.72
C003  1  0.20150  0.56710  0.37893 11.00000  0.05273   6.45
C004  1  0.15739  0.36375  0.51300 11.00000  0.06014   6.36
C005  1  0.13202  0.37129  0.42191 11.00000  0.05831   6.17
C006  1  0.26722  0.55029  0.55829 11.00000  0.06085   6.06
C007  1  0.30517  0.75651  0.42633 11.00000  0.06311   6.00
C008  1  0.14726  0.38133  0.23061 11.00000  0.06099   5.99
C009  1  0.16517  0.58016  0.28772 11.00000  0.04509   5.96
C00A  1 -0.04415  0.33289  0.08561 11.00000  0.05816   5.80
C00B  1  0.27547  0.35773  0.10542 11.00000  0.05639   5.75
C00C  1  0.11709  0.44724  0.13794 11.00000  0.05313   5.70
C00D  1  0.48006  0.71854  0.09832 11.00000  0.06470   5.64
C00E  1  0.63044  0.85285  0.13346 11.00000  0.07025   5.61
C00F  1  0.73858  0.78355  0.21409 11.00000  0.06414   5.60
C00G  1  0.34598  0.74181  0.51908 11.00000  0.05825   5.51
C00H  1  0.68566  0.57201  0.25810 11.00000  0.06051   5.47
C00I  1  0.44188  0.50166  0.14073 11.00000  0.06033   5.30
HKLF 4
END
