TITL 1_expF_1_5_expS_0_9_1_a.res in P2(1)
REM Old TITL 1 in P2
REM SHELXT solution in P2(1): R1 0.302, Rweak 0.032, Alpha 0.005
REM <I/s>   9.365 for    3 systematic absences,  Orientation as input
REM Formula found by SHELXT:  C15 N2 O

CELL  0.71073   8.0000   5.0200  16.0200   90.000  103.140   90.000
ZERR   12.000   0.0016   0.0010   0.0032    0.000    0.030    0.000
LATT -1
SYMM -X, 1/2+Y, -Z
SFAC C N O
UNIT 12 12 12
L.S. 10
BOND
LIST 6
FMAP 2
PLAN 20
O001  3  0.15078  0.14522  0.24937 11.00000  0.10173   6.79
N002  2  0.54241  0.41201  0.22261 11.00000  0.08206   6.71
N003  2  0.14542  0.36302  0.51507 11.00000  0.08802   6.62
C004  1  0.12958  0.36618  0.42421 11.00000  0.07154   6.41
C005  1  0.20299  0.56319  0.37834 11.00000  0.07129   6.41
C006  1  0.26582  0.55227  0.56032 11.00000  0.07284   6.03
C007  1  0.27234  0.35805  0.10606 11.00000  0.07343   5.95
C008  1  0.14905  0.38105  0.23059 11.00000  0.07169   5.94
C009  1  0.29994  0.76659  0.42746 11.00000  0.07899   5.94
C00A  1  0.47486  0.71322  0.10061 11.00000  0.08771   5.79
C00B  1 -0.04121  0.32534  0.08334 11.00000  0.07520   5.69
C00C  1  0.68815  0.57001  0.25765 11.00000  0.06946   5.68
C00D  1  0.12074  0.44439  0.13825 11.00000  0.06491   5.68
C00E  1  0.74748  0.78886  0.21690 11.00000  0.08962   5.63
C00F  1  0.63448  0.85478  0.13738 11.00000  0.08169   5.61
C00G  1  0.16177  0.58019  0.28435 11.00000  0.06392   5.60
C00H  1  0.44626  0.49972  0.14016 11.00000  0.07225   5.18
C00I  1  0.34394  0.74765  0.51656 11.00000  0.07277   5.17
HKLF 4
END
