TITL 1_expF_1_3_expS_0_6_1_a.res in P2(1)
REM Old TITL 1 in P2
REM SHELXT solution in P2(1): R1 0.241, Rweak 0.054, Alpha 0.017
REM <I/s>   7.373 for    3 systematic absences,  Orientation as input
REM Formula found by SHELXT:  C16 N O

CELL  0.71073   8.0000   5.0200  16.0200   90.000  103.140   90.000
ZERR   12.000   0.0016   0.0010   0.0032    0.000    0.030    0.000
LATT -1
SYMM -X, 1/2+Y, -Z
SFAC C N O
UNIT 12 12 12
L.S. 10
BOND
LIST 6
FMAP 2
PLAN 20
O001  3  0.85481  0.14824  0.74612 11.00000  0.08554   6.99
N002  2  0.45386  0.41764  0.77895 11.00000  0.06740   6.74
C003  1  0.84211  0.36426  0.48684 11.00000  0.06130   6.44
C004  1  0.79554  0.56720  0.62103 11.00000  0.05341   6.42
C005  1  0.86687  0.37094  0.57857 11.00000  0.05725   6.18
C006  1  0.69412  0.75332  0.57445 11.00000  0.06532   6.08
C007  1  0.73186  0.55036  0.44198 11.00000  0.06194   6.05
C008  1  0.85485  0.38076  0.76913 11.00000  0.06105   5.97
C009  1  0.83476  0.57970  0.71126 11.00000  0.04680   5.87
C00A  1  1.04489  0.33593  0.91383 11.00000  0.05923   5.78
C00B  1  0.72413  0.35580  0.89496 11.00000  0.05825   5.75
C00C  1  0.88393  0.44635  0.86220 11.00000  0.05533   5.66
C00D  1  0.26083  0.78147  0.78608 11.00000  0.06537   5.65
C00E  1  0.37102  0.85176  0.86686 11.00000  0.07064   5.64
C00F  1  0.51798  0.71978  0.90198 11.00000  0.06564   5.55
C00G  1  0.65357  0.74250  0.48028 11.00000  0.06164   5.51
C00H  1  0.31400  0.57052  0.74185 11.00000  0.06436   5.47
C00I  1  0.55937  0.49950  0.85911 11.00000  0.06198   5.36
HKLF 4
END
