TITL 1_expF_0_8_expS_1_1_1_a.res in P2(1)
REM Old TITL 1 in P2
REM SHELXT solution in P2(1): R1 0.219, Rweak 0.232, Alpha 0.172
REM <I/s>   2.841 for    3 systematic absences,  Orientation as input
REM Formula found by SHELXT:  C15 N2 O

CELL  0.71073   8.0000   5.0200  16.0200   90.000  103.140   90.000
ZERR   12.000   0.0016   0.0010   0.0032    0.000    0.030    0.000
LATT -1
SYMM -X, 1/2+Y, -Z
SFAC C N O
UNIT 12 12 12
L.S. 10
BOND
LIST 6
FMAP 2
PLAN 20
O001  3  0.85204  0.15140  0.74738 11.00000  0.03534   7.37
N002  2  0.83647  0.36545  0.48904 11.00000  0.03892   7.02
N003  2  0.65376  0.74109  0.48131 11.00000  0.03884   6.62
C004  1  0.79951  0.56104  0.62186 11.00000  0.02766   6.43
C005  1  0.69799  0.75786  0.57285 11.00000  0.02456   6.09
C006  1  0.46224  0.42444  0.77746 11.00000  0.02897   5.97
C007  1  0.26764  0.77974  0.78462 11.00000  0.03919   5.79
C008  1  1.05138  0.34246  0.91303 11.00000  0.03392   5.75
C009  1  0.87011  0.36711  0.57984 11.00000  0.02825   5.75
C00A  1  0.88022  0.44674  0.86090 11.00000  0.02157   5.75
C00B  1  0.83527  0.58512  0.71194 11.00000  0.01849   5.69
C00C  1  0.72694  0.53804  0.44072 11.00000  0.03132   5.46
C00D  1  0.85846  0.37989  0.76780 11.00000  0.02794   5.41
C00E  1  0.51337  0.70692  0.90478 11.00000  0.03486   5.31
C00F  1  0.72797  0.35133  0.89503 11.00000  0.02360   5.29
C00G  1  0.31719  0.57076  0.74183 11.00000  0.03669   4.95
C00H  1  0.37196  0.84860  0.86601 11.00000  0.04413   4.60
C00I  1  0.55460  0.49455  0.85805 11.00000  0.02691   3.75
HKLF 4
END
