TITL 1_expF_0_5_expS_1_0_1_a.res in Pm
REM Old TITL 1 in P2
REM SHELXT solution in Pm: R1 0.419, Rweak 0.866, Alpha 0.158
REM <I/s>   0.000 for    0 systematic absences,  Orientation as input
REM Formula found by SHELXT:  C4 N3 O2

CELL  0.71073   8.0000   5.0200  16.0200   90.000  103.140   90.000
ZERR   12.000   0.0016   0.0010   0.0032    0.000    0.030    0.000
LATT -1
SYMM X, -Y, Z
SFAC C N O
UNIT 12 12 12
L.S. 10
BOND
LIST 6
FMAP 2
PLAN 20
O001  3  0.52510  0.50000  0.48814 10.50000  0.00010  10.08
O002  3  0.57052  0.50000  0.77999 10.50000  0.13654   7.92
C003  1  0.54303  0.50000  0.56698 10.50000  0.00020   5.43
N004  2  0.19192  0.00000  0.79464 10.50000  0.09706   3.91
C005  1  0.60648  0.50000  0.34419 10.50000  0.16242   3.82
N006  2  0.98036  0.50000  0.55772 10.50000  0.00010   3.58
C007  1  0.51252  0.33148  0.21407 11.00000  0.13619   3.07
N008  2  0.01964  0.00000  0.20536 10.50000  0.05423   3.03
HKLF 4
END
