TITL 1_expF_1_1_expS_1_5_1_a.res in P2(1)
REM Old TITL 1 in P2
REM SHELXT solution in P2(1): R1 0.239, Rweak 0.089, Alpha 0.013
REM <I/s>   4.355 for    3 systematic absences,  Orientation as input
REM Formula found by SHELXT:  C17 O

CELL  0.71073   8.0000   5.0200  16.0200   90.000  103.140   90.000
ZERR   12.000   0.0016   0.0010   0.0032    0.000    0.030    0.000
LATT -1
SYMM -X, 1/2+Y, -Z
SFAC C N O
UNIT 12 12 12
L.S. 10
BOND
LIST 6
FMAP 2
PLAN 20
O001  3  0.85410  0.85312  0.74747 11.00000  0.05669   7.20
C002  1  0.45773  0.57676  0.77795 11.00000  0.04677   6.46
C003  1  0.80051  0.43780  0.62165 11.00000  0.04494   6.45
C004  1  0.72636  0.45705  0.44166 11.00000  0.04868   6.32
C005  1  0.69560  0.24382  0.57358 11.00000  0.04334   6.22
C006  1  0.83746  0.64071  0.48891 11.00000  0.04731   6.22
C007  1  0.87042  0.62967  0.57969 11.00000  0.04166   6.17
C008  1  0.83360  0.41809  0.71252 11.00000  0.03547   6.09
C009  1  0.85040  0.62194  0.76810 11.00000  0.04526   6.04
C00A  1  0.88155  0.55609  0.86101 11.00000  0.03758   5.84
C00B  1  1.04593  0.66738  0.91286 11.00000  0.05110   5.79
C00C  1  0.26830  0.21815  0.78527 11.00000  0.05210   5.61
C00D  1  0.72534  0.64886  0.89390 11.00000  0.03997   5.59
C00E  1  0.65456  0.26050  0.48143 11.00000  0.04600   5.52
C00F  1  0.31780  0.42838  0.74107 11.00000  0.04771   5.48
C00G  1  0.36702  0.14688  0.86558 11.00000  0.05790   5.44
C00H  1  0.55512  0.50574  0.85724 11.00000  0.04256   5.28
C00I  1  0.51868  0.28672  0.90259 11.00000  0.05478   4.93
HKLF 4
END
