TITL 1_expF_1_1_expS_1_1_1_a.res in P2(1)
REM Old TITL 1 in P2
REM SHELXT solution in P2(1): R1 0.223, Rweak 0.087, Alpha 0.013
REM <I/s>   4.485 for    3 systematic absences,  Orientation as input
REM Formula found by SHELXT:  C17 O

CELL  0.71073   8.0000   5.0200  16.0200   90.000  103.140   90.000
ZERR   12.000   0.0016   0.0010   0.0032    0.000    0.030    0.000
LATT -1
SYMM -X, 1/2+Y, -Z
SFAC C N O
UNIT 12 12 12
L.S. 10
BOND
LIST 6
FMAP 2
PLAN 20
O001  3  0.85275  0.85218  0.74719 11.00000  0.06061   7.20
C002  1  0.45727  0.57794  0.77788 11.00000  0.04694   6.46
C003  1  0.79809  0.43760  0.62128 11.00000  0.04456   6.45
C004  1  0.72759  0.45426  0.44124 11.00000  0.04897   6.32
C005  1  0.69535  0.24264  0.57401 11.00000  0.04630   6.22
C006  1  0.83936  0.63652  0.48777 11.00000  0.04861   6.22
C007  1  0.86899  0.63124  0.57891 11.00000  0.04392   6.17
C008  1  0.83433  0.41896  0.71178 11.00000  0.03474   6.09
C009  1  0.85083  0.62131  0.76880 11.00000  0.04702   6.04
C00A  1  0.88090  0.55365  0.86116 11.00000  0.03801   5.84
C00B  1  1.04535  0.66797  0.91413 11.00000  0.04996   5.79
C00C  1  0.26716  0.21679  0.78611 11.00000  0.05361   5.61
C00D  1  0.72555  0.64895  0.89438 11.00000  0.04316   5.59
C00E  1  0.65478  0.25808  0.48101 11.00000  0.04795   5.52
C00F  1  0.31498  0.42775  0.74097 11.00000  0.05105   5.48
C00G  1  0.36677  0.14782  0.86577 11.00000  0.05982   5.44
C00H  1  0.55643  0.50396  0.85811 11.00000  0.04371   5.28
C00I  1  0.51893  0.28266  0.90197 11.00000  0.05288   4.93
HKLF 4
END
