TITL 1_expF_1_3_expS_1_4_1_a.res in P2(1)
REM Old TITL 1 in P2
REM SHELXT solution in P2(1): R1 0.276, Rweak 0.048, Alpha 0.007
REM <I/s>   5.923 for    3 systematic absences,  Orientation as input
REM Formula found by SHELXT:  C16 N O

CELL  0.71073   8.0000   5.0200  16.0200   90.000  103.140   90.000
ZERR   12.000   0.0016   0.0010   0.0032    0.000    0.030    0.000
LATT -1
SYMM -X, 1/2+Y, -Z
SFAC C N O
UNIT 12 12 12
L.S. 10
BOND
LIST 6
FMAP 2
PLAN 20
O001  3  0.85673  0.85455  0.74874 11.00000  0.07347   6.99
N002  2  0.45886  0.57730  0.77805 11.00000  0.06432   6.70
C003  1  0.79894  0.43519  0.62167 11.00000  0.05090   6.48
C004  1  0.84297  0.64061  0.48797 11.00000  0.05691   6.45
C005  1  0.87339  0.62957  0.57827 11.00000  0.05471   6.28
C006  1  0.69563  0.24088  0.57266 11.00000  0.05783   6.15
C007  1  0.73076  0.45166  0.44131 11.00000  0.05730   6.10
C008  1  0.85077  0.62276  0.76843 11.00000  0.05704   5.98
C009  1  0.72550  0.64529  0.89291 11.00000  0.05203   5.89
C00A  1  0.83387  0.42018  0.71346 11.00000  0.04200   5.86
C00B  1  1.04157  0.67508  0.91324 11.00000  0.05711   5.83
C00C  1  0.88320  0.55321  0.86196 11.00000  0.04746   5.82
C00D  1  0.26555  0.21725  0.78549 11.00000  0.06182   5.67
C00E  1  0.36960  0.14545  0.86547 11.00000  0.06844   5.58
C00F  1  0.65554  0.25962  0.48180 11.00000  0.05451   5.57
C00G  1  0.31543  0.42820  0.74159 11.00000  0.05474   5.49
C00H  1  0.52116  0.28342  0.90227 11.00000  0.06498   5.44
C00I  1  0.55666  0.50307  0.85788 11.00000  0.05608   5.24
HKLF 4
END
