TITL 1_expF_1_3_expS_0_5_1_a.res in P2(1)
REM Old TITL 1 in P2
REM SHELXT solution in P2(1): R1 0.240, Rweak 0.051, Alpha 0.005
REM <I/s>   7.723 for    3 systematic absences,  Orientation as input
REM Formula found by SHELXT:  C15 N2 O

CELL  0.71073   8.0000   5.0200  16.0200   90.000  103.140   90.000
ZERR   12.000   0.0016   0.0010   0.0032    0.000    0.030    0.000
LATT -1
SYMM -X, 1/2+Y, -Z
SFAC C N O
UNIT 12 12 12
L.S. 10
BOND
LIST 6
FMAP 2
PLAN 20
O001  3  0.14456  0.85212  0.25435 11.00000  0.08361   6.97
N002  2  0.54532  0.58212  0.22062 11.00000  0.06657   6.68
N003  2  0.20510  0.43286  0.37913 11.00000  0.06623   6.54
C004  1  0.15849  0.63428  0.51286 11.00000  0.06117   6.42
C005  1  0.13287  0.62833  0.42093 11.00000  0.05660   6.25
C006  1  0.26893  0.44853  0.55750 11.00000  0.06133   6.17
C007  1  0.16551  0.42115  0.28878 11.00000  0.04586   5.94
C008  1  0.14277  0.61859  0.23143 11.00000  0.06045   5.87
C009  1  0.30412  0.24658  0.42507 11.00000  0.06309   5.85
C00A  1 -0.04426  0.66394  0.08719 11.00000  0.05949   5.84
C00B  1  0.27577  0.64427  0.10521 11.00000  0.05825   5.74
C00C  1  0.11507  0.55322  0.13715 11.00000  0.05510   5.74
C00D  1  0.48409  0.28057  0.09775 11.00000  0.06479   5.61
C00E  1  0.73987  0.21883  0.21384 11.00000  0.06587   5.60
C00F  1  0.68694  0.42949  0.25834 11.00000  0.06599   5.58
C00G  1  0.62936  0.14788  0.13326 11.00000  0.07023   5.50
C00H  1  0.34602  0.25756  0.51968 11.00000  0.06137   5.46
C00I  1  0.44030  0.50212  0.14101 11.00000  0.06239   5.31
HKLF 4
END
