TITL 1_expF_1_0_expS_1_4_1_a.res in P2(1)
REM Old TITL 1 in P2
REM SHELXT solution in P2(1): R1 0.221, Rweak 0.129, Alpha 0.021
REM <I/s>   3.788 for    3 systematic absences,  Orientation as input
REM Formula found by SHELXT:  C16 N O

CELL  0.71073   8.0000   5.0200  16.0200   90.000  103.140   90.000
ZERR   12.000   0.0016   0.0010   0.0032    0.000    0.030    0.000
LATT -1
SYMM -X, 1/2+Y, -Z
SFAC C N O
UNIT 12 12 12
L.S. 10
BOND
LIST 6
FMAP 2
PLAN 20
O001  3  0.14684  0.85096  0.25353 11.00000  0.04932   6.96
N002  2  0.19973  0.44072  0.37859 11.00000  0.04890   6.51
C003  1  0.16578  0.41583  0.28808 11.00000  0.03019   6.49
C004  1  0.54215  0.57585  0.22119 11.00000  0.03981   6.43
C005  1  0.27355  0.45819  0.55908 11.00000  0.04319   6.19
C006  1  0.16491  0.63676  0.51075 11.00000  0.03975   6.17
C007  1  0.13057  0.63061  0.42051 11.00000  0.03764   6.08
C008  1  0.14699  0.62198  0.23208 11.00000  0.03754   5.95
C009  1  0.30246  0.24308  0.42660 11.00000  0.03606   5.93
C00A  1  0.11908  0.55423  0.13865 11.00000  0.03304   5.68
C00B  1 -0.04794  0.66142  0.08722 11.00000  0.04587   5.67
C00C  1  0.34603  0.25976  0.51850 11.00000  0.03959   5.65
C00D  1  0.73338  0.21784  0.21416 11.00000  0.04832   5.46
C00E  1  0.27199  0.64790  0.10519 11.00000  0.03525   5.46
C00F  1  0.68307  0.42879  0.25804 11.00000  0.04319   5.41
C00G  1  0.62958  0.14904  0.13386 11.00000  0.05324   5.14
C00H  1  0.44312  0.50417  0.14170 11.00000  0.03691   5.05
C00I  1  0.48236  0.28763  0.09721 11.00000  0.04979   4.97
HKLF 4
END
