TITL 1_expF_0_7_expS_1_2_1_a.res in P2(1)
REM Old TITL 1 in P2
REM SHELXT solution in P2(1): R1 0.238, Rweak 0.324, Alpha 0.273
REM <I/s>   2.472 for    3 systematic absences,  Orientation as input
REM Formula found by SHELXT:  C11 N4 O3

CELL  0.71073   8.0000   5.0200  16.0200   90.000  103.140   90.000
ZERR   12.000   0.0016   0.0010   0.0032    0.000    0.030    0.000
LATT -1
SYMM -X, 1/2+Y, -Z
SFAC C N O
UNIT 12 12 12
L.S. 10
BOND
LIST 6
FMAP 2
PLAN 20
O001  3  0.83206  0.63894  0.48973 11.00000  0.03767   7.96
C002  1  0.85992  0.62098  0.76773 11.00000  0.01797   7.75
O003  3  0.85225  0.84689  0.74809 11.00000  0.02488   7.55
O004  3  0.87081  0.64015  0.58140 11.00000  0.03247   7.53
N005  2  0.46505  0.57535  0.77799 11.00000  0.02354   7.15
C006  1  0.80124  0.44434  0.62255 11.00000  0.01955   7.12
N007  2  0.51255  0.30256  0.90609 11.00000  0.03301   7.03
N008  2  0.65364  0.26138  0.48011 11.00000  0.03005   6.71
N009  2  0.83527  0.41737  0.71211 11.00000  0.01598   6.56
C00A  1  0.69845  0.24947  0.57295 11.00000  0.01470   6.01
C00B  1  0.72862  0.65154  0.89543 11.00000  0.01477   5.91
C00C  1  0.26733  0.22298  0.78450 11.00000  0.03027   5.72
C00D  1  0.31956  0.43185  0.74095 11.00000  0.02749   5.38
C00E  1  0.55490  0.51174  0.85767 11.00000  0.01782   5.36
C00F  1  0.72464  0.47118  0.44026 11.00000  0.02209   4.89
C00G  1  1.05258  0.65161  0.91227 11.00000  0.02403   4.89
C00H  1  0.87937  0.55682  0.86092 11.00000  0.01350   4.70
C00I  1  0.37401  0.15311  0.86683 11.00000  0.03331   4.25
HKLF 4
END
