TITL 1_expF_1_2_expS_1_5_1_a.res in P2(1)
REM Old TITL 1 in P2
REM SHELXT solution in P2(1): R1 0.259, Rweak 0.067, Alpha 0.006
REM <I/s>   5.040 for    3 systematic absences,  Orientation as input
REM Formula found by SHELXT:  C16 N O

CELL  0.71073   8.0000   5.0200  16.0200   90.000  103.140   90.000
ZERR   12.000   0.0016   0.0010   0.0032    0.000    0.030    0.000
LATT -1
SYMM -X, 1/2+Y, -Z
SFAC C N O
UNIT 12 12 12
L.S. 10
BOND
LIST 6
FMAP 2
PLAN 20
O001  3  0.14647  0.14698  0.25169 11.00000  0.06357   7.17
N002  2  0.54321  0.42560  0.22219 11.00000  0.05965   6.76
C003  1  0.20182  0.56223  0.37872 11.00000  0.04689   6.47
C004  1  0.16056  0.35846  0.51138 11.00000  0.05027   6.38
C005  1  0.12733  0.37143  0.42077 11.00000  0.04753   6.26
C006  1  0.30546  0.75727  0.42709 11.00000  0.04982   6.26
C007  1  0.27136  0.54721  0.55865 11.00000  0.05341   6.16
C008  1  0.14767  0.37758  0.23254 11.00000  0.05157   6.05
C009  1  0.16531  0.58297  0.28679 11.00000  0.03757   5.99
C00A  1 -0.04458  0.32521  0.08729 11.00000  0.05260   5.90
C00B  1  0.11676  0.44686  0.13894 11.00000  0.03937   5.83
C00C  1  0.27280  0.35264  0.10650 11.00000  0.04561   5.67
C00D  1  0.34462  0.73771  0.51919 11.00000  0.04984   5.59
C00E  1  0.73041  0.78187  0.21496 11.00000  0.05537   5.56
C00F  1  0.63255  0.85302  0.13405 11.00000  0.06216   5.55
C00G  1  0.48158  0.71609  0.09805 11.00000  0.05831   5.48
C00H  1  0.68293  0.57218  0.25867 11.00000  0.05012   5.44
C00I  1  0.44437  0.49585  0.14248 11.00000  0.04990   5.40
HKLF 4
END
