TITL 1_expF_0_7_expS_0_8_1_a.res in P2(1)
REM Old TITL 1 in P2
REM SHELXT solution in P2(1): R1 0.226, Rweak 0.314, Alpha 0.094
REM <I/s>   2.524 for    3 systematic absences,  Orientation as input
REM Formula found by SHELXT:  C14 N3 O

CELL  0.71073   8.0000   5.0200  16.0200   90.000  103.140   90.000
ZERR   12.000   0.0016   0.0010   0.0032    0.000    0.030    0.000
LATT -1
SYMM -X, 1/2+Y, -Z
SFAC C N O
UNIT 12 12 12
L.S. 10
BOND
LIST 6
FMAP 2
PLAN 20
O001  3  0.14895  0.15051  0.25216 11.00000  0.02369   8.09
C002  1  0.20230  0.56066  0.37795 11.00000  0.01787   6.69
N003  2  0.34339  0.74196  0.51842 11.00000  0.03322   6.67
N004  2  0.27224  0.53785  0.55876 11.00000  0.02912   6.57
N005  2  0.16407  0.58544  0.28826 11.00000  0.01574   6.56
C006  1  0.30317  0.75962  0.42672 11.00000  0.01670   6.42
C007  1  0.14025  0.38181  0.23126 11.00000  0.01930   6.21
C008  1  0.53836  0.42294  0.22347 11.00000  0.01978   6.01
C009  1 -0.05070  0.34063  0.08685 11.00000  0.02591   5.99
C00A  1  0.16499  0.36624  0.51117 11.00000  0.02555   5.83
C00B  1  0.11991  0.44799  0.13950 11.00000  0.01252   5.71
C00C  1  0.13048  0.36593  0.41987 11.00000  0.01869   5.28
C00D  1  0.27117  0.35249  0.10449 11.00000  0.01499   5.20
C00E  1  0.73385  0.78370  0.21535 11.00000  0.02888   5.03
C00F  1  0.68174  0.57284  0.25958 11.00000  0.02838   5.02
C00G  1  0.62663  0.84949  0.13323 11.00000  0.03376   4.97
C00H  1  0.44620  0.49509  0.14269 11.00000  0.01607   4.63
C00I  1  0.48564  0.71132  0.09399 11.00000  0.02662   4.01
HKLF 4
END
