TITL 1_expF_1_2_expS_1_2_1_a.res in P2(1)
REM Old TITL 1 in P2
REM SHELXT solution in P2(1): R1 0.236, Rweak 0.066, Alpha 0.015
REM <I/s>   5.194 for    3 systematic absences,  Orientation as input
REM Formula found by SHELXT:  C15 N2 O

CELL  0.71073   8.0000   5.0200  16.0200   90.000  103.140   90.000
ZERR   12.000   0.0016   0.0010   0.0032    0.000    0.030    0.000
LATT -1
SYMM -X, 1/2+Y, -Z
SFAC C N O
UNIT 12 12 12
L.S. 10
BOND
LIST 6
FMAP 2
PLAN 20
O001  3  0.14662  0.85238  0.25218 11.00000  0.06745   7.26
N002  2  0.54293  0.57812  0.22170 11.00000  0.06061   6.84
N003  2  0.15777  0.63805  0.51312 11.00000  0.06217   6.50
C004  1  0.20115  0.43707  0.37876 11.00000  0.04861   6.42
C005  1  0.30332  0.24430  0.42746 11.00000  0.05396   6.31
C006  1  0.12816  0.62854  0.42166 11.00000  0.05050   6.24
C007  1  0.14592  0.62125  0.23148 11.00000  0.05303   5.97
C008  1 -0.04487  0.66943  0.08587 11.00000  0.05353   5.91
C009  1  0.27044  0.45301  0.55920 11.00000  0.05402   5.91
C00A  1  0.16461  0.41792  0.28703 11.00000  0.03978   5.86
C00B  1  0.11766  0.55362  0.13875 11.00000  0.04286   5.83
C00C  1  0.27197  0.64763  0.10557 11.00000  0.04880   5.76
C00D  1  0.73280  0.21875  0.21439 11.00000  0.06053   5.73
C00E  1  0.34663  0.26114  0.51904 11.00000  0.05182   5.65
C00F  1  0.44307  0.50218  0.14165 11.00000  0.05122   5.50
C00G  1  0.47980  0.28360  0.09828 11.00000  0.05842   5.48
C00H  1  0.63186  0.14762  0.13487 11.00000  0.06594   5.45
C00I  1  0.68520  0.42548  0.25846 11.00000  0.05302   5.30
HKLF 4
END
