TITL 1_expF_1_1_expS_0_9_1_a.res in P2(1)
REM Old TITL 1 in P2
REM SHELXT solution in P2(1): R1 0.217, Rweak 0.087, Alpha 0.011
REM <I/s>   4.669 for    3 systematic absences,  Orientation as input
REM Formula found by SHELXT:  C16 N O

CELL  0.71073   8.0000   5.0200  16.0200   90.000  103.140   90.000
ZERR   12.000   0.0016   0.0010   0.0032    0.000    0.030    0.000
LATT -1
SYMM -X, 1/2+Y, -Z
SFAC C N O
UNIT 12 12 12
L.S. 10
BOND
LIST 6
FMAP 2
PLAN 20
O001  3  0.14693  0.85234  0.25361 11.00000  0.06263   7.04
N002  2  0.20249  0.43931  0.37869 11.00000  0.05632   6.59
C003  1  0.54448  0.57952  0.22179 11.00000  0.04704   6.47
C004  1  0.27281  0.45376  0.55884 11.00000  0.04886   6.25
C005  1  0.16544  0.42022  0.28881 11.00000  0.03417   6.20
C006  1  0.16123  0.63532  0.51277 11.00000  0.04883   6.15
C007  1  0.13239  0.63173  0.42130 11.00000  0.04506   6.11
C008  1  0.30442  0.24254  0.42597 11.00000  0.04647   6.08
C009  1  0.14754  0.62241  0.23131 11.00000  0.04797   5.91
C00A  1  0.11909  0.55389  0.13838 11.00000  0.03850   5.89
C00B  1 -0.04505  0.66732  0.08591 11.00000  0.05053   5.81
C00C  1  0.27469  0.64803  0.10544 11.00000  0.04462   5.66
C00D  1  0.34527  0.25751  0.51930 11.00000  0.04837   5.65
C00E  1  0.68630  0.42834  0.25858 11.00000  0.05325   5.53
C00F  1  0.73394  0.21796  0.21354 11.00000  0.05405   5.51
C00G  1  0.63274  0.14766  0.13423 11.00000  0.05868   5.50
C00H  1  0.48102  0.28096  0.09806 11.00000  0.05352   5.03
C00I  1  0.44145  0.50436  0.14179 11.00000  0.04449   4.99
HKLF 4
END
