TITL 1_expF_1_1_expS_1_3_1_a.res in P2(1)
REM Old TITL 1 in P2
REM SHELXT solution in P2(1): R1 0.231, Rweak 0.090, Alpha 0.013
REM <I/s>   4.379 for    3 systematic absences,  Orientation as input
REM Formula found by SHELXT:  C17 O

CELL  0.71073   8.0000   5.0200  16.0200   90.000  103.140   90.000
ZERR   12.000   0.0016   0.0010   0.0032    0.000    0.030    0.000
LATT -1
SYMM -X, 1/2+Y, -Z
SFAC C N O
UNIT 12 12 12
L.S. 10
BOND
LIST 6
FMAP 2
PLAN 20
O001  3  0.85327  0.85252  0.74733 11.00000  0.05830   7.20
C002  1  0.45789  0.57705  0.77783 11.00000  0.04671   6.46
C003  1  0.79912  0.43751  0.62144 11.00000  0.04462   6.45
C004  1  0.72696  0.45539  0.44140 11.00000  0.04874   6.32
C005  1  0.69544  0.24291  0.57382 11.00000  0.04475   6.22
C006  1  0.83888  0.63802  0.48836 11.00000  0.04807   6.22
C007  1  0.86981  0.63039  0.57926 11.00000  0.04277   6.17
C008  1  0.83395  0.41831  0.71211 11.00000  0.03487   6.09
C009  1  0.85034  0.62140  0.76845 11.00000  0.04597   6.04
C00A  1  0.88121  0.55421  0.86106 11.00000  0.03755   5.84
C00B  1  1.04544  0.66806  0.91355 11.00000  0.05032   5.79
C00C  1  0.26789  0.21731  0.78569 11.00000  0.05271   5.61
C00D  1  0.72570  0.64896  0.89411 11.00000  0.04159   5.59
C00E  1  0.65463  0.25920  0.48124 11.00000  0.04678   5.52
C00F  1  0.31631  0.42796  0.74100 11.00000  0.04945   5.48
C00G  1  0.36686  0.14748  0.86577 11.00000  0.05941   5.44
C00H  1  0.55569  0.50460  0.85769 11.00000  0.04292   5.28
C00I  1  0.51904  0.28407  0.90226 11.00000  0.05347   4.93
HKLF 4
END
