TITL 1_expF_0_5_expS_1_2_1_a.res in Pm
REM Old TITL 1 in P2
REM SHELXT solution in Pm: R1 0.200, Rweak 0.592, Alpha 0.168
REM <I/s>   0.000 for    0 systematic absences,  Orientation as input
REM Formula found by SHELXT:  C15 N12 O6 I

CELL  0.71073   8.0000   5.0200  16.0200   90.000  103.140   90.000
ZERR   12.000   0.0016   0.0010   0.0032    0.000    0.030    0.000
LATT -1
SYMM X, -Y, Z
SFAC C N O I
UNIT 12 12 12 0
L.S. 10
BOND
LIST 6
FMAP 2
PLAN 20
I001  4  0.18407  0.50000  0.33831 10.50000  0.00666  46.29
I002  4  1.14709  0.50000  1.05371 10.50000  0.46803  34.22
N003  2  0.14199  0.50000  0.24915 10.50000  0.00469  23.61
O004  3  0.09842  0.50000  0.47431 10.50000  0.10459  16.62
O005  3  0.63084  0.00000  0.61261 10.50000  0.11600  15.25
O006  3  0.78189  0.50000  0.26054 10.50000  0.05576  14.72
N007  2  0.49345  0.00000 -0.00642 10.50000  0.07377  14.46
N008  2  0.03527  0.00000  0.60666 10.50000  0.07284  12.77
N009  2 -0.14709  0.00000  0.03138 10.50000  0.09979  11.88
N00A  2  0.45211  0.32641  0.86895 11.00000  0.06732  11.76
O00B  3  0.44360  0.00000  0.08372 10.50000  0.06578  11.66
O00C  3  0.51827  0.00000  0.27918 10.50000  0.05294  11.58
N00D  2  0.15810  0.30902  0.59937 11.00000  0.15731  11.22
O00E  3  0.22074  0.50000  0.70140 10.50000  0.19798  10.90
N00F  2  0.30462  0.00000  0.78125 10.50000  0.05219  10.72
N00G  2  0.14264  0.21358  0.22911 11.00000  0.03775  10.70
N00H  2 -0.01578 -0.11791  0.05068 11.00000  0.06438  10.66
O00I  3  0.72548  0.00000  0.17088 10.50000  0.07866  10.49
O00J  3  0.74039  0.68118  0.87244 11.00000  0.14618   8.91
O00K  3  0.58546  0.50000  0.65987 10.50000  0.06984   8.47
O00L  3  0.21660  0.08324  0.38060 11.00000  0.04886   8.20
N00M  2  0.11278  0.00000  0.17936 10.50000  0.09263   8.06
N00N  2  0.29961  0.33617  0.47969 11.00000  0.03364   7.64
C00O  1  0.05912 -0.13230  0.12142 11.00000  0.08751   7.44
N00P  2  0.19448  0.05022  0.68419 11.00000  0.16069   7.35
N00Q  2  0.49976  0.00000  0.50699 10.50000  0.11248   7.28
N00R  2  0.82875  0.00000  0.76464 10.50000  0.06191   7.26
N00S  2  0.57116  0.00000  0.68702 10.50000  0.03298   6.77
N00T  2  0.33973  0.00000  0.57919 10.50000  0.04164   6.76
C00U  1  0.13027  0.00000  0.45867 10.50000  0.04555   6.65
C00V  1  0.59739  0.00000  0.02671 10.50000  0.05000   6.47
C00W  1  0.69640  0.15717  0.68442 11.00000  0.08856   6.42
C00X  1  0.85028  0.25622  0.24177 11.00000  0.06776   6.00
C00Y  1  0.61162  0.50000  0.71902 10.50000  0.11359   5.80
C00Z  1  0.10315  0.26247  0.62302 11.00000  0.15031   5.72
C010  1  0.32315  0.00000  0.13192 10.50000  0.05275   5.69
C011  1  0.14491  0.00000  0.23086 10.50000  0.12078   5.67
C012  1  0.50283 -0.16081  0.38549 11.00000  0.06280   5.62
C013  1 -0.11278 -0.14240  0.42559 11.00000  0.08404   5.60
N014  2  0.31786  0.20449  0.84315 11.00000  0.05619   5.56
C015  1  0.25582  0.00000  0.68193 10.50000  0.08407   5.49
C016  1  0.90824  0.50000  0.98181 10.50000  0.08613   5.45
C017  1  0.15104  0.28963  0.29720 11.00000  0.06156   5.27
C018  1  0.83228  0.00000  0.82869 11.00000  0.10262   5.19
C019  1  0.26696  0.50000  0.49083 10.50000  0.02857   4.89
C01A  1  0.08712  0.17525  0.56656 11.00000  0.07924   4.88
C01B  1  0.56604  0.00000 -0.05371 10.50000  0.19262   4.84
C01C  1  0.21720  0.14786  0.74231 11.00000  0.13888   4.82
C01D  1  0.53801  0.50000  0.82359 10.50000  0.06436   4.82
HKLF 4
END
