TITL 1_expF_1_1_expS_0_7_1_a.res in P2(1)
REM Old TITL 1 in P2
REM SHELXT solution in P2(1): R1 0.216, Rweak 0.088, Alpha 0.013
REM <I/s>   4.929 for    3 systematic absences,  Orientation as input
REM Formula found by SHELXT:  C17 O

CELL  0.71073   8.0000   5.0200  16.0200   90.000  103.140   90.000
ZERR   12.000   0.0016   0.0010   0.0032    0.000    0.030    0.000
LATT -1
SYMM -X, 1/2+Y, -Z
SFAC C N O
UNIT 12 12 12
L.S. 10
BOND
LIST 6
FMAP 2
PLAN 20
O001  3  0.85268  0.85095  0.74624 11.00000  0.06795   7.20
C002  1  0.45583  0.58020  0.77797 11.00000  0.04849   6.46
C003  1  0.79667  0.43822  0.62113 11.00000  0.04530   6.45
C004  1  0.72739  0.45376  0.44140 11.00000  0.05046   6.32
C005  1  0.69498  0.24380  0.57485 11.00000  0.05070   6.22
C006  1  0.83986  0.63630  0.48671 11.00000  0.05130   6.22
C007  1  0.86669  0.63215  0.57891 11.00000  0.04703   6.17
C008  1  0.83466  0.41968  0.71104 11.00000  0.03685   6.09
C009  1  0.85371  0.62157  0.76868 11.00000  0.04945   6.04
C00A  1  0.88112  0.55370  0.86118 11.00000  0.03989   5.84
C00B  1  1.04566  0.66734  0.91428 11.00000  0.05158   5.79
C00C  1  0.26533  0.21976  0.78653 11.00000  0.05650   5.61
C00D  1  0.72385  0.64924  0.89491 11.00000  0.04881   5.59
C00E  1  0.65537  0.25771  0.48017 11.00000  0.05234   5.52
C00F  1  0.31313  0.42814  0.74088 11.00000  0.05567   5.48
C00G  1  0.36780  0.14905  0.86565 11.00000  0.05959   5.44
C00H  1  0.55816  0.50451  0.85827 11.00000  0.04691   5.28
C00I  1  0.51775  0.28100  0.90169 11.00000  0.05543   4.93
HKLF 4
END
