TITL 1_expF_1_5_expS_1_1_1_a.res in P2(1)
REM Old TITL 1 in P2
REM SHELXT solution in P2(1): R1 0.311, Rweak 0.030, Alpha 0.006
REM <I/s>   8.713 for    3 systematic absences,  Orientation as input
REM Formula found by SHELXT:  C15 N2 O

CELL  0.71073   8.0000   5.0200  16.0200   90.000  103.140   90.000
ZERR   12.000   0.0016   0.0010   0.0032    0.000    0.030    0.000
LATT -1
SYMM -X, 1/2+Y, -Z
SFAC C N O
UNIT 12 12 12
L.S. 10
BOND
LIST 6
FMAP 2
PLAN 20
O001  3  0.85001  0.14488  0.75006 11.00000  0.09958   6.79
N002  2  0.45780  0.40941  0.77704 11.00000  0.08182   6.60
N003  2  0.85321  0.36272  0.48498 11.00000  0.08551   6.55
C004  1  0.79889  0.56302  0.62194 11.00000  0.06963   6.39
C005  1  0.87079  0.36561  0.57653 11.00000  0.07094   6.35
C006  1  0.69789  0.76413  0.57210 11.00000  0.08168   6.02
C007  1  0.73316  0.54939  0.44040 11.00000  0.07195   6.02
C008  1  0.72813  0.35509  0.89409 11.00000  0.07153   5.99
C009  1  0.84974  0.37721  0.76875 11.00000  0.07021   5.95
C00A  1  0.52893  0.71209  0.90019 11.00000  0.08995   5.79
C00B  1  0.87960  0.44262  0.86207 11.00000  0.06390   5.69
C00C  1  0.36507  0.85512  0.86201 11.00000  0.08358   5.69
C00D  1  0.31347  0.56933  0.74261 11.00000  0.06882   5.69
C00E  1  0.25481  0.78688  0.78435 11.00000  0.09106   5.68
C00F  1  1.03997  0.32076  0.91562 11.00000  0.07476   5.66
C00G  1  0.83625  0.57894  0.71560 11.00000  0.06248   5.60
C00H  1  0.65564  0.74505  0.48320 11.00000  0.07196   5.27
C00I  1  0.55373  0.49693  0.85959 11.00000  0.07298   5.23
HKLF 4
END
