TITL 1_expF_1_3_expS_0_7_1_a.res in P2(1)
REM Old TITL 1 in P2
REM SHELXT solution in P2(1): R1 0.241, Rweak 0.053, Alpha 0.007
REM <I/s>   7.034 for    3 systematic absences,  Orientation as input
REM Formula found by SHELXT:  C16 N O

CELL  0.71073   8.0000   5.0200  16.0200   90.000  103.140   90.000
ZERR   12.000   0.0016   0.0010   0.0032    0.000    0.030    0.000
LATT -1
SYMM -X, 1/2+Y, -Z
SFAC C N O
UNIT 12 12 12
L.S. 10
BOND
LIST 6
FMAP 2
PLAN 20
O001  3  0.14380  0.14781  0.25364 11.00000  0.08425   7.14
N002  2  0.54651  0.41965  0.22108 11.00000  0.06755   6.75
C003  1  0.15855  0.36442  0.51322 11.00000  0.06031   6.50
C004  1  0.20285  0.56754  0.37898 11.00000  0.05268   6.40
C005  1  0.13402  0.37161  0.42160 11.00000  0.05763   6.32
C006  1  0.30585  0.75544  0.42575 11.00000  0.06368   6.20
C007  1  0.26761  0.55061  0.55798 11.00000  0.06190   6.15
C008  1  0.14627  0.38183  0.23092 11.00000  0.06023   6.04
C009  1 -0.04547  0.33445  0.08583 11.00000  0.05847   5.86
C00A  1  0.27565  0.35762  0.10506 11.00000  0.05706   5.83
C00B  1  0.16495  0.58077  0.28835 11.00000  0.04597   5.82
C00C  1  0.11641  0.44728  0.13786 11.00000  0.05410   5.78
C00D  1  0.73920  0.78325  0.21412 11.00000  0.06391   5.61
C00E  1  0.63006  0.85219  0.13320 11.00000  0.07013   5.58
C00F  1  0.48188  0.71852  0.09821 11.00000  0.06434   5.53
C00G  1  0.34617  0.74253  0.51963 11.00000  0.05990   5.49
C00H  1  0.68557  0.57100  0.25811 11.00000  0.06292   5.48
C00I  1  0.44076  0.50193  0.14068 11.00000  0.06129   5.42
HKLF 4
END
