TITL 1_expF_1_4_expS_1_2_1_a.res in P2(1)
REM Old TITL 1 in P2
REM SHELXT solution in P2(1): R1 0.288, Rweak 0.038, Alpha 0.007
REM <I/s>   7.178 for    3 systematic absences,  Orientation as input
REM Formula found by SHELXT:  C15 N2 O

CELL  0.71073   8.0000   5.0200  16.0200   90.000  103.140   90.000
ZERR   12.000   0.0016   0.0010   0.0032    0.000    0.030    0.000
LATT -1
SYMM -X, 1/2+Y, -Z
SFAC C N O
UNIT 12 12 12
L.S. 10
BOND
LIST 6
FMAP 2
PLAN 20
O001  3  0.85436  0.85176  0.74917 11.00000  0.08729   6.92
N002  2  0.45733  0.58608  0.77828 11.00000  0.07094   6.70
N003  2  0.84713  0.63920  0.48701 11.00000  0.07721   6.51
C004  1  0.79955  0.43356  0.62186 11.00000  0.06064   6.36
C005  1  0.87138  0.63005  0.57722 11.00000  0.06492   6.33
C006  1  0.73287  0.45141  0.43998 11.00000  0.06449   6.07
C007  1  0.85058  0.62029  0.76865 11.00000  0.06408   5.96
C008  1  0.69821  0.24395  0.57178 11.00000  0.06852   5.94
C009  1  0.72868  0.64454  0.89391 11.00000  0.05980   5.80
C00A  1  1.04220  0.67577  0.91341 11.00000  0.06338   5.75
C00B  1  0.52335  0.28547  0.90115 11.00000  0.07200   5.75
C00C  1  0.83361  0.42329  0.71407 11.00000  0.05075   5.74
C00D  1  0.88135  0.56034  0.86141 11.00000  0.05576   5.66
C00E  1  0.36758  0.14824  0.86423 11.00000  0.07641   5.64
C00F  1  0.31319  0.42664  0.74211 11.00000  0.06066   5.53
C00G  1  0.26138  0.21764  0.78425 11.00000  0.07799   5.53
C00H  1  0.55488  0.50283  0.85845 11.00000  0.06347   5.30
C00I  1  0.65553  0.25780  0.48176 11.00000  0.06176   5.27
HKLF 4
END
