TITL 1_expF_1_5_expS_0_6_1_a.res in P2(1)
REM Old TITL 1 in P2
REM SHELXT solution in P2(1): R1 0.295, Rweak 0.036, Alpha 0.010
REM <I/s>  10.784 for    3 systematic absences,  Orientation as input
REM Formula found by SHELXT:  C15 N2 O

CELL  0.71073   8.0000   5.0200  16.0200   90.000  103.140   90.000
ZERR   12.000   0.0016   0.0010   0.0032    0.000    0.030    0.000
LATT -1
SYMM -X, 1/2+Y, -Z
SFAC C N O
UNIT 12 12 12
L.S. 10
BOND
LIST 6
FMAP 2
PLAN 20
O001  3  0.84372  0.85189  0.74989 11.00000  0.10525   7.05
N002  2  0.45504  0.59666  0.77739 11.00000  0.08710   6.79
N003  2  0.85251  0.64662  0.48411 11.00000  0.09230   6.73
C004  1  0.86874  0.63708  0.57570 11.00000  0.07345   6.43
C005  1  0.79388  0.45155  0.62121 11.00000  0.07448   6.30
C006  1  0.73404  0.44898  0.43921 11.00000  0.07528   6.15
C007  1  0.52724  0.29250  0.89995 11.00000  0.08716   5.92
C008  1  0.85245  0.62843  0.76934 11.00000  0.07550   5.89
C009  1  0.72780  0.65142  0.89414 11.00000  0.07540   5.84
C00A  1  0.70073  0.24402  0.57313 11.00000  0.07813   5.81
C00B  1  1.04348  0.68321  0.91727 11.00000  0.07623   5.70
C00C  1  0.36949  0.14811  0.86189 11.00000  0.08166   5.67
C00D  1  0.30986  0.43441  0.74208 11.00000  0.07465   5.66
C00E  1  0.87892  0.56551  0.86134 11.00000  0.06537   5.65
C00F  1  0.83879  0.42309  0.71512 11.00000  0.06583   5.59
C00G  1  0.25488  0.22379  0.78351 11.00000  0.09181   5.57
C00H  1  0.55416  0.50462  0.85927 11.00000  0.07385   5.41
C00I  1  0.65590  0.25692  0.48339 11.00000  0.07270   5.08
HKLF 4
END
