TITL 1_expF_1_5_expS_1_3_1_a.res in P2(1)
REM Old TITL 1 in P2
REM SHELXT solution in P2(1): R1 0.349, Rweak 0.030, Alpha 0.004
REM <I/s>   8.256 for    3 systematic absences,  Orientation as input
REM Formula found by SHELXT:  C16 N O2

CELL  0.71073   8.0000   5.0200  16.0200   90.000  103.140   90.000
ZERR   12.000   0.0016   0.0010   0.0032    0.000    0.030    0.000
LATT -1
SYMM -X, 1/2+Y, -Z
SFAC C N O
UNIT 12 12 12
L.S. 10
BOND
LIST 6
FMAP 2
PLAN 20
O001  3  0.15464  0.14523  0.24921 11.00000  0.08917   6.61
N002  2  0.20098  0.56685  0.37834 11.00000  0.07627   6.51
C003  1  0.14779  0.36731  0.51381 11.00000  0.06892   6.47
C004  1  0.46900  0.71291  0.09998 11.00000  0.08344   6.38
C005  1  0.53767  0.41468  0.22334 11.00000  0.06611   6.35
C006  1  0.13185  0.37296  0.42396 11.00000  0.06474   6.33
C007  1  0.27536  0.35540  0.10832 11.00000  0.06706   6.19
C008  1  0.26968  0.55352  0.56019 11.00000  0.06766   6.13
C009  1  0.63030  0.85477  0.13682 11.00000  0.07803   5.90
C00A  1  0.30538  0.76300  0.42653 11.00000  0.07008   5.83
C00B  1  0.15317  0.37487  0.23134 11.00000  0.06562   5.82
C00C  1  0.12103  0.44442  0.13716 11.00000  0.05755   5.81
C00D  1 -0.03663  0.32108  0.08536 11.00000  0.07145   5.68
C00E  1  0.16670  0.57752  0.28589 11.00000  0.05651   5.67
C00F  1  0.73616  0.78591  0.21387 11.00000  0.08185   5.40
C00G  1  0.68549  0.57352  0.25831 11.00000  0.06614   5.22
C00H  1  0.34487  0.74457  0.51642 11.00000  0.06882   5.10
C00I  1  0.44385  0.49794  0.14025 11.00000  0.07043   5.05
O00J  3  0.05022  0.26979  0.40489 11.00000  0.29569   3.33
HKLF 4
END
