TITL 1_expF_0_7_expS_1_4_1_a.res in P2(1)
REM Old TITL 1 in P2
REM SHELXT solution in P2(1): R1 0.244, Rweak 0.304, Alpha 0.120
REM <I/s>   2.494 for    3 systematic absences,  Orientation as input
REM Formula found by SHELXT:  C15 N2 O

CELL  0.71073   8.0000   5.0200  16.0200   90.000  103.140   90.000
ZERR   12.000   0.0016   0.0010   0.0032    0.000    0.030    0.000
LATT -1
SYMM -X, 1/2+Y, -Z
SFAC C N O
UNIT 12 12 12
L.S. 10
BOND
LIST 6
FMAP 2
PLAN 20
N001  2  0.83496  0.57978  0.71288 11.00000  0.02134   7.45
O002  3  0.85278  0.15942  0.74875 11.00000  0.02856   7.25
C003  1  0.85952  0.37753  0.76750 11.00000  0.01973   6.69
N004  2  0.86919  0.35999  0.58168 11.00000  0.02637   6.56
C005  1  0.65358  0.74013  0.47984 11.00000  0.02876   6.48
C006  1  0.79893  0.54955  0.62207 11.00000  0.03013   6.37
C007  1  0.46460  0.43400  0.77719 11.00000  0.02402   6.12
C008  1  1.05267  0.34338  0.91087 11.00000  0.02866   6.03
C009  1  0.70011  0.74693  0.57421 11.00000  0.01855   5.97
C00A  1  0.72257  0.52490  0.43904 11.00000  0.02653   5.95
C00B  1  0.83192  0.35771  0.49028 11.00000  0.02317   5.89
C00C  1  0.87909  0.44286  0.86100 11.00000  0.01740   5.60
C00D  1  0.27160  0.78191  0.78479 11.00000  0.03327   5.40
C00E  1  0.37403  0.84058  0.86676 11.00000  0.03828   5.35
C00F  1  0.50959  0.69585  0.90614 11.00000  0.03517   5.12
C00G  1  0.55759  0.48488  0.85630 11.00000  0.02511   5.07
C00H  1  0.72869  0.34266  0.89557 11.00000  0.02096   4.83
C00I  1  0.32090  0.56210  0.74100 11.00000  0.03069   4.76
HKLF 4
END
