TITL 1_expF_1_0_expS_0_7_1_a.res in P2(1)
REM Old TITL 1 in P2
REM SHELXT solution in P2(1): R1 0.209, Rweak 0.122, Alpha 0.024
REM <I/s>   4.155 for    3 systematic absences,  Orientation as input
REM Formula found by SHELXT:  C15 N2 O

CELL  0.71073   8.0000   5.0200  16.0200   90.000  103.140   90.000
ZERR   12.000   0.0016   0.0010   0.0032    0.000    0.030    0.000
LATT -1
SYMM -X, 1/2+Y, -Z
SFAC C N O
UNIT 12 12 12
L.S. 10
BOND
LIST 6
FMAP 2
PLAN 20
O001  3  0.85427  0.14788  0.74640 11.00000  0.05725   7.62
N002  2  0.69588  0.75960  0.57362 11.00000  0.05169   6.52
N003  2  0.45693  0.42218  0.77790 11.00000  0.05289   6.52
C004  1  0.79785  0.56480  0.62115 11.00000  0.03585   6.43
C005  1  0.83884  0.36499  0.48746 11.00000  0.04220   6.25
C006  1  0.86883  0.37014  0.57895 11.00000  0.03931   6.17
C007  1  0.85520  0.38117  0.76815 11.00000  0.04027   5.98
C008  1  1.04757  0.33487  0.91461 11.00000  0.04255   5.97
C009  1  0.72783  0.54650  0.44130 11.00000  0.04212   5.90
C00A  1  0.83599  0.58380  0.71181 11.00000  0.02896   5.87
C00B  1  0.65593  0.74327  0.48195 11.00000  0.04329   5.84
C00C  1  0.87983  0.44922  0.86127 11.00000  0.03301   5.76
C00D  1  0.26274  0.78189  0.78548 11.00000  0.04935   5.61
C00E  1  0.55585  0.50090  0.85775 11.00000  0.03836   5.61
C00F  1  0.72680  0.35180  0.89522 11.00000  0.04044   5.55
C00G  1  0.31292  0.57262  0.74165 11.00000  0.04598   5.30
C00H  1  0.37107  0.85212  0.86616 11.00000  0.05428   5.26
C00I  1  0.51598  0.71832  0.90153 11.00000  0.04668   5.10
HKLF 4
END
