TITL 1_expF_1_4_expS_1_5_1_a.res in P2(1)
REM Old TITL 1 in P2
REM SHELXT solution in P2(1): R1 0.323, Rweak 0.043, Alpha 0.006
REM <I/s>   6.817 for    3 systematic absences,  Orientation as input
REM Formula found by SHELXT:  C15 N2 O

CELL  0.71073   8.0000   5.0200  16.0200   90.000  103.140   90.000
ZERR   12.000   0.0016   0.0010   0.0032    0.000    0.030    0.000
LATT -1
SYMM -X, 1/2+Y, -Z
SFAC C N O
UNIT 12 12 12
L.S. 10
BOND
LIST 6
FMAP 2
PLAN 20
O001  3  0.14519  0.14714  0.25114 11.00000  0.07963   6.80
N002  2  0.54192  0.41213  0.22141 11.00000  0.06830   6.67
N003  2  0.19934  0.56289  0.37785 11.00000  0.06841   6.60
C004  1  0.15524  0.35732  0.51243 11.00000  0.06223   6.50
C005  1  0.12846  0.37112  0.42178 11.00000  0.05890   6.27
C006  1  0.29976  0.75541  0.42872 11.00000  0.06272   6.11
C007  1  0.26656  0.54581  0.55978 11.00000  0.06059   6.05
C008  1  0.27183  0.35296  0.10673 11.00000  0.05390   6.00
C009  1  0.15127  0.37417  0.23194 11.00000  0.05789   5.93
C00A  1 -0.04106  0.32169  0.08750 11.00000  0.06133   5.87
C00B  1  0.16798  0.57651  0.28597 11.00000  0.04754   5.87
C00C  1  0.11706  0.44050  0.13806 11.00000  0.05163   5.84
C00D  1  0.47457  0.71190  0.09924 11.00000  0.07288   5.80
C00E  1  0.73598  0.78011  0.21571 11.00000  0.07143   5.69
C00F  1  0.63102  0.85286  0.13550 11.00000  0.07158   5.69
C00G  1  0.68509  0.57238  0.25819 11.00000  0.05721   5.67
C00H  1  0.34376  0.74048  0.51838 11.00000  0.05878   5.48
C00I  1  0.44313  0.49285  0.14249 11.00000  0.05932   5.12
HKLF 4
END
