TITL 1_expF_1_4_expS_0_7_1_a.res in P2(1)
REM Old TITL 1 in P2
REM SHELXT solution in P2(1): R1 0.265, Rweak 0.042, Alpha 0.009
REM <I/s>   8.455 for    3 systematic absences,  Orientation as input
REM Formula found by SHELXT:  C16 N O

CELL  0.71073   8.0000   5.0200  16.0200   90.000  103.140   90.000
ZERR   12.000   0.0016   0.0010   0.0032    0.000    0.030    0.000
LATT -1
SYMM -X, 1/2+Y, -Z
SFAC C N O
UNIT 12 12 12
L.S. 10
BOND
LIST 6
FMAP 2
PLAN 20
O001  3  0.14597  0.85006  0.25305 11.00000  0.09547   6.86
N002  2  0.54530  0.58202  0.21935 11.00000  0.07184   6.77
C003  1  0.15775  0.63824  0.51127 11.00000  0.06330   6.49
C004  1  0.20132  0.43501  0.37978 11.00000  0.06077   6.36
C005  1  0.13363  0.63029  0.42090 11.00000  0.06598   6.35
C006  1  0.27103  0.44751  0.55956 11.00000  0.07137   6.13
C007  1  0.30357  0.24470  0.42449 11.00000  0.07060   6.00
C008  1  0.14656  0.61438  0.23131 11.00000  0.06602   5.95
C009  1  0.16639  0.42267  0.28569 11.00000  0.05229   5.75
C00A  1  0.27237  0.64375  0.10543 11.00000  0.06300   5.74
C00B  1 -0.04433  0.67393  0.08867 11.00000  0.06293   5.74
C00C  1  0.11880  0.56119  0.13859 11.00000  0.05828   5.64
C00D  1  0.63451  0.14994  0.13305 11.00000  0.07952   5.62
C00E  1  0.47820  0.28382  0.09812 11.00000  0.06693   5.62
C00F  1  0.73906  0.21637  0.21573 11.00000  0.07753   5.57
C00G  1  0.68932  0.42783  0.25786 11.00000  0.06700   5.56
C00H  1  0.44624  0.49900  0.14019 11.00000  0.07021   5.43
C00I  1  0.34269  0.25723  0.51835 11.00000  0.06292   5.28
HKLF 4
END
