TITL 1_expF_0_8_expS_1_0_1_a.res in P2(1)
REM Old TITL 1 in P2
REM SHELXT solution in P2(1): R1 0.217, Rweak 0.229, Alpha 0.172
REM <I/s>   2.861 for    3 systematic absences,  Orientation as input
REM Formula found by SHELXT:  C15 N2 O

CELL  0.71073   8.0000   5.0200  16.0200   90.000  103.140   90.000
ZERR   12.000   0.0016   0.0010   0.0032    0.000    0.030    0.000
LATT -1
SYMM -X, 1/2+Y, -Z
SFAC C N O
UNIT 12 12 12
L.S. 10
BOND
LIST 6
FMAP 2
PLAN 20
O001  3  0.85201  0.15057  0.74739 11.00000  0.03479   7.37
N002  2  0.83742  0.36631  0.48900 11.00000  0.03925   7.02
N003  2  0.65427  0.74139  0.48155 11.00000  0.03880   6.62
C004  1  0.79918  0.56298  0.62178 11.00000  0.02688   6.43
C005  1  0.69781  0.75939  0.57296 11.00000  0.02440   6.09
C006  1  0.46178  0.42377  0.77719 11.00000  0.02865   5.97
C007  1  0.26711  0.78181  0.78481 11.00000  0.03861   5.79
C008  1  1.05080  0.34104  0.91333 11.00000  0.03327   5.75
C009  1  0.86999  0.36783  0.57943 11.00000  0.02788   5.75
C00A  1  0.88025  0.44802  0.86083 11.00000  0.02084   5.75
C00B  1  0.83554  0.58514  0.71180 11.00000  0.01768   5.69
C00C  1  0.72774  0.54090  0.44088 11.00000  0.03038   5.46
C00D  1  0.85840  0.38033  0.76805 11.00000  0.02812   5.41
C00E  1  0.51380  0.70968  0.90457 11.00000  0.03390   5.31
C00F  1  0.72791  0.35245  0.89500 11.00000  0.02342   5.29
C00G  1  0.31634  0.57273  0.74176 11.00000  0.03616   4.95
C00H  1  0.37160  0.84943  0.86604 11.00000  0.04410   4.60
C00I  1  0.55425  0.49597  0.85817 11.00000  0.02576   3.75
HKLF 4
END
