TITL 1_expF_1_0_expS_1_1_1_a.res in P2(1)
REM Old TITL 1 in P2
REM SHELXT solution in P2(1): R1 0.215, Rweak 0.129, Alpha 0.022
REM <I/s>   3.840 for    3 systematic absences,  Orientation as input
REM Formula found by SHELXT:  C16 N O

CELL  0.71073   8.0000   5.0200  16.0200   90.000  103.140   90.000
ZERR   12.000   0.0016   0.0010   0.0032    0.000    0.030    0.000
LATT -1
SYMM -X, 1/2+Y, -Z
SFAC C N O
UNIT 12 12 12
L.S. 10
BOND
LIST 6
FMAP 2
PLAN 20
O001  3  0.85298  0.85174  0.74653 11.00000  0.05095   7.19
N002  2  0.79892  0.43835  0.62112 11.00000  0.04802   6.59
C003  1  0.45764  0.57634  0.77840 11.00000  0.04086   6.43
C004  1  0.83491  0.41685  0.71167 11.00000  0.02869   6.28
C005  1  0.69695  0.24117  0.57368 11.00000  0.03725   6.23
C006  1  0.72738  0.45511  0.44089 11.00000  0.04207   6.21
C007  1  0.83712  0.63531  0.48866 11.00000  0.04099   6.10
C008  1  0.85309  0.62125  0.76828 11.00000  0.03912   6.01
C009  1  0.86885  0.63064  0.57879 11.00000  0.03820   6.01
C00A  1  1.04695  0.66539  0.91340 11.00000  0.04405   5.88
C00B  1  0.65453  0.25835  0.48163 11.00000  0.04099   5.84
C00C  1  0.88069  0.55289  0.86141 11.00000  0.03279   5.77
C00D  1  0.72739  0.64741  0.89481 11.00000  0.03665   5.59
C00E  1  0.26548  0.21695  0.78601 11.00000  0.04809   5.54
C00F  1  0.31496  0.42804  0.74199 11.00000  0.04454   5.42
C00G  1  0.36916  0.14826  0.86605 11.00000  0.05420   5.33
C00H  1  0.55690  0.50249  0.85847 11.00000  0.03657   5.06
C00I  1  0.51784  0.28273  0.90240 11.00000  0.04782   4.92
HKLF 4
END
