TITL 1_expF_0_8_expS_0_5_1_a.res in P2(1)
REM Old TITL 1 in P2
REM SHELXT solution in P2(1): R1 0.216, Rweak 0.227, Alpha 0.172
REM <I/s>   3.152 for    3 systematic absences,  Orientation as input
REM Formula found by SHELXT:  C15 N2 O

CELL  0.71073   8.0000   5.0200  16.0200   90.000  103.140   90.000
ZERR   12.000   0.0016   0.0010   0.0032    0.000    0.030    0.000
LATT -1
SYMM -X, 1/2+Y, -Z
SFAC C N O
UNIT 12 12 12
L.S. 10
BOND
LIST 6
FMAP 2
PLAN 20
O001  3  0.85282  0.14930  0.74692 11.00000  0.03882   7.37
N002  2  0.84147  0.36796  0.48838 11.00000  0.04334   7.02
N003  2  0.65844  0.74233  0.48141 11.00000  0.04325   6.62
C004  1  0.79661  0.56817  0.62165 11.00000  0.02716   6.43
C005  1  0.69787  0.76240  0.57389 11.00000  0.02896   6.09
C006  1  0.45845  0.42313  0.77693 11.00000  0.03033   5.97
C007  1  0.26317  0.78333  0.78498 11.00000  0.03887   5.79
C008  1  1.04802  0.33709  0.91420 11.00000  0.03283   5.75
C009  1  0.86898  0.36972  0.57793 11.00000  0.02944   5.75
C00A  1  0.87969  0.45173  0.86088 11.00000  0.02034   5.75
C00B  1  0.83674  0.58467  0.71135 11.00000  0.01728   5.69
C00C  1  0.72875  0.54827  0.44143 11.00000  0.02909   5.46
C00D  1  0.85928  0.38233  0.76831 11.00000  0.02818   5.41
C00E  1  0.51429  0.71749  0.90335 11.00000  0.03507   5.31
C00F  1  0.72737  0.35302  0.89482 11.00000  0.02968   5.29
C00G  1  0.31467  0.57702  0.74166 11.00000  0.03737   4.95
C00H  1  0.37113  0.85070  0.86534 11.00000  0.04475   4.60
C00I  1  0.55613  0.49975  0.85778 11.00000  0.02569   3.75
HKLF 4
END
