TITL 1_expF_1_4_expS_1_0_1_a.res in P2(1)
REM Old TITL 1 in P2
REM SHELXT solution in P2(1): R1 0.276, Rweak 0.040, Alpha 0.007
REM <I/s>   7.551 for    3 systematic absences,  Orientation as input
REM Formula found by SHELXT:  C15 N2 O

CELL  0.71073   8.0000   5.0200  16.0200   90.000  103.140   90.000
ZERR   12.000   0.0016   0.0010   0.0032    0.000    0.030    0.000
LATT -1
SYMM -X, 1/2+Y, -Z
SFAC C N O
UNIT 12 12 12
L.S. 10
BOND
LIST 6
FMAP 2
PLAN 20
O001  3  0.85404  0.85114  0.74878 11.00000  0.09057   6.92
N002  2  0.45668  0.58411  0.77877 11.00000  0.07051   6.70
N003  2  0.84651  0.63805  0.48709 11.00000  0.07741   6.51
C004  1  0.79933  0.43259  0.62127 11.00000  0.06085   6.36
C005  1  0.87112  0.62991  0.57735 11.00000  0.06642   6.33
C006  1  0.73221  0.44971  0.43981 11.00000  0.06682   6.07
C007  1  0.85184  0.61655  0.76886 11.00000  0.06574   5.96
C008  1  0.69870  0.24352  0.57259 11.00000  0.07011   5.94
C009  1  0.72849  0.64292  0.89417 11.00000  0.06112   5.80
C00A  1  1.04265  0.67409  0.91324 11.00000  0.06339   5.75
C00B  1  0.52324  0.28391  0.90120 11.00000  0.07030   5.75
C00C  1  0.83341  0.42359  0.71421 11.00000  0.05173   5.74
C00D  1  0.88068  0.56042  0.86130 11.00000  0.05707   5.66
C00E  1  0.36697  0.14886  0.86451 11.00000  0.07673   5.64
C00F  1  0.31270  0.42664  0.74218 11.00000  0.06181   5.53
C00G  1  0.26060  0.21597  0.78417 11.00000  0.07927   5.53
C00H  1  0.55441  0.50072  0.85905 11.00000  0.06583   5.30
C00I  1  0.65554  0.25685  0.48191 11.00000  0.06200   5.27
HKLF 4
END
