TITL 1_expF_0_9_expS_0_8_1_a.res in P2(1)
REM Old TITL 1 in P2
REM SHELXT solution in P2(1): R1 0.211, Rweak 0.173, Alpha 0.035
REM <I/s>   3.449 for    3 systematic absences,  Orientation as input
REM Formula found by SHELXT:  C16 N O

CELL  0.71073   8.0000   5.0200  16.0200   90.000  103.140   90.000
ZERR   12.000   0.0016   0.0010   0.0032    0.000    0.030    0.000
LATT -1
SYMM -X, 1/2+Y, -Z
SFAC C N O
UNIT 12 12 12
L.S. 10
BOND
LIST 6
FMAP 2
PLAN 20
O001  3  0.85316  0.85183  0.74670 11.00000  0.04509   7.13
N002  2  0.79755  0.43854  0.62119 11.00000  0.04199   6.53
C003  1  0.83574  0.41621  0.71139 11.00000  0.02259   6.43
C004  1  0.72763  0.45454  0.44104 11.00000  0.03579   6.31
C005  1  0.69679  0.23921  0.57387 11.00000  0.03183   6.29
C006  1  0.85519  0.62055  0.76829 11.00000  0.03407   6.25
C007  1  0.45789  0.57629  0.77800 11.00000  0.03570   6.15
C008  1  1.04761  0.66450  0.91394 11.00000  0.03798   5.96
C009  1  0.86849  0.63102  0.57861 11.00000  0.03340   5.88
C00A  1  0.83771  0.63409  0.48852 11.00000  0.03721   5.88
C00B  1  0.88041  0.55165  0.86126 11.00000  0.02653   5.72
C00C  1  0.65588  0.25754  0.48150 11.00000  0.03715   5.71
C00D  1  0.26429  0.21622  0.78595 11.00000  0.04314   5.49
C00E  1  0.31411  0.42803  0.74170 11.00000  0.04025   5.36
C00F  1  0.37009  0.14817  0.86630 11.00000  0.04851   5.34
C00G  1  0.55667  0.50181  0.85822 11.00000  0.03078   5.14
C00H  1  0.72755  0.64675  0.89496 11.00000  0.03218   5.12
C00I  1  0.51619  0.28194  0.90269 11.00000  0.04121   4.69
HKLF 4
END
