TITL 1_expF_1_0_expS_1_3_1_a.res in P2(1)
REM Old TITL 1 in P2
REM SHELXT solution in P2(1): R1 0.218, Rweak 0.122, Alpha 0.022
REM <I/s>   3.775 for    3 systematic absences,  Orientation as input
REM Formula found by SHELXT:  C17 O

CELL  0.71073   8.0000   5.0200  16.0200   90.000  103.140   90.000
ZERR   12.000   0.0016   0.0010   0.0032    0.000    0.030    0.000
LATT -1
SYMM -X, 1/2+Y, -Z
SFAC C N O
UNIT 12 12 12
L.S. 10
BOND
LIST 6
FMAP 2
PLAN 20
O001  3  0.85209  0.85156  0.74729 11.00000  0.05121   7.56
C002  1  0.69749  0.24162  0.57346 11.00000  0.03765   6.48
C003  1  0.80002  0.43826  0.62132 11.00000  0.04028   6.46
C004  1  0.45983  0.57610  0.77789 11.00000  0.04203   6.35
C005  1  0.72706  0.45723  0.44093 11.00000  0.04397   6.34
C006  1  0.83462  0.41628  0.71226 11.00000  0.03017   6.13
C007  1  0.83677  0.63660  0.48894 11.00000  0.04164   6.13
C008  1  0.86919  0.63046  0.57933 11.00000  0.03872   6.05
C009  1  0.85338  0.62123  0.76798 11.00000  0.03996   6.04
C00A  1  0.88108  0.55351  0.86098 11.00000  0.03362   5.81
C00B  1  1.04851  0.66399  0.91291 11.00000  0.04529   5.77
C00C  1  0.65439  0.25883  0.48154 11.00000  0.04210   5.63
C00D  1  0.26627  0.21793  0.78551 11.00000  0.04866   5.54
C00E  1  0.31645  0.42798  0.74187 11.00000  0.04548   5.53
C00F  1  0.55572  0.50404  0.85815 11.00000  0.03791   5.49
C00G  1  0.36960  0.14844  0.86578 11.00000  0.05474   5.40
C00H  1  0.72742  0.64778  0.89471 11.00000  0.03663   5.38
C00I  1  0.51625  0.28685  0.90320 11.00000  0.04825   4.86
HKLF 4
END
