TITL 1_expF_1_3_expS_0_8_1_a.res in P2(1)
REM Old TITL 1 in P2
REM SHELXT solution in P2(1): R1 0.244, Rweak 0.053, Alpha 0.013
REM <I/s>   6.792 for    3 systematic absences,  Orientation as input
REM Formula found by SHELXT:  C16 N O

CELL  0.71073   8.0000   5.0200  16.0200   90.000  103.140   90.000
ZERR   12.000   0.0016   0.0010   0.0032    0.000    0.030    0.000
LATT -1
SYMM -X, 1/2+Y, -Z
SFAC C N O
UNIT 12 12 12
L.S. 10
BOND
LIST 6
FMAP 2
PLAN 20
O001  3  0.85600  0.85250  0.74684 11.00000  0.08331   7.00
N002  2  0.45382  0.57973  0.77877 11.00000  0.06760   6.57
C003  1  0.79782  0.43247  0.62102 11.00000  0.05268   6.40
C004  1  0.73275  0.44953  0.44187 11.00000  0.06134   6.36
C005  1  0.84224  0.63574  0.48690 11.00000  0.06042   6.28
C006  1  0.86699  0.62849  0.57823 11.00000  0.05824   6.26
C007  1  0.69454  0.24382  0.57399 11.00000  0.06365   6.09
C008  1  0.85330  0.61818  0.76930 11.00000  0.06098   5.99
C009  1  0.83498  0.41946  0.71201 11.00000  0.04552   5.89
C00A  1  0.88326  0.55259  0.86214 11.00000  0.05394   5.85
C00B  1  1.04486  0.66609  0.91430 11.00000  0.05833   5.80
C00C  1  0.72422  0.64206  0.89470 11.00000  0.05692   5.68
C00D  1  0.31446  0.42836  0.74191 11.00000  0.06171   5.66
C00E  1  0.36979  0.14750  0.86666 11.00000  0.07022   5.50
C00F  1  0.26075  0.21639  0.78591 11.00000  0.06424   5.46
C00G  1  0.65395  0.25777  0.48059 11.00000  0.05923   5.39
C00H  1  0.51870  0.28118  0.90163 11.00000  0.06461   5.37
C00I  1  0.55867  0.49786  0.85934 11.00000  0.06086   5.32
HKLF 4
END
