TITL 1_expF_1_1_expS_0_6_1_a.res in P2(1)
REM Old TITL 1 in P2
REM SHELXT solution in P2(1): R1 0.217, Rweak 0.092, Alpha 0.013
REM <I/s>   5.127 for    3 systematic absences,  Orientation as input
REM Formula found by SHELXT:  C17 O

CELL  0.71073   8.0000   5.0200  16.0200   90.000  103.140   90.000
ZERR   12.000   0.0016   0.0010   0.0032    0.000    0.030    0.000
LATT -1
SYMM -X, 1/2+Y, -Z
SFAC C N O
UNIT 12 12 12
L.S. 10
BOND
LIST 6
FMAP 2
PLAN 20
O001  3  0.85250  0.85075  0.74590 11.00000  0.06934   7.20
C002  1  0.45594  0.58071  0.77792 11.00000  0.04864   6.46
C003  1  0.79626  0.43718  0.62119 11.00000  0.04559   6.45
C004  1  0.72714  0.45301  0.44153 11.00000  0.05047   6.32
C005  1  0.69492  0.24471  0.57513 11.00000  0.05199   6.22
C006  1  0.84057  0.63640  0.48655 11.00000  0.05250   6.22
C007  1  0.86666  0.63148  0.57903 11.00000  0.04766   6.17
C008  1  0.83447  0.41957  0.71084 11.00000  0.03777   6.09
C009  1  0.85457  0.62120  0.76859 11.00000  0.05004   6.04
C00A  1  0.88143  0.55365  0.86120 11.00000  0.04042   5.84
C00B  1  1.04545  0.66682  0.91399 11.00000  0.05229   5.79
C00C  1  0.26513  0.22153  0.78647 11.00000  0.05750   5.61
C00D  1  0.72324  0.64954  0.89502 11.00000  0.05083   5.59
C00E  1  0.65547  0.25755  0.47992 11.00000  0.05358   5.52
C00F  1  0.31265  0.42744  0.74103 11.00000  0.05681   5.48
C00G  1  0.36858  0.14925  0.86555 11.00000  0.05993   5.44
C00H  1  0.55849  0.50503  0.85821 11.00000  0.04767   5.28
C00I  1  0.51785  0.27991  0.90168 11.00000  0.05723   4.93
HKLF 4
END
