TITL 1_expF_1_0_expS_0_8_1_a.res in P2(1)
REM Old TITL 1 in P2
REM SHELXT solution in P2(1): R1 0.210, Rweak 0.131, Alpha 0.024
REM <I/s>   4.061 for    3 systematic absences,  Orientation as input
REM Formula found by SHELXT:  C15 N2 O

CELL  0.71073   8.0000   5.0200  16.0200   90.000  103.140   90.000
ZERR   12.000   0.0016   0.0010   0.0032    0.000    0.030    0.000
LATT -1
SYMM -X, 1/2+Y, -Z
SFAC C N O
UNIT 12 12 12
L.S. 10
BOND
LIST 6
FMAP 2
PLAN 20
O001  3  0.85398  0.85248  0.74647 11.00000  0.05431   7.12
N002  2  0.45639  0.57793  0.77828 11.00000  0.05182   6.62
N003  2  0.79782  0.43743  0.62116 11.00000  0.04771   6.59
C004  1  0.69658  0.24049  0.57390 11.00000  0.03871   6.28
C005  1  0.83585  0.41787  0.71153 11.00000  0.02804   6.26
C006  1  0.85508  0.62114  0.76832 11.00000  0.04043   6.25
C007  1  0.72795  0.45282  0.44112 11.00000  0.04125   6.24
C008  1  1.04643  0.66628  0.91399 11.00000  0.04300   6.03
C009  1  0.83810  0.63449  0.48805 11.00000  0.04115   6.00
C00A  1  0.86810  0.63153  0.57841 11.00000  0.03932   5.93
C00B  1  0.65598  0.25779  0.48141 11.00000  0.04195   5.80
C00C  1  0.87961  0.55239  0.86174 11.00000  0.03268   5.72
C00D  1  0.26317  0.21743  0.78570 11.00000  0.04831   5.54
C00E  1  0.72766  0.64762  0.89509 11.00000  0.03898   5.42
C00F  1  0.37012  0.14752  0.86588 11.00000  0.05503   5.36
C00G  1  0.31300  0.42840  0.74210 11.00000  0.04582   5.33
C00H  1  0.51671  0.28176  0.90238 11.00000  0.04545   5.12
C00I  1  0.55610  0.50138  0.85821 11.00000  0.03759   5.11
HKLF 4
END
