TITL 1_expF_1_1_expS_1_2_1_a.res in P2(1)
REM Old TITL 1 in P2
REM SHELXT solution in P2(1): R1 0.227, Rweak 0.089, Alpha 0.013
REM <I/s>   4.444 for    3 systematic absences,  Orientation as input
REM Formula found by SHELXT:  C17 O

CELL  0.71073   8.0000   5.0200  16.0200   90.000  103.140   90.000
ZERR   12.000   0.0016   0.0010   0.0032    0.000    0.030    0.000
LATT -1
SYMM -X, 1/2+Y, -Z
SFAC C N O
UNIT 12 12 12
L.S. 10
BOND
LIST 6
FMAP 2
PLAN 20
O001  3  0.85302  0.85232  0.74728 11.00000  0.05938   7.20
C002  1  0.45765  0.57750  0.77783 11.00000  0.04680   6.46
C003  1  0.79849  0.43744  0.62137 11.00000  0.04462   6.45
C004  1  0.72728  0.45467  0.44128 11.00000  0.04880   6.32
C005  1  0.69545  0.24271  0.57391 11.00000  0.04555   6.22
C006  1  0.83928  0.63705  0.48806 11.00000  0.04826   6.22
C007  1  0.86946  0.63078  0.57906 11.00000  0.04330   6.17
C008  1  0.83412  0.41864  0.71195 11.00000  0.03478   6.09
C009  1  0.85047  0.62132  0.76865 11.00000  0.04652   6.04
C00A  1  0.88102  0.55379  0.86112 11.00000  0.03778   5.84
C00B  1  1.04530  0.66806  0.91385 11.00000  0.05002   5.79
C00C  1  0.26754  0.21704  0.78592 11.00000  0.05328   5.61
C00D  1  0.72565  0.64901  0.89425 11.00000  0.04237   5.59
C00E  1  0.65470  0.25862  0.48115 11.00000  0.04738   5.52
C00F  1  0.31562  0.42773  0.74099 11.00000  0.05027   5.48
C00G  1  0.36683  0.14768  0.86576 11.00000  0.05976   5.44
C00H  1  0.55597  0.50421  0.85793 11.00000  0.04322   5.28
C00I  1  0.51899  0.28326  0.90212 11.00000  0.05308   4.93
HKLF 4
END
