TITL 1_expF_1_3_expS_1_2_1_a.res in P2(1)
REM Old TITL 1 in P2
REM SHELXT solution in P2(1): R1 0.262, Rweak 0.050, Alpha 0.011
REM <I/s>   6.095 for    3 systematic absences,  Orientation as input
REM Formula found by SHELXT:  C16 N O

CELL  0.71073   8.0000   5.0200  16.0200   90.000  103.140   90.000
ZERR   12.000   0.0016   0.0010   0.0032    0.000    0.030    0.000
LATT -1
SYMM -X, 1/2+Y, -Z
SFAC C N O
UNIT 12 12 12
L.S. 10
BOND
LIST 6
FMAP 2
PLAN 20
O001  3  0.85561  0.85386  0.74823 11.00000  0.07690   6.96
N002  2  0.45758  0.57841  0.77809 11.00000  0.06523   6.65
C003  1  0.84367  0.63852  0.48745 11.00000  0.05857   6.45
C004  1  0.79851  0.43398  0.62150 11.00000  0.05189   6.41
C005  1  0.87210  0.62934  0.57783 11.00000  0.05671   6.32
C006  1  0.73164  0.45067  0.44118 11.00000  0.05851   6.24
C007  1  0.69560  0.24176  0.57279 11.00000  0.06051   5.97
C008  1  0.83407  0.42067  0.71302 11.00000  0.04319   5.95
C009  1  0.85116  0.62101  0.76903 11.00000  0.05922   5.90
C00A  1  0.72583  0.64383  0.89341 11.00000  0.05413   5.75
C00B  1  1.04182  0.67191  0.91398 11.00000  0.05780   5.74
C00C  1  0.88266  0.55334  0.86217 11.00000  0.04994   5.69
C00D  1  0.31483  0.42765  0.74174 11.00000  0.05672   5.58
C00E  1  0.26444  0.21662  0.78571 11.00000  0.06347   5.56
C00F  1  0.52186  0.28259  0.90197 11.00000  0.06540   5.52
C00G  1  0.36980  0.14614  0.86563 11.00000  0.06965   5.46
C00H  1  0.65474  0.25888  0.48163 11.00000  0.05587   5.32
C00I  1  0.55709  0.50089  0.85840 11.00000  0.05802   5.30
HKLF 4
END
