TITL 1_expF_0_9_expS_1_3_1_a.res in P2(1)
REM Old TITL 1 in P2
REM SHELXT solution in P2(1): R1 0.216, Rweak 0.169, Alpha 0.040
REM <I/s>   3.262 for    3 systematic absences,  Orientation as input
REM Formula found by SHELXT:  C16 N O

CELL  0.71073   8.0000   5.0200  16.0200   90.000  103.140   90.000
ZERR   12.000   0.0016   0.0010   0.0032    0.000    0.030    0.000
LATT -1
SYMM -X, 1/2+Y, -Z
SFAC C N O
UNIT 12 12 12
L.S. 10
BOND
LIST 6
FMAP 2
PLAN 20
O001  3  0.14647  0.85138  0.25281 11.00000  0.04386   7.23
N002  2  0.30167  0.24057  0.42703 11.00000  0.03734   6.60
C003  1  0.27337  0.45959  0.55918 11.00000  0.03862   6.42
C004  1  0.14590  0.61997  0.23207 11.00000  0.03446   6.34
C005  1  0.16539  0.41394  0.28813 11.00000  0.02522   6.20
C006  1  0.20037  0.43819  0.37829 11.00000  0.03328   6.08
C007  1  0.53965  0.57763  0.22172 11.00000  0.03406   6.03
C008  1  0.16443  0.63588  0.51070 11.00000  0.03766   5.95
C009  1  0.12968  0.63028  0.41988 11.00000  0.03290   5.94
C00A  1  0.11897  0.55302  0.13936 11.00000  0.02782   5.68
C00B  1  0.73382  0.21878  0.21440 11.00000  0.04334   5.66
C00C  1 -0.04988  0.65873  0.08666 11.00000  0.03892   5.56
C00D  1  0.34620  0.25981  0.51840 11.00000  0.03654   5.56
C00E  1  0.68327  0.42944  0.25843 11.00000  0.03789   5.54
C00F  1  0.44439  0.50295  0.14212 11.00000  0.03087   5.46
C00G  1  0.62790  0.14862  0.13331 11.00000  0.04685   5.33
C00H  1  0.27180  0.64667  0.10503 11.00000  0.02904   5.13
C00I  1  0.48419  0.29111  0.09735 11.00000  0.04378   4.45
HKLF 4
END
