TITL 1_expF_0_7_expS_0_9_1_a.res in P2(1)
REM Old TITL 1 in P2
REM SHELXT solution in P2(1): R1 0.230, Rweak 0.319, Alpha 0.101
REM <I/s>   2.493 for    3 systematic absences,  Orientation as input
REM Formula found by SHELXT:  C16 N O

CELL  0.71073   8.0000   5.0200  16.0200   90.000  103.140   90.000
ZERR   12.000   0.0016   0.0010   0.0032    0.000    0.030    0.000
LATT -1
SYMM -X, 1/2+Y, -Z
SFAC C N O
UNIT 12 12 12
L.S. 10
BOND
LIST 6
FMAP 2
PLAN 20
O001  3  0.14744  0.84987  0.25263 11.00000  0.02615   7.55
N002  2  0.20213  0.44218  0.37825 11.00000  0.02906   6.88
C003  1  0.34516  0.25954  0.51906 11.00000  0.02565   6.48
C004  1  0.16430  0.41370  0.28873 11.00000  0.01233   6.41
C005  1  0.16559  0.63425  0.51023 11.00000  0.02766   6.35
C006  1 -0.05233  0.65700  0.08666 11.00000  0.02829   6.04
C007  1  0.14079  0.61983  0.23178 11.00000  0.02181   5.99
C008  1  0.73299  0.21811  0.21432 11.00000  0.03274   5.86
C009  1  0.27293  0.46227  0.55923 11.00000  0.02420   5.84
C00A  1  0.30229  0.24146  0.42655 11.00000  0.01694   5.72
C00B  1  0.53865  0.57630  0.22206 11.00000  0.02105   5.69
C00C  1  0.12955  0.63313  0.41978 11.00000  0.02151   5.52
C00D  1  0.27047  0.64857  0.10459 11.00000  0.01639   5.15
C00E  1  0.11965  0.55440  0.13931 11.00000  0.01482   5.12
C00F  1  0.68373  0.43005  0.25919 11.00000  0.02839   5.04
C00G  1  0.44564  0.50520  0.14227 11.00000  0.01880   4.95
C00H  1  0.62499  0.15013  0.13241 11.00000  0.03643   4.46
C00I  1  0.48619  0.29169  0.09505 11.00000  0.02948   4.19
HKLF 4
END
