TITL 1_expF_1_2_expS_1_1_1_a.res in P2(1)
REM Old TITL 1 in P2
REM SHELXT solution in P2(1): R1 0.238, Rweak 0.072, Alpha 0.042
REM <I/s>   5.262 for    3 systematic absences,  Orientation as input
REM Formula found by SHELXT:  C15 N2 O

CELL  0.71073   8.0000   5.0200  16.0200   90.000  103.140   90.000
ZERR   12.000   0.0016   0.0010   0.0032    0.000    0.030    0.000
LATT -1
SYMM -X, 1/2+Y, -Z
SFAC C N O
UNIT 12 12 12
L.S. 10
BOND
LIST 6
FMAP 2
PLAN 20
N001  2  0.45507  0.57775  0.77848 11.00000  0.05998   6.64
O002  3  0.85254  0.85216  0.74737 11.00000  0.06743   6.62
N003  2  0.79754  0.43842  0.62120 11.00000  0.05931   6.54
C004  1  0.69644  0.24356  0.57298 11.00000  0.05212   6.29
C005  1  0.72909  0.45078  0.44053 11.00000  0.05380   6.10
C006  1  0.83523  0.41886  0.71230 11.00000  0.03795   6.07
C007  1  0.85372  0.62190  0.76833 11.00000  0.05280   6.05
C008  1  0.87132  0.62864  0.57844 11.00000  0.05053   6.03
C009  1  0.84072  0.63628  0.48711 11.00000  0.05130   6.00
C00A  1  1.04482  0.66983  0.91384 11.00000  0.05310   5.87
C00B  1  0.88226  0.55317  0.86188 11.00000  0.04177   5.85
C00C  1  0.37032  0.14784  0.86553 11.00000  0.06418   5.72
C00D  1  0.72893  0.64657  0.89451 11.00000  0.04868   5.60
C00E  1  0.26734  0.21905  0.78579 11.00000  0.05913   5.59
C00F  1  0.65374  0.25945  0.48036 11.00000  0.05164   5.53
C00G  1  0.31392  0.42578  0.74174 11.00000  0.05422   5.52
C00H  1  0.52079  0.28251  0.90180 11.00000  0.05767   5.41
C00I  1  0.55854  0.50173  0.85850 11.00000  0.05095   5.15
HKLF 4
END
