TITL 1_expF_1_2_expS_0_6_1_a.res in P2(1)
REM Old TITL 1 in P2
REM SHELXT solution in P2(1): R1 0.231, Rweak 0.061, Alpha 0.011
REM <I/s>   6.135 for    3 systematic absences,  Orientation as input
REM Formula found by SHELXT:  C16 N O

CELL  0.71073   8.0000   5.0200  16.0200   90.000  103.140   90.000
ZERR   12.000   0.0016   0.0010   0.0032    0.000    0.030    0.000
LATT -1
SYMM -X, 1/2+Y, -Z
SFAC C N O
UNIT 12 12 12
L.S. 10
BOND
LIST 6
FMAP 2
PLAN 20
O001  3  0.85033  0.85093  0.74657 11.00000  0.07770   6.86
N002  2  0.45443  0.58163  0.77733 11.00000  0.06341   6.50
C003  1  0.79497  0.43663  0.62147 11.00000  0.04941   6.38
C004  1  0.72891  0.44986  0.44063 11.00000  0.05663   6.31
C005  1  0.87074  0.62848  0.57834 11.00000  0.05323   6.29
C006  1  0.84386  0.63761  0.48604 11.00000  0.05505   6.26
C007  1  0.83624  0.42035  0.71168 11.00000  0.04285   6.16
C008  1  0.85628  0.62115  0.76835 11.00000  0.05660   5.96
C009  1  0.69458  0.24939  0.57407 11.00000  0.05983   5.95
C00A  1  1.04512  0.66720  0.91437 11.00000  0.05559   5.86
C00B  1  0.88298  0.55402  0.86139 11.00000  0.04737   5.81
C00C  1  0.72573  0.64959  0.89533 11.00000  0.05734   5.68
C00D  1  0.31154  0.42308  0.74062 11.00000  0.05967   5.67
C00E  1  0.26505  0.22551  0.78624 11.00000  0.06560   5.56
C00F  1  0.65328  0.25865  0.47980 11.00000  0.05970   5.49
C00G  1  0.37422  0.14907  0.86500 11.00000  0.06603   5.39
C00H  1  0.51930  0.27936  0.90166 11.00000  0.06166   5.27
C00I  1  0.55774  0.50338  0.85822 11.00000  0.05425   5.14
HKLF 4
END
