TITL 1_expF_1_2_expS_1_3_1_a.res in P2(1)
REM Old TITL 1 in P2
REM SHELXT solution in P2(1): R1 0.246, Rweak 0.069, Alpha 0.006
REM <I/s>   5.102 for    3 systematic absences,  Orientation as input
REM Formula found by SHELXT:  C16 N O

CELL  0.71073   8.0000   5.0200  16.0200   90.000  103.140   90.000
ZERR   12.000   0.0016   0.0010   0.0032    0.000    0.030    0.000
LATT -1
SYMM -X, 1/2+Y, -Z
SFAC C N O
UNIT 12 12 12
L.S. 10
BOND
LIST 6
FMAP 2
PLAN 20
O001  3  0.85254  0.14749  0.74796 11.00000  0.06585   7.12
N002  2  0.45636  0.42424  0.77803 11.00000  0.06050   6.69
C003  1  0.79763  0.56217  0.62117 11.00000  0.04764   6.47
C004  1  0.84059  0.36109  0.48801 11.00000  0.05126   6.36
C005  1  0.87201  0.37088  0.57881 11.00000  0.04901   6.25
C006  1  0.72882  0.54853  0.44093 11.00000  0.05409   6.22
C007  1  0.69460  0.75671  0.57312 11.00000  0.05157   6.14
C008  1  0.85225  0.37816  0.76799 11.00000  0.05225   6.03
C009  1  0.83498  0.58236  0.71289 11.00000  0.03818   6.02
C00A  1  1.04450  0.32718  0.91344 11.00000  0.05274   5.88
C00B  1  0.88273  0.44706  0.86122 11.00000  0.04052   5.86
C00C  1  0.72811  0.35248  0.89417 11.00000  0.04769   5.77
C00D  1  0.26858  0.78181  0.78540 11.00000  0.05729   5.71
C00E  1  0.65474  0.73855  0.48072 11.00000  0.05134   5.57
C00F  1  0.31559  0.57320  0.74140 11.00000  0.05198   5.47
C00G  1  0.36840  0.85251  0.86594 11.00000  0.06431   5.44
C00H  1  0.51971  0.71711  0.90186 11.00000  0.05759   5.31
C00I  1  0.55631  0.49720  0.85805 11.00000  0.05085   5.20
HKLF 4
END
