TITL 1_expF_1_4_expS_0_6_1_a.res in P2(1)
REM Old TITL 1 in P2
REM SHELXT solution in P2(1): R1 0.261, Rweak 0.043, Alpha 0.007
REM <I/s>   8.896 for    3 systematic absences,  Orientation as input
REM Formula found by SHELXT:  C15 N2 O

CELL  0.71073   8.0000   5.0200  16.0200   90.000  103.140   90.000
ZERR   12.000   0.0016   0.0010   0.0032    0.000    0.030    0.000
LATT -1
SYMM -X, 1/2+Y, -Z
SFAC C N O
UNIT 12 12 12
L.S. 10
BOND
LIST 6
FMAP 2
PLAN 20
O001  3  0.85346  0.85051  0.74703 11.00000  0.09430   6.92
N002  2  0.45456  0.58300  0.78061 11.00000  0.07241   6.70
N003  2  0.84337  0.63779  0.48816 11.00000  0.07595   6.51
C004  1  0.79938  0.43528  0.62004 11.00000  0.06045   6.36
C005  1  0.86694  0.63029  0.57903 11.00000  0.06567   6.33
C006  1  0.73140  0.44731  0.44020 11.00000  0.07174   6.07
C007  1  0.85324  0.61451  0.76880 11.00000  0.06571   5.96
C008  1  0.69659  0.24522  0.57537 11.00000  0.07187   5.94
C009  1  0.72765  0.64433  0.89503 11.00000  0.06303   5.80
C00A  1  1.04486  0.67248  0.91153 11.00000  0.06315   5.75
C00B  1  0.52121  0.28320  0.90176 11.00000  0.06595   5.75
C00C  1  0.83301  0.42142  0.71469 11.00000  0.05277   5.74
C00D  1  0.88101  0.56128  0.86110 11.00000  0.05859   5.66
C00E  1  0.36541  0.14949  0.86715 11.00000  0.07955   5.64
C00F  1  0.31048  0.42944  0.74207 11.00000  0.06595   5.53
C00G  1  0.26009  0.21504  0.78463 11.00000  0.07882   5.53
C00H  1  0.55329  0.50007  0.85994 11.00000  0.06862   5.30
C00I  1  0.65609  0.25690  0.48206 11.00000  0.06185   5.27
HKLF 4
END
