TITL 1_expF_1_4_expS_0_8_1_a.res in P2(1)
REM Old TITL 1 in P2
REM SHELXT solution in P2(1): R1 0.266, Rweak 0.041, Alpha 0.007
REM <I/s>   8.130 for    3 systematic absences,  Orientation as input
REM Formula found by SHELXT:  C15 N2 O

CELL  0.71073   8.0000   5.0200  16.0200   90.000  103.140   90.000
ZERR   12.000   0.0016   0.0010   0.0032    0.000    0.030    0.000
LATT -1
SYMM -X, 1/2+Y, -Z
SFAC C N O
UNIT 12 12 12
L.S. 10
BOND
LIST 6
FMAP 2
PLAN 20
O001  3  0.85399  0.85090  0.74764 11.00000  0.09405   6.92
N002  2  0.45566  0.58234  0.78038 11.00000  0.07121   6.70
N003  2  0.84427  0.63778  0.48822 11.00000  0.07597   6.51
C004  1  0.80032  0.43280  0.62021 11.00000  0.06080   6.36
C005  1  0.86914  0.62891  0.57846 11.00000  0.06562   6.33
C006  1  0.73146  0.44828  0.43997 11.00000  0.07034   6.07
C007  1  0.85297  0.61355  0.76912 11.00000  0.06601   5.96
C008  1  0.69768  0.24452  0.57422 11.00000  0.07070   5.94
C009  1  0.72787  0.64289  0.89470 11.00000  0.06229   5.80
C00A  1  1.04352  0.67207  0.91181 11.00000  0.06317   5.75
C00B  1  0.52234  0.28312  0.90154 11.00000  0.06713   5.75
C00C  1  0.83248  0.42196  0.71468 11.00000  0.05237   5.74
C00D  1  0.88024  0.56066  0.86119 11.00000  0.05854   5.66
C00E  1  0.36553  0.14910  0.86630 11.00000  0.07915   5.64
C00F  1  0.31186  0.42704  0.74204 11.00000  0.06457   5.53
C00G  1  0.26080  0.21492  0.78470 11.00000  0.07877   5.53
C00H  1  0.55324  0.49914  0.85982 11.00000  0.06900   5.30
C00I  1  0.65580  0.25676  0.48225 11.00000  0.06169   5.27
HKLF 4
END
