TITL 1_expF_1_2_expS_1_4_1_a.res in P2(1)
REM Old TITL 1 in P2
REM SHELXT solution in P2(1): R1 0.252, Rweak 0.068, Alpha 0.009
REM <I/s>   5.084 for    3 systematic absences,  Orientation as input
REM Formula found by SHELXT:  C16 N O

CELL  0.71073   8.0000   5.0200  16.0200   90.000  103.140   90.000
ZERR   12.000   0.0016   0.0010   0.0032    0.000    0.030    0.000
LATT -1
SYMM -X, 1/2+Y, -Z
SFAC C N O
UNIT 12 12 12
L.S. 10
BOND
LIST 6
FMAP 2
PLAN 20
O001  3  0.14697  0.14723  0.25185 11.00000  0.06450   7.01
N002  2  0.54336  0.42509  0.22206 11.00000  0.05994   6.62
C003  1  0.20208  0.56202  0.37876 11.00000  0.04721   6.45
C004  1  0.16007  0.35990  0.51168 11.00000  0.05068   6.41
C005  1  0.30544  0.75688  0.42698 11.00000  0.05050   6.19
C006  1  0.12766  0.37112  0.42099 11.00000  0.04807   6.18
C007  1  0.27129  0.54785  0.55888 11.00000  0.05359   6.12
C008  1  0.14778  0.37785  0.23230 11.00000  0.05171   5.96
C009  1  0.16518  0.58268  0.28694 11.00000  0.03777   5.90
C00A  1  0.11703  0.44684  0.13887 11.00000  0.03977   5.89
C00B  1 -0.04453  0.32603  0.08692 11.00000  0.05261   5.87
C00C  1  0.27225  0.35229  0.10617 11.00000  0.04663   5.81
C00D  1  0.73093  0.78179  0.21481 11.00000  0.05616   5.77
C00E  1  0.34496  0.73807  0.51924 11.00000  0.05051   5.65
C00F  1  0.63208  0.85277  0.13403 11.00000  0.06314   5.57
C00G  1  0.68368  0.57261  0.25862 11.00000  0.05097   5.49
C00H  1  0.48087  0.71677  0.09809 11.00000  0.05780   5.30
C00I  1  0.44393  0.49651  0.14219 11.00000  0.05024   5.25
HKLF 4
END
