TITL 1_expF_1_5_expS_0_8_1_a.res in P2(1)
REM Old TITL 1 in P2
REM SHELXT solution in P2(1): R1 0.298, Rweak 0.030, Alpha 0.017
REM <I/s>   9.781 for    3 systematic absences,  Orientation as input
REM Formula found by SHELXT:  C15 N2 O2

CELL  0.71073   8.0000   5.0200  16.0200   90.000  103.140   90.000
ZERR   12.000   0.0016   0.0010   0.0032    0.000    0.030    0.000
LATT -1
SYMM -X, 1/2+Y, -Z
SFAC C N O
UNIT 12 12 12
L.S. 10
BOND
LIST 6
FMAP 2
PLAN 20
O001  3  0.15320  0.85262  0.25290 11.00000  0.11079   6.73
N002  2  0.20816  0.44025  0.37889 11.00000  0.08397   6.55
N003  2  0.14847  0.63487  0.51358 11.00000  0.08723   6.51
C004  1  0.54231  0.58546  0.22065 11.00000  0.07013   6.47
C005  1  0.13358  0.63383  0.42379 11.00000  0.07147   6.39
C006  1  0.47353  0.28828  0.10038 11.00000  0.08302   6.22
C007  1  0.26807  0.45157  0.56138 11.00000  0.07149   6.18
C008  1  0.27469  0.64563  0.10807 11.00000  0.07017   6.13
C009  1  0.12364  0.55861  0.13646 11.00000  0.06583   5.97
C00A  1  0.29948  0.23897  0.42478 11.00000  0.07813   5.88
C00B  1  0.63661  0.14738  0.13408 11.00000  0.08167   5.85
C00C  1 -0.04258  0.67384  0.08534 11.00000  0.07520   5.83
C00D  1  0.14847  0.61983  0.22976 11.00000  0.07592   5.81
C00E  1  0.16399  0.42230  0.28653 11.00000  0.06477   5.64
C00F  1  0.68902  0.43167  0.25972 11.00000  0.07800   5.62
C00G  1  0.74200  0.20877  0.21440 11.00000  0.08614   5.46
C00H  1  0.44340  0.49791  0.13814 11.00000  0.07737   5.31
C00I  1  0.34337  0.25707  0.51587 11.00000  0.07084   5.02
O00J  3  0.07114  0.73069  0.39029 11.00000  0.36106   3.12
HKLF 4
END
