TITL 1_expF_1_5_expS_0_7_1_a.res in P2(1)
REM Old TITL 1 in P2
REM SHELXT solution in P2(1): R1 0.300, Rweak 0.034, Alpha 0.010
REM <I/s>  10.211 for    3 systematic absences,  Orientation as input
REM Formula found by SHELXT:  C16 N O2

CELL  0.71073   8.0000   5.0200  16.0200   90.000  103.140   90.000
ZERR   12.000   0.0016   0.0010   0.0032    0.000    0.030    0.000
LATT -1
SYMM -X, 1/2+Y, -Z
SFAC C N O
UNIT 12 12 12
L.S. 10
BOND
LIST 6
FMAP 2
PLAN 20
O001  3  0.15552  0.14840  0.25414 11.00000  0.11646   6.71
N002  2  0.20989  0.54276  0.37908 11.00000  0.08946   6.57
C003  1  0.15520  0.35221  0.51332 11.00000  0.07632   6.50
C004  1  0.54562  0.40590  0.21966 11.00000  0.07567   6.45
C005  1  0.13629  0.36030  0.42282 11.00000  0.07398   6.40
C006  1  0.47195  0.70395  0.09902 11.00000  0.08326   6.28
C007  1  0.27425  0.34614  0.10752 11.00000  0.07273   6.20
C008  1  0.27094  0.54374  0.56152 11.00000  0.07702   6.18
C009  1  0.12064  0.42995  0.13607 11.00000  0.06645   5.97
C00A  1  0.30045  0.75115  0.42455 11.00000  0.07825   5.89
C00B  1  0.14697  0.37024  0.23146 11.00000  0.07520   5.87
C00C  1  0.63492  0.85160  0.13386 11.00000  0.08199   5.84
C00D  1 -0.04466  0.31433  0.08576 11.00000  0.07666   5.81
C00E  1  0.16148  0.57084  0.28577 11.00000  0.06604   5.67
C00F  1  0.69163  0.56359  0.25923 11.00000  0.08279   5.56
C00G  1  0.74131  0.77585  0.21511 11.00000  0.08550   5.38
C00H  1  0.44282  0.49431  0.13828 11.00000  0.08064   5.26
C00I  1  0.34243  0.73746  0.51512 11.00000  0.07148   5.04
O00J  3  0.09128  0.25761  0.38886 11.00000  0.45054   3.30
HKLF 4
END
