TITL 1_expF_0_5_expS_0_9_1_a.res in Pm
REM Old TITL 1 in P2
REM SHELXT solution in Pm: R1 0.255, Rweak 0.678, Alpha 0.179
REM <I/s>   0.000 for    0 systematic absences,  Orientation as input
REM Formula found by SHELXT:  C39 N20 O10 Br3

CELL  0.71073   8.0000   5.0200  16.0200   90.000  103.140   90.000
ZERR   12.000   0.0016   0.0010   0.0032    0.000    0.030    0.000
LATT -1
SYMM X, -Y, Z
SFAC C N O BR
UNIT 12 12 12 0
L.S. 10
BOND
LIST 6
FMAP 2
PLAN 20
BR01  4  0.24909  0.00000  0.38787 10.50000  0.00010  43.73
BR02  4  0.29271  0.00000  0.66974 10.50000  0.06594  36.55
BR03  4  0.28770  0.00000  0.47236 10.50000  0.07386  23.42
O004  3  0.35868  0.00000  0.25523 10.50000  0.03014  16.94
O005  3 -0.26531  0.50000  0.10520 10.50000  0.01050  16.67
O006  3 -0.05458  0.50000  0.73519 10.50000  0.00502  15.73
O007  3 -0.35022  0.00000  0.47896 10.50000  0.05668  15.56
C008  1 -0.02117  0.50000  0.66341 10.50000  0.02593  13.12
N009  2  0.45054  0.37655  0.67789 11.00000  0.00583  12.83
N00A  2  0.62925  0.50000  0.73314 10.50000  0.00096  12.12
O00B  3 -0.20248  0.50000  0.46136 10.50000  0.01131  11.71
N00C  2  0.22782  0.05888  0.14040 11.00000  0.00498  11.46
N00D  2  0.24839  0.50000  0.24163 10.50000  0.04690  11.32
O00E  3  0.30944  0.50000  0.06828 10.50000  0.07864  10.65
N00F  2  0.34417  0.20065  0.52388 11.00000  0.00938  10.63
O00G  3 -0.05264  0.00000  0.54550 10.50000  0.05215  10.55
N00H  2  1.23533  1.00000  1.02045 10.50000  0.07108  10.22
O00I  3  0.95134  0.70870  0.87627 11.00000  0.03731  10.11
O00J  3 -0.33903  0.50000  0.55245 10.50000  0.01290   9.75
C00K  1  0.17890  0.50000  0.18431 10.50000  0.01144   8.89
N00L  2  0.23504  0.43374  0.34340 11.00000  0.00010   8.49
N00M  2  0.14518  0.50000 -0.05713 10.50000  0.00994   7.80
N00N  2 -0.04831  0.50000  0.17274 10.50000  0.06396   7.79
N00O  2  0.36613  0.50000  0.40250 10.50000  0.02842   7.54
N00P  2 -0.04639  0.50000  0.54159 10.50000  0.03793   6.79
C00Q  1  0.76137  0.82916  0.84238 11.00000  0.03132   6.76
N00R  2  1.01475  1.00000  0.97480 10.50000  0.03132   6.71
N00S  2  0.09430  0.50000  0.08407 10.50000  0.00933   6.62
C00T  1 -0.21296  0.50000  0.04449 10.50000  0.03191   6.45
N00U  2  0.65840  0.63550  0.82088 11.00000  0.04211   6.43
C00V  1 -0.09151  0.30515  0.38125 11.00000  0.03700   6.42
C00W  1  0.23607  0.50000  0.47149 10.50000  0.02631   6.31
C00X  1  0.22275  0.14478  0.23547 11.00000  0.02188   6.22
C00Y  1  0.99290  0.80441  0.97058 11.00000  0.04199   6.20
C00Z  1 -0.39226  0.30851  0.32497 11.00000  0.03015   5.90
N010  2  0.31289  0.50000  0.55610 10.50000  0.01035   5.85
C011  1  0.55742  0.42967  0.89914 11.00000  0.03348   5.77
C012  1  0.75130  0.50000  0.90759 10.50000  0.00010   5.67
C013  1  0.81718  1.00000  1.05713 10.50000  0.12650   5.44
C014  1  0.27070  0.50000  0.02947 10.50000  0.03300   5.43
C015  1  0.22239  0.28966  0.28167 11.00000  0.00010   5.39
C016  1  0.79593  1.00000  0.93185 10.50000  0.02430   5.39
C017  1  0.38732  0.00000  0.81944 10.50000  0.02817   5.35
C018  1 -0.10138  0.00000  0.41503 10.50000  0.00642   5.29
C019  1  0.37366  0.50000 -0.00063 10.50000  0.14655   5.21
C01A  1  0.30188  0.65690  0.43487 11.00000  0.01182   5.19
C01B  1  0.35151  0.37033  0.59315 11.00000  0.01179   5.19
C01C  1  0.28962  0.26418  0.15485 11.00000  0.05164   5.18
C01D  1  0.77530  1.00000  1.05692 10.50000  0.04623   5.11
C01E  1  1.39226  1.00000  1.03679 10.50000  0.01876   4.98
C01F  1  0.51932  0.58951  0.01276 11.00000  0.03392   4.98
C01G  1  0.18863  0.50000  0.42439 10.50000  0.00010   4.85
C01H  1  0.32342  0.50000  0.85366 11.00000  0.02781   4.77
C01I  1  1.08094  1.00000  0.90482 10.50000  0.05397   4.72
HKLF 4
END
