TITL 1_expF_1_0_expS_1_5_1_a.res in P2(1)
REM Old TITL 1 in P2
REM SHELXT solution in P2(1): R1 0.224, Rweak 0.130, Alpha 0.020
REM <I/s>   3.778 for    3 systematic absences,  Orientation as input
REM Formula found by SHELXT:  C16 N O

CELL  0.71073   8.0000   5.0200  16.0200   90.000  103.140   90.000
ZERR   12.000   0.0016   0.0010   0.0032    0.000    0.030    0.000
LATT -1
SYMM -X, 1/2+Y, -Z
SFAC C N O
UNIT 12 12 12
L.S. 10
BOND
LIST 6
FMAP 2
PLAN 20
O001  3  0.85164  0.85117  0.74794 11.00000  0.04852   7.06
N002  2  0.83501  0.41644  0.71279 11.00000  0.03629   6.54
C003  1  0.80017  0.44001  0.62194 11.00000  0.03910   6.38
C004  1  0.46152  0.57599  0.77764 11.00000  0.04106   6.38
C005  1  0.72595  0.45939  0.44107 11.00000  0.04326   6.28
C006  1  0.69769  0.24332  0.57335 11.00000  0.03513   6.20
C007  1  0.83643  0.63901  0.48905 11.00000  0.04014   6.08
C008  1  0.86886  0.63248  0.57983 11.00000  0.03648   6.03
C009  1  0.85404  0.62209  0.76840 11.00000  0.03845   5.96
C00A  1  1.04867  0.66040  0.91281 11.00000  0.04456   5.75
C00B  1  0.31902  0.42876  0.74134 11.00000  0.04339   5.59
C00C  1  0.88118  0.55297  0.86094 11.00000  0.03219   5.55
C00D  1  0.65453  0.25977  0.48166 11.00000  0.04025   5.53
C00E  1  0.26748  0.21714  0.78529 11.00000  0.04700   5.48
C00F  1  0.72784  0.64787  0.89489 11.00000  0.03494   5.45
C00G  1  0.36906  0.14883  0.86607 11.00000  0.05309   5.27
C00H  1  0.55607  0.50722  0.85771 11.00000  0.03705   5.23
C00I  1  0.51602  0.29098  0.90393 11.00000  0.04765   4.99
HKLF 4
END
