TITL 1_expF_0_9_expS_1_1_1_a.res in P2(1)
REM Old TITL 1 in P2
REM SHELXT solution in P2(1): R1 0.212, Rweak 0.172, Alpha 0.032
REM <I/s>   3.297 for    3 systematic absences,  Orientation as input
REM Formula found by SHELXT:  C15 N2 O

CELL  0.71073   8.0000   5.0200  16.0200   90.000  103.140   90.000
ZERR   12.000   0.0016   0.0010   0.0032    0.000    0.030    0.000
LATT -1
SYMM -X, 1/2+Y, -Z
SFAC C N O
UNIT 12 12 12
L.S. 10
BOND
LIST 6
FMAP 2
PLAN 20
O001  3  0.14742  0.14887  0.25346 11.00000  0.04235   6.91
N002  2  0.27257  0.54261  0.55897 11.00000  0.04383   6.53
N003  2  0.20121  0.56205  0.37888 11.00000  0.04044   6.51
C004  1  0.16507  0.58430  0.28845 11.00000  0.02299   6.47
C005  1  0.30255  0.75966  0.42640 11.00000  0.02984   6.36
C006  1  0.14600  0.38053  0.23179 11.00000  0.03292   6.15
C007  1  0.54216  0.42425  0.22183 11.00000  0.03328   6.15
C008  1  0.13121  0.36978  0.42068 11.00000  0.03205   5.92
C009  1 -0.04738  0.33654  0.08662 11.00000  0.03793   5.89
C00A  1  0.11947  0.44789  0.13876 11.00000  0.02623   5.88
C00B  1  0.16353  0.36535  0.51109 11.00000  0.03675   5.86
C00C  1  0.34626  0.74147  0.51842 11.00000  0.03497   5.50
C00D  1  0.73358  0.78419  0.21402 11.00000  0.04143   5.35
C00E  1  0.68300  0.57215  0.25837 11.00000  0.03787   5.34
C00F  1  0.63090  0.85113  0.13331 11.00000  0.04675   5.19
C00G  1  0.27235  0.35408  0.10513 11.00000  0.02919   5.01
C00H  1  0.44368  0.49785  0.14179 11.00000  0.02898   4.94
C00I  1  0.48147  0.71725  0.09711 11.00000  0.04483   4.46
HKLF 4
END
