TITL 1_expF_1_1_expS_1_0_1_a.res in P2(1)
REM Old TITL 1 in P2
REM SHELXT solution in P2(1): R1 0.220, Rweak 0.087, Alpha 0.013
REM <I/s>   4.565 for    3 systematic absences,  Orientation as input
REM Formula found by SHELXT:  C17 O

CELL  0.71073   8.0000   5.0200  16.0200   90.000  103.140   90.000
ZERR   12.000   0.0016   0.0010   0.0032    0.000    0.030    0.000
LATT -1
SYMM -X, 1/2+Y, -Z
SFAC C N O
UNIT 12 12 12
L.S. 10
BOND
LIST 6
FMAP 2
PLAN 20
O001  3  0.85265  0.85197  0.74705 11.00000  0.06233   7.20
C002  1  0.45684  0.57854  0.77792 11.00000  0.04723   6.46
C003  1  0.79762  0.43798  0.62123 11.00000  0.04470   6.45
C004  1  0.72775  0.45407  0.44121 11.00000  0.04930   6.32
C005  1  0.69541  0.24274  0.57413 11.00000  0.04720   6.22
C006  1  0.83944  0.63624  0.48750 11.00000  0.04891   6.22
C007  1  0.86837  0.63171  0.57882 11.00000  0.04453   6.17
C008  1  0.83457  0.41914  0.71159 11.00000  0.03495   6.09
C009  1  0.85146  0.62148  0.76888 11.00000  0.04756   6.04
C00A  1  0.88085  0.55352  0.86116 11.00000  0.03840   5.84
C00B  1  1.04549  0.66763  0.91438 11.00000  0.05000   5.79
C00C  1  0.26663  0.21707  0.78629 11.00000  0.05423   5.61
C00D  1  0.72535  0.64890  0.89455 11.00000  0.04428   5.59
C00E  1  0.65494  0.25770  0.48086 11.00000  0.04883   5.52
C00F  1  0.31435  0.42784  0.74088 11.00000  0.05206   5.48
C00G  1  0.36691  0.14803  0.86573 11.00000  0.05953   5.44
C00H  1  0.55683  0.50385  0.85823 11.00000  0.04425   5.28
C00I  1  0.51860  0.28233  0.90187 11.00000  0.05285   4.93
HKLF 4
END
