TITL 1_expF_0_8_expS_0_7_1_a.res in P2(1)
REM Old TITL 1 in P2
REM SHELXT solution in P2(1): R1 0.215, Rweak 0.223, Alpha 0.172
REM <I/s>   2.987 for    3 systematic absences,  Orientation as input
REM Formula found by SHELXT:  C15 N2 O

CELL  0.71073   8.0000   5.0200  16.0200   90.000  103.140   90.000
ZERR   12.000   0.0016   0.0010   0.0032    0.000    0.030    0.000
LATT -1
SYMM -X, 1/2+Y, -Z
SFAC C N O
UNIT 12 12 12
L.S. 10
BOND
LIST 6
FMAP 2
PLAN 20
O001  3  0.85256  0.14927  0.74721 11.00000  0.03565   7.37
N002  2  0.83974  0.36752  0.48871 11.00000  0.04083   7.02
N003  2  0.65648  0.74203  0.48178 11.00000  0.04034   6.62
C004  1  0.79787  0.56604  0.62160 11.00000  0.02604   6.43
C005  1  0.69763  0.76183  0.57346 11.00000  0.02604   6.09
C006  1  0.45966  0.42312  0.77693 11.00000  0.02897   5.97
C007  1  0.26473  0.78416  0.78502 11.00000  0.03792   5.79
C008  1  1.04917  0.33822  0.91408 11.00000  0.03212   5.75
C009  1  0.86900  0.36865  0.57842 11.00000  0.02812   5.75
C00A  1  0.87993  0.45058  0.86081 11.00000  0.01969   5.75
C00B  1  0.83640  0.58480  0.71154 11.00000  0.01642   5.69
C00C  1  0.72881  0.54601  0.44119 11.00000  0.02902   5.46
C00D  1  0.85869  0.38123  0.76836 11.00000  0.02789   5.41
C00E  1  0.51442  0.71504  0.90372 11.00000  0.03303   5.31
C00F  1  0.72793  0.35352  0.89495 11.00000  0.02561   5.29
C00G  1  0.31485  0.57550  0.74158 11.00000  0.03586   4.95
C00H  1  0.37055  0.85073  0.86571 11.00000  0.04367   4.60
C00I  1  0.55483  0.49852  0.85808 11.00000  0.02464   3.75
HKLF 4
END
