TITL 1_expF_0_5_expS_1_4_1_a.res in Pm
REM Old TITL 1 in P2
REM SHELXT solution in Pm: R1 0.239, Rweak 0.817, Alpha 0.162
REM <I/s>   0.000 for    0 systematic absences,  Orientation as input
REM Formula found by SHELXT:  C27 N20 O11 Br3

CELL  0.71073   8.0000   5.0200  16.0200   90.000  103.140   90.000
ZERR   12.000   0.0016   0.0010   0.0032    0.000    0.030    0.000
LATT -1
SYMM X, -Y, Z
SFAC C N O BR
UNIT 12 12 12 0
L.S. 10
BOND
LIST 6
FMAP 2
PLAN 20
BR01  4  0.28197  0.00000  0.26134 10.50000  0.00328  43.42
BR02  4  1.25180  1.00000  0.97699 10.50000  0.25011  33.85
BR03  4  0.23426  0.00000  0.17464 10.50000  0.22261  23.09
O004  3  0.11221  1.00000  0.39377 10.50000  0.11497  15.78
O005  3  0.55702  0.50000  0.88051 10.50000  0.19312  13.88
O006  3  0.72004  0.50000  0.53929 10.50000  0.09792  13.74
O007  3 -0.13990  1.00000  0.18450 10.50000  0.07597  13.56
N008  2  0.27019  0.50000  0.56950 10.50000  0.19394  13.37
O009  3 -0.08171 -0.50000 -0.05997 10.50000  0.11285  11.98
N00A  2  0.26030  0.88561  0.52004 11.00000  0.08107  11.64
N00B  2  0.16105 -0.15997  0.11620 11.00000  0.04806  11.32
N00C  2  0.60516  0.75242  0.79021 11.00000  0.17511  11.20
N00D  2  0.07460 -0.64273 -0.02728 11.00000  0.05895  10.95
N00E  2  0.40207  0.50000  0.70172 10.50000  0.07093  10.75
O00F  3 -0.24229  0.50000  0.20927 10.50000  0.05865  10.66
O00G  3  0.60576  0.50000  0.97513 10.50000  0.17351  10.58
N00H  2  0.37839  1.00000  0.61372 10.50000  0.13207  10.39
O00I  3 -0.02414 -0.50000  0.09705 10.50000  0.09533  10.01
N00J  2  0.23785 -0.50000  0.08887 10.50000  0.08058   8.14
O00K  3  0.91009  1.11583  0.81793 11.00000  0.14965   7.85
O00L  3  0.70640  1.00000  0.59725 10.50000  0.08900   7.45
N00M  2  0.31446  0.38527  0.30076 11.00000  0.05158   7.20
C00N  1  0.32647  0.50000  0.60302 10.50000  0.10263   7.19
C00O  1  0.13747 -0.50000 -0.04556 11.00000  0.13945   7.01
N00P  2  0.25357  0.66062  0.66993 11.00000  0.13169   6.92
N00Q  2  0.28417  0.79974  0.39774 11.00000  0.12033   6.51
C00R  1  0.39694  0.50000  0.50726 10.50000  0.06340   6.47
C00S  1  0.64409  0.50000  0.53010 10.50000  0.10208   6.23
C00T  1  0.19553  0.50000  0.23207 10.50000  0.05901   5.84
C00U  1  0.93923  0.68337  0.65097 11.00000  0.08553   5.74
C00V  1  0.29261  0.70085  0.52993 11.00000  0.12734   5.63
C00W  1 -0.25180  0.56670  0.25282 11.00000  0.05732   5.57
C00X  1  0.67320  0.50000  0.61429 10.50000  0.03517   5.52
C00Y  1  0.55500  0.50000  1.05997 10.50000  0.12993   5.13
C00Z  1  0.88351  1.42533  0.77151 11.00000  0.10575   5.12
C010  1  0.72856  0.93544  0.65140 11.00000  0.06287   5.06
C011  1  0.99941  0.50000  0.59880 10.50000  0.05309   5.03
C012  1  1.08646  1.00000  0.85442 10.50000  0.17314   5.01
C013  1  0.22965  0.50000  0.38382 10.50000  0.05604   4.87
C014  1  0.74200  1.00000  0.70611 10.50000  0.04522   4.86
N015  2  0.39401  1.00000  0.77922 11.00000  0.13553   4.83
C016  1 -0.08111  0.82200  0.31866 11.00000  0.15929   4.67
C017  1  0.52977  0.50000  0.78276 10.50000  0.09583   4.66
C018  1  0.27651  0.83919  0.75102 11.00000  0.17022   4.46
HKLF 4
END
