TITL 1_expF_0_5_expS_1_1_1_a.res in Pm
REM Old TITL 1 in P2
REM SHELXT solution in Pm: R1 0.202, Rweak 0.529, Alpha 0.168
REM <I/s>   0.000 for    0 systematic absences,  Orientation as input
REM Formula found by SHELXT:  C31 N19 O12 I2

CELL  0.71073   8.0000   5.0200  16.0200   90.000  103.140   90.000
ZERR   12.000   0.0016   0.0010   0.0032    0.000    0.030    0.000
LATT -1
SYMM X, -Y, Z
SFAC C N O I
UNIT 12 12 12 0
L.S. 10
BOND
LIST 6
FMAP 2
PLAN 20
I001  4  0.19971  1.00000  0.80409 10.50000  0.00708  44.55
I002  4  1.12904  0.00000  0.50848 10.50000  0.46440  32.99
N003  2  0.15880  1.00000  0.71605 10.50000  0.00289  22.73
O004  3  0.13447  1.00000  0.93975 10.50000  0.17421  16.03
O005  3  0.62953  0.50000  0.07870 10.50000  0.12369  14.66
O006  3  0.80142  1.00000  0.72625 10.50000  0.05655  14.22
N007  2  0.50984  0.50000  0.46884 10.50000  0.09816  13.92
N008  2  0.04301  0.50000  0.07691 10.50000  0.05557  12.33
N009  2 -0.11540  0.50000  0.49941 10.50000  0.06442  11.44
N00A  2  0.46177  0.19399  0.33658 11.00000  0.07850  11.32
O00B  3  0.47418  0.50000  0.54609 10.50000  0.07706  11.25
O00C  3  0.66537  0.50000  0.73670 10.50000  0.05891  11.19
O00D  3  0.33460  0.00000  0.17208 10.50000  0.13569  10.50
N00E  2  0.31503  0.50000  0.25351 10.50000  0.05478  10.35
N00F  2  0.16515  0.71164  0.69437 11.00000  0.03550  10.29
N00G  2  0.00146  0.40134  0.51508 11.00000  0.08116  10.28
O00H  3  0.74942  0.50000  0.63738 10.50000  0.09522  10.07
O00I  3  0.75900  0.19710  0.34697 11.00000  0.19877   8.59
O00J  3  0.61391  0.00000  0.12727 10.50000  0.09090   8.15
O00K  3  0.23241  0.57802  0.84494 11.00000  0.05027   7.88
N00L  2  0.13223  0.50000  0.63097 10.50000  0.08163   7.78
C00M  1  0.31829  0.83507  0.94564 11.00000  0.03076   7.37
C00N  1  0.07923  0.36615  0.58461 11.00000  0.07491   7.17
N00O  2  0.07344  0.29829  0.21916 11.00000  0.19161   7.05
N00P  2  0.48892  0.50000  0.05904 10.50000  0.16415   7.02
N00Q  2 -0.08627  0.50000  0.16896 10.50000  0.11550   6.99
N00R  2  0.58363  0.50000  0.15131 10.50000  0.03047   6.52
C00S  1  0.33717  0.50000  0.04327 10.50000  0.03347   6.49
C00T  1  0.14929  0.50000  0.92572 10.50000  0.05006   6.37
C00U  1  0.61464  0.50000  0.49453 10.50000  0.05851   6.21
C00V  1  0.70238  0.30803  0.15435 11.00000  0.09210   6.18
C00W  1  0.86176  0.77539  0.70575 11.00000  0.05804   5.78
C00X  1  0.61562  0.00000  0.19145 10.50000  0.16050   5.58
C00Y  1  0.15096  0.50000  0.67992 10.50000  0.14914   5.53
C00Z  1  0.05782  0.27893  0.09941 11.00000  0.08973   5.52
C010  1  0.35920  0.50000  0.60642 10.50000  0.07869   5.49
C011  1 -0.12904  0.50000  0.86889 11.00000  0.10925   5.41
C012  1  0.52479  0.66364  0.86090 11.00000  0.07295   5.38
N013  2  0.33168  0.29611  0.30911 11.00000  0.05773   5.33
C014  1  0.17842  0.50000  0.23223 10.50000  0.13085   5.31
C015  1  0.93300  0.00000  0.44969 10.50000  0.10109   5.24
C016  1  0.23177  0.76477  0.76061 11.00000  0.06950   5.04
C017  1  0.84003  0.50000  0.29915 11.00000  0.09509   5.03
C018  1  0.28026  1.00000  0.95673 10.50000  0.02937   4.68
C019  1  0.56598  0.00000  0.28984 10.50000  0.05857   4.66
C01A  1  0.56777  0.50000  0.37725 10.50000  0.06471   4.64
C01B  1  0.18777  0.10043  0.32772 11.00000  0.13375   4.60
HKLF 4
END
