TITL 1_expF_1_2_expS_0_9_1_a.res in P2(1)
REM Old TITL 1 in P2
REM SHELXT solution in P2(1): R1 0.230, Rweak 0.066, Alpha 0.006
REM <I/s>   5.521 for    3 systematic absences,  Orientation as input
REM Formula found by SHELXT:  C15 N2 O

CELL  0.71073   8.0000   5.0200  16.0200   90.000  103.140   90.000
ZERR   12.000   0.0016   0.0010   0.0032    0.000    0.030    0.000
LATT -1
SYMM -X, 1/2+Y, -Z
SFAC C N O
UNIT 12 12 12
L.S. 10
BOND
LIST 6
FMAP 2
PLAN 20
O001  3  0.85198  0.85176  0.74692 11.00000  0.07157   7.20
N002  2  0.45436  0.57928  0.77823 11.00000  0.06167   6.61
N003  2  0.79710  0.43797  0.62127 11.00000  0.06109   6.58
C004  1  0.84153  0.63533  0.48656 11.00000  0.05255   6.41
C005  1  0.69609  0.24432  0.57333 11.00000  0.05417   6.27
C006  1  0.87048  0.62798  0.57828 11.00000  0.05231   6.22
C007  1  0.72906  0.44950  0.44060 11.00000  0.05520   6.22
C008  1  0.83588  0.41928  0.71192 11.00000  0.03915   6.00
C009  1  0.85519  0.62125  0.76839 11.00000  0.05494   6.00
C00A  1  1.04528  0.66843  0.91416 11.00000  0.05403   5.90
C00B  1  0.88230  0.55294  0.86192 11.00000  0.04389   5.87
C00C  1  0.72787  0.64661  0.89484 11.00000  0.05175   5.64
C00D  1  0.26603  0.22070  0.78614 11.00000  0.06137   5.61
C00E  1  0.65329  0.25827  0.48015 11.00000  0.05436   5.54
C00F  1  0.37153  0.14824  0.86539 11.00000  0.06470   5.51
C00G  1  0.31240  0.42460  0.74148 11.00000  0.05731   5.51
C00H  1  0.52003  0.28170  0.90184 11.00000  0.05828   5.49
C00I  1  0.55884  0.50130  0.85868 11.00000  0.05233   5.28
HKLF 4
END
