TITL 1_expF_0_9_expS_0_9_1_a.res in P2(1)
REM Old TITL 1 in P2
REM SHELXT solution in P2(1): R1 0.211, Rweak 0.167, Alpha 0.060
REM <I/s>   3.383 for    3 systematic absences,  Orientation as input
REM Formula found by SHELXT:  C15 N2 O

CELL  0.71073   8.0000   5.0200  16.0200   90.000  103.140   90.000
ZERR   12.000   0.0016   0.0010   0.0032    0.000    0.030    0.000
LATT -1
SYMM -X, 1/2+Y, -Z
SFAC C N O
UNIT 12 12 12
L.S. 10
BOND
LIST 6
FMAP 2
PLAN 20
O001  3  0.85167  0.14827  0.74764 11.00000  0.04295   7.51
N002  2  0.83587  0.58382  0.71191 11.00000  0.02923   6.75
C003  1  0.79824  0.56142  0.62149 11.00000  0.02947   6.53
N004  2  0.72797  0.54229  0.44118 11.00000  0.04401   6.51
C005  1  0.69672  0.75973  0.57369 11.00000  0.03044   6.40
C006  1  0.83816  0.36480  0.48807 11.00000  0.03626   6.02
C007  1  0.86817  0.36823  0.57922 11.00000  0.03068   5.98
C008  1  0.85449  0.38088  0.76891 11.00000  0.03246   5.96
C009  1  0.45953  0.42273  0.77709 11.00000  0.03375   5.87
C00A  1  0.88058  0.44879  0.86087 11.00000  0.02489   5.87
C00B  1  0.65523  0.74191  0.48193 11.00000  0.03639   5.60
C00C  1  0.26475  0.78390  0.78566 11.00000  0.04037   5.58
C00D  1  0.31688  0.57234  0.74098 11.00000  0.03829   5.52
C00E  1  1.04670  0.33451  0.91405 11.00000  0.03579   5.52
C00F  1  0.55586  0.49639  0.85793 11.00000  0.02858   5.41
C00G  1  0.72653  0.35282  0.89512 11.00000  0.03003   5.36
C00H  1  0.36854  0.85173  0.86664 11.00000  0.04693   5.20
C00I  1  0.51717  0.71757  0.90344 11.00000  0.04095   4.39
HKLF 4
END
