TITL 1_expF_0_8_expS_0_9_1_a.res in P2(1)
REM Old TITL 1 in P2
REM SHELXT solution in P2(1): R1 0.217, Rweak 0.228, Alpha 0.172
REM <I/s>   2.895 for    3 systematic absences,  Orientation as input
REM Formula found by SHELXT:  C15 N2 O

CELL  0.71073   8.0000   5.0200  16.0200   90.000  103.140   90.000
ZERR   12.000   0.0016   0.0010   0.0032    0.000    0.030    0.000
LATT -1
SYMM -X, 1/2+Y, -Z
SFAC C N O
UNIT 12 12 12
L.S. 10
BOND
LIST 6
FMAP 2
PLAN 20
O001  3  0.85216  0.14991  0.74735 11.00000  0.03451   7.37
N002  2  0.83820  0.36683  0.48895 11.00000  0.03957   7.02
N003  2  0.65486  0.74178  0.48173 11.00000  0.03894   6.62
C004  1  0.79881  0.56431  0.62170 11.00000  0.02624   6.43
C005  1  0.69767  0.76042  0.57310 11.00000  0.02459   6.09
C006  1  0.46113  0.42336  0.77703 11.00000  0.02844   5.97
C007  1  0.26639  0.78314  0.78494 11.00000  0.03815   5.79
C008  1  1.05023  0.33990  0.91363 11.00000  0.03263   5.75
C009  1  0.86974  0.36826  0.57906 11.00000  0.02767   5.75
C00A  1  0.88020  0.44902  0.86080 11.00000  0.02016   5.75
C00B  1  0.83583  0.58505  0.71170 11.00000  0.01700   5.69
C00C  1  0.72828  0.54299  0.44101 11.00000  0.02964   5.46
C00D  1  0.85844  0.38062  0.76822 11.00000  0.02800   5.41
C00E  1  0.51415  0.71190  0.90429 11.00000  0.03325   5.31
C00F  1  0.72795  0.35307  0.89499 11.00000  0.02369   5.29
C00G  1  0.31567  0.57397  0.74169 11.00000  0.03576   4.95
C00H  1  0.37119  0.85009  0.86601 11.00000  0.04383   4.60
C00I  1  0.55421  0.49701  0.85824 11.00000  0.02492   3.75
HKLF 4
END
