TITL 1_expF_0_9_expS_1_5_1_a.res in P2(1)
REM Old TITL 1 in P2
REM SHELXT solution in P2(1): R1 0.220, Rweak 0.179, Alpha 0.040
REM <I/s>   3.283 for    3 systematic absences,  Orientation as input
REM Formula found by SHELXT:  C17 O

CELL  0.71073   8.0000   5.0200  16.0200   90.000  103.140   90.000
ZERR   12.000   0.0016   0.0010   0.0032    0.000    0.030    0.000
LATT -1
SYMM -X, 1/2+Y, -Z
SFAC C N O
UNIT 12 12 12
L.S. 10
BOND
LIST 6
FMAP 2
PLAN 20
O001  3  0.85275  0.84831  0.74765 11.00000  0.04521   7.23
C002  1  0.69913  0.24466  0.57306 11.00000  0.03159   6.49
C003  1  0.85567  0.62237  0.76715 11.00000  0.03326   6.43
C004  1  0.83420  0.41523  0.71249 11.00000  0.02691   6.40
C005  1  0.80093  0.44293  0.62187 11.00000  0.03763   6.40
C006  1  0.72525  0.46514  0.44039 11.00000  0.04061   6.33
C007  1  0.83326  0.63795  0.48954 11.00000  0.03566   6.10
C008  1  0.46073  0.57386  0.77851 11.00000  0.03633   6.00
C009  1  0.26751  0.22155  0.78512 11.00000  0.04566   5.86
C00A  1  0.86937  0.63395  0.58043 11.00000  0.03503   5.81
C00B  1  0.65397  0.25903  0.48076 11.00000  0.03758   5.77
C00C  1  1.05128  0.65490  0.91211 11.00000  0.04256   5.68
C00D  1  0.88079  0.55527  0.86114 11.00000  0.02964   5.57
C00E  1  0.72873  0.65007  0.89488 11.00000  0.03150   5.45
C00F  1  0.31901  0.43238  0.74190 11.00000  0.04114   5.41
C00G  1  0.37133  0.15169  0.86574 11.00000  0.04872   5.31
C00H  1  0.55647  0.50771  0.85779 11.00000  0.03470   5.12
C00I  1  0.51361  0.29655  0.90420 11.00000  0.04458   4.49
HKLF 4
END
