TITL 1_expF_1_1_expS_0_8_1_a.res in P2(1)
REM Old TITL 1 in P2
REM SHELXT solution in P2(1): R1 0.216, Rweak 0.088, Alpha 0.013
REM <I/s>   4.798 for    3 systematic absences,  Orientation as input
REM Formula found by SHELXT:  C17 O

CELL  0.71073   8.0000   5.0200  16.0200   90.000  103.140   90.000
ZERR   12.000   0.0016   0.0010   0.0032    0.000    0.030    0.000
LATT -1
SYMM -X, 1/2+Y, -Z
SFAC C N O
UNIT 12 12 12
L.S. 10
BOND
LIST 6
FMAP 2
PLAN 20
O001  3  0.85272  0.85127  0.74658 11.00000  0.06615   7.20
C002  1  0.45600  0.57967  0.77797 11.00000  0.04811   6.46
C003  1  0.79703  0.43851  0.62113 11.00000  0.04507   6.45
C004  1  0.72761  0.45404  0.44130 11.00000  0.05014   6.32
C005  1  0.69511  0.24323  0.57456 11.00000  0.04945   6.22
C006  1  0.83956  0.63617  0.48692 11.00000  0.05032   6.22
C007  1  0.86707  0.63232  0.57881 11.00000  0.04627   6.17
C008  1  0.83474  0.41963  0.71124 11.00000  0.03606   6.09
C009  1  0.85283  0.62165  0.76880 11.00000  0.04892   6.04
C00A  1  0.88092  0.55363  0.86118 11.00000  0.03944   5.84
C00B  1  1.04571  0.66750  0.91448 11.00000  0.05091   5.79
C00C  1  0.26564  0.21838  0.78655 11.00000  0.05566   5.61
C00D  1  0.72442  0.64903  0.89481 11.00000  0.04701   5.59
C00E  1  0.65518  0.25768  0.48042 11.00000  0.05111   5.52
C00F  1  0.31351  0.42831  0.74083 11.00000  0.05442   5.48
C00G  1  0.36727  0.14873  0.86570 11.00000  0.05945   5.44
C00H  1  0.55774  0.50414  0.85834 11.00000  0.04596   5.28
C00I  1  0.51793  0.28157  0.90171 11.00000  0.05413   4.93
HKLF 4
END
