TITL 1_expF_1_0_expS_0_5_1_a.res in P2(1)
REM Old TITL 1 in P2
REM SHELXT solution in P2(1): R1 0.211, Rweak 0.127, Alpha 0.035
REM <I/s>   4.454 for    3 systematic absences,  Orientation as input
REM Formula found by SHELXT:  C16 N O

CELL  0.71073   8.0000   5.0200  16.0200   90.000  103.140   90.000
ZERR   12.000   0.0016   0.0010   0.0032    0.000    0.030    0.000
LATT -1
SYMM -X, 1/2+Y, -Z
SFAC C N O
UNIT 12 12 12
L.S. 10
BOND
LIST 6
FMAP 2
PLAN 20
O001  3  0.14711  0.85201  0.25365 11.00000  0.06044   7.65
N002  2  0.20353  0.43478  0.37876 11.00000  0.05126   6.81
C003  1  0.54287  0.57800  0.22244 11.00000  0.04431   6.47
C004  1  0.16398  0.41768  0.28873 11.00000  0.03037   6.34
C005  1  0.16018  0.63396  0.51219 11.00000  0.04425   6.32
C006  1  0.30295  0.24014  0.42578 11.00000  0.04283   6.29
C007  1  0.27247  0.45173  0.55877 11.00000  0.04298   6.21
C008  1  0.13316  0.62921  0.42190 11.00000  0.04172   6.20
C009  1 -0.04589  0.66570  0.08639 11.00000  0.04563   6.04
C00A  1  0.14398  0.61935  0.23211 11.00000  0.04272   6.02
C00B  1  0.11975  0.55105  0.13851 11.00000  0.03498   5.92
C00C  1  0.34340  0.25581  0.51923 11.00000  0.04614   5.66
C00D  1  0.73731  0.21931  0.21443 11.00000  0.05207   5.55
C00E  1  0.27481  0.64680  0.10518 11.00000  0.04554   5.49
C00F  1  0.68829  0.42658  0.25766 11.00000  0.04948   5.44
C00G  1  0.44069  0.50086  0.14220 11.00000  0.03933   5.26
C00H  1  0.48471  0.27779  0.09753 11.00000  0.05097   5.17
C00I  1  0.62944  0.14799  0.13471 11.00000  0.05665   5.12
HKLF 4
END
