TITL 1_expF_1_5_expS_1_2_1_a.res in P2(1)
REM Old TITL 1 in P2
REM SHELXT solution in P2(1): R1 0.324, Rweak 0.034, Alpha 0.004
REM <I/s>   8.495 for    3 systematic absences,  Orientation as input
REM Formula found by SHELXT:  C14 N3 O

CELL  0.71073   8.0000   5.0200  16.0200   90.000  103.140   90.000
ZERR   12.000   0.0016   0.0010   0.0032    0.000    0.030    0.000
LATT -1
SYMM -X, 1/2+Y, -Z
SFAC C N O
UNIT 12 12 12
L.S. 10
BOND
LIST 6
FMAP 2
PLAN 20
N001  2  0.14936  0.36159  0.51521 11.00000  0.08238   6.81
O002  3  0.15307  0.14408  0.25033 11.00000  0.09360   6.77
N003  2  0.54369  0.40673  0.22305 11.00000  0.08167   6.68
N004  2  0.19866  0.55723  0.37834 11.00000  0.08372   6.51
C005  1  0.12992  0.36842  0.42375 11.00000  0.07114   6.50
C006  1  0.27136  0.35376  0.10609 11.00000  0.06954   6.15
C007  1  0.26623  0.54831  0.55899 11.00000  0.06941   6.14
C008  1  0.30164  0.76096  0.42880 11.00000  0.08053   6.06
C009  1  0.14961  0.37141  0.23206 11.00000  0.06663   5.93
C00A  1  0.46649  0.70707  0.10016 11.00000  0.08950   5.86
C00B  1  0.12097  0.44068  0.13763 11.00000  0.06133   5.69
C00C  1  0.74113  0.77800  0.21558 11.00000  0.08796   5.65
C00D  1  0.63339  0.85592  0.13830 11.00000  0.08282   5.62
C00E  1  0.16561  0.57673  0.28466 11.00000  0.06024   5.58
C00F  1 -0.04032  0.31675  0.08500 11.00000  0.07253   5.57
C00G  1  0.68673  0.56672  0.25723 11.00000  0.06885   5.42
C00H  1  0.34234  0.74329  0.51715 11.00000  0.06938   5.37
C00I  1  0.44564  0.49592  0.14095 11.00000  0.07208   5.23
HKLF 4
END
