TITL 1_expF_0_8_expS_1_5_1_a.res in P2(1)
REM Old TITL 1 in P2
REM SHELXT solution in P2(1): R1 0.227, Rweak 0.248, Alpha 0.172
REM <I/s>   2.861 for    3 systematic absences,  Orientation as input
REM Formula found by SHELXT:  C15 N2 O

CELL  0.71073   8.0000   5.0200  16.0200   90.000  103.140   90.000
ZERR   12.000   0.0016   0.0010   0.0032    0.000    0.030    0.000
LATT -1
SYMM -X, 1/2+Y, -Z
SFAC C N O
UNIT 12 12 12
L.S. 10
BOND
LIST 6
FMAP 2
PLAN 20
O001  3  0.85331  0.15597  0.74799 11.00000  0.03824   7.37
N002  2  0.83262  0.36045  0.48936 11.00000  0.03722   7.02
N003  2  0.65281  0.74070  0.48022 11.00000  0.03998   6.62
C004  1  0.80028  0.55553  0.62219 11.00000  0.03155   6.43
C005  1  0.70003  0.75311  0.57275 11.00000  0.02606   6.09
C006  1  0.46154  0.43007  0.77805 11.00000  0.03139   5.97
C007  1  0.26945  0.77515  0.78361 11.00000  0.04225   5.79
C008  1  1.05277  0.34637  0.91155 11.00000  0.03561   5.75
C009  1  0.86923  0.36320  0.58079 11.00000  0.02991   5.75
C00A  1  0.87987  0.44312  0.86129 11.00000  0.02390   5.75
C00B  1  0.83444  0.58338  0.71281 11.00000  0.02130   5.69
C00C  1  0.72348  0.52727  0.43969 11.00000  0.03429   5.46
C00D  1  0.85931  0.37809  0.76698 11.00000  0.02713   5.41
C00E  1  0.51040  0.69679  0.90505 11.00000  0.03967   5.31
C00F  1  0.72771  0.34816  0.89481 11.00000  0.02621   5.29
C00G  1  0.32039  0.56387  0.74206 11.00000  0.03738   4.95
C00H  1  0.37148  0.84403  0.86523 11.00000  0.04296   4.60
C00I  1  0.55645  0.48804  0.85725 11.00000  0.03096   3.75
HKLF 4
END
