TITL 1_expF_0_9_expS_1_4_1_a.res in P2(1)
REM Old TITL 1 in P2
REM SHELXT solution in P2(1): R1 0.219, Rweak 0.174, Alpha 0.046
REM <I/s>   3.283 for    3 systematic absences,  Orientation as input
REM Formula found by SHELXT:  C16 N O

CELL  0.71073   8.0000   5.0200  16.0200   90.000  103.140   90.000
ZERR   12.000   0.0016   0.0010   0.0032    0.000    0.030    0.000
LATT -1
SYMM -X, 1/2+Y, -Z
SFAC C N O
UNIT 12 12 12
L.S. 10
BOND
LIST 6
FMAP 2
PLAN 20
O001  3  0.14854  0.84886  0.25198 11.00000  0.04242   7.13
N002  2  0.16497  0.41578  0.28745 11.00000  0.03121   6.55
C003  1  0.53723  0.57484  0.22231 11.00000  0.03524   6.41
C004  1  0.20026  0.44225  0.37799 11.00000  0.03434   6.30
C005  1  0.14437  0.62217  0.23191 11.00000  0.03293   6.22
C006  1  0.27454  0.46266  0.55925 11.00000  0.03847   6.19
C007  1  0.30209  0.24443  0.42670 11.00000  0.02974   6.06
C008  1  0.13094  0.63489  0.41969 11.00000  0.03220   6.00
C009  1  0.16439  0.63777  0.51088 11.00000  0.03534   5.93
C00A  1 -0.05015  0.65689  0.08720 11.00000  0.03975   5.87
C00B  1  0.11916  0.55298  0.13908 11.00000  0.02717   5.75
C00C  1  0.34550  0.25946  0.51873 11.00000  0.03622   5.73
C00D  1  0.73194  0.21879  0.21476 11.00000  0.04284   5.57
C00E  1  0.68045  0.43101  0.25883 11.00000  0.04002   5.28
C00F  1  0.44380  0.50837  0.14231 11.00000  0.03258   5.26
C00G  1  0.27147  0.64965  0.10486 11.00000  0.03006   5.22
C00H  1  0.62918  0.15114  0.13355 11.00000  0.04854   5.19
C00I  1  0.48561  0.29433  0.09549 11.00000  0.04194   4.89
HKLF 4
END
