TITL 1_expF_0_8_expS_0_6_1_a.res in P2(1)
REM Old TITL 1 in P2
REM SHELXT solution in P2(1): R1 0.215, Rweak 0.224, Alpha 0.172
REM <I/s>   3.072 for    3 systematic absences,  Orientation as input
REM Formula found by SHELXT:  C15 N2 O

CELL  0.71073   8.0000   5.0200  16.0200   90.000  103.140   90.000
ZERR   12.000   0.0016   0.0010   0.0032    0.000    0.030    0.000
LATT -1
SYMM -X, 1/2+Y, -Z
SFAC C N O
UNIT 12 12 12
L.S. 10
BOND
LIST 6
FMAP 2
PLAN 20
O001  3  0.85273  0.14921  0.74709 11.00000  0.03706   7.37
N002  2  0.84057  0.36777  0.48854 11.00000  0.04198   7.02
N003  2  0.65747  0.74213  0.48164 11.00000  0.04165   6.62
C004  1  0.79725  0.56694  0.62161 11.00000  0.02646   6.43
C005  1  0.69772  0.76224  0.57367 11.00000  0.02735   6.09
C006  1  0.45895  0.42313  0.77696 11.00000  0.02960   5.97
C007  1  0.26390  0.78398  0.78500 11.00000  0.03826   5.79
C008  1  1.04860  0.33752  0.91417 11.00000  0.03230   5.75
C009  1  0.86884  0.36905  0.57816 11.00000  0.02870   5.75
C00A  1  0.87979  0.45117  0.86084 11.00000  0.01991   5.75
C00B  1  0.83662  0.58467  0.71144 11.00000  0.01668   5.69
C00C  1  0.72882  0.54716  0.44132 11.00000  0.02902   5.46
C00D  1  0.85894  0.38168  0.76834 11.00000  0.02800   5.41
C00E  1  0.51440  0.71628  0.90351 11.00000  0.03377   5.31
C00F  1  0.72773  0.35336  0.89491 11.00000  0.02738   5.29
C00G  1  0.31472  0.57614  0.74159 11.00000  0.03650   4.95
C00H  1  0.37067  0.85079  0.86554 11.00000  0.04410   4.60
C00I  1  0.55542  0.49922  0.85794 11.00000  0.02508   3.75
HKLF 4
END
