TITL 1_expF_1_5_expS_1_0_1_a.res in P2(1)
REM Old TITL 1 in P2
REM SHELXT solution in P2(1): R1 0.313, Rweak 0.029, Alpha 0.003
REM <I/s>   9.011 for    3 systematic absences,  Orientation as input
REM Formula found by SHELXT:  C16 N O

CELL  0.71073   8.0000   5.0200  16.0200   90.000  103.140   90.000
ZERR   12.000   0.0016   0.0010   0.0032    0.000    0.030    0.000
LATT -1
SYMM -X, 1/2+Y, -Z
SFAC C N O
UNIT 12 12 12
L.S. 10
BOND
LIST 6
FMAP 2
PLAN 20
O001  3  0.15260  0.85406  0.24954 11.00000  0.10462   6.69
N002  2  0.54204  0.59157  0.22351 11.00000  0.08428   6.62
C003  1  0.14521  0.63846  0.51484 11.00000  0.07578   6.48
C004  1  0.20414  0.43971  0.37822 11.00000  0.07411   6.48
C005  1  0.12908  0.63580  0.42409 11.00000  0.07274   6.40
C006  1  0.27049  0.64448  0.10656 11.00000  0.07448   6.19
C007  1  0.47254  0.29018  0.09980 11.00000  0.09145   6.11
C008  1  0.29876  0.23434  0.42819 11.00000  0.08308   6.07
C009  1  0.26686  0.44813  0.56005 11.00000  0.07553   6.04
C00A  1  0.12078  0.55739  0.13772 11.00000  0.06520   5.92
C00B  1  0.15004  0.62068  0.23153 11.00000  0.07202   5.90
C00C  1  0.63195  0.14594  0.13814 11.00000  0.08379   5.88
C00D  1 -0.03875  0.68059  0.08393 11.00000  0.07724   5.78
C00E  1  0.74701  0.21210  0.21692 11.00000  0.09154   5.62
C00F  1  0.16260  0.42418  0.28418 11.00000  0.06618   5.53
C00G  1  0.68825  0.43159  0.25798 11.00000  0.07219   5.50
C00H  1  0.44651  0.50365  0.14027 11.00000  0.07683   5.27
C00I  1  0.34203  0.25350  0.51648 11.00000  0.07459   5.01
HKLF 4
END
