TITL 1_expF_0_8_expS_1_3_1_a.res in P2(1)
REM Old TITL 1 in P2
REM SHELXT solution in P2(1): R1 0.222, Rweak 0.235, Alpha 0.172
REM <I/s>   2.827 for    3 systematic absences,  Orientation as input
REM Formula found by SHELXT:  C15 N2 O

CELL  0.71073   8.0000   5.0200  16.0200   90.000  103.140   90.000
ZERR   12.000   0.0016   0.0010   0.0032    0.000    0.030    0.000
LATT -1
SYMM -X, 1/2+Y, -Z
SFAC C N O
UNIT 12 12 12
L.S. 10
BOND
LIST 6
FMAP 2
PLAN 20
O001  3  0.85251  0.15337  0.74753 11.00000  0.03691   7.37
N002  2  0.83441  0.36297  0.48920 11.00000  0.03809   7.02
N003  2  0.65315  0.74051  0.48071 11.00000  0.03917   6.62
C004  1  0.79998  0.55764  0.62202 11.00000  0.02947   6.43
C005  1  0.69883  0.75503  0.57275 11.00000  0.02525   6.09
C006  1  0.46231  0.42669  0.77794 11.00000  0.02992   5.97
C007  1  0.26842  0.77600  0.78409 11.00000  0.04057   5.79
C008  1  1.05238  0.34505  0.91231 11.00000  0.03495   5.75
C009  1  0.86978  0.36498  0.58049 11.00000  0.02909   5.75
C00A  1  0.88011  0.44445  0.86107 11.00000  0.02286   5.75
C00B  1  0.83483  0.58461  0.71229 11.00000  0.02004   5.69
C00C  1  0.72505  0.53206  0.44028 11.00000  0.03308   5.46
C00D  1  0.85884  0.37895  0.76726 11.00000  0.02741   5.41
C00E  1  0.51210  0.70125  0.90497 11.00000  0.03707   5.31
C00F  1  0.72804  0.34938  0.89499 11.00000  0.02469   5.29
C00G  1  0.31890  0.56659  0.74193 11.00000  0.03716   4.95
C00H  1  0.37208  0.84663  0.86571 11.00000  0.04352   4.60
C00I  1  0.55555  0.49106  0.85768 11.00000  0.02898   3.75
HKLF 4
END
