TITL 1_expF_1_3_expS_1_0_1_a.res in P2(1)
REM Old TITL 1 in P2
REM SHELXT solution in P2(1): R1 0.250, Rweak 0.052, Alpha 0.012
REM <I/s>   6.360 for    3 systematic absences,  Orientation as input
REM Formula found by SHELXT:  C16 N O

CELL  0.71073   8.0000   5.0200  16.0200   90.000  103.140   90.000
ZERR   12.000   0.0016   0.0010   0.0032    0.000    0.030    0.000
LATT -1
SYMM -X, 1/2+Y, -Z
SFAC C N O
UNIT 12 12 12
L.S. 10
BOND
LIST 6
FMAP 2
PLAN 20
O001  3  0.14462  0.14677  0.25241 11.00000  0.08015   6.90
N002  2  0.54439  0.42098  0.22169 11.00000  0.06635   6.75
C003  1  0.20159  0.56682  0.37877 11.00000  0.05246   6.47
C004  1  0.15692  0.36308  0.51295 11.00000  0.05970   6.44
C005  1  0.13032  0.37104  0.42218 11.00000  0.05802   6.26
C006  1  0.26764  0.54982  0.55850 11.00000  0.05986   6.19
C007  1  0.30462  0.75707  0.42680 11.00000  0.06236   6.15
C008  1  0.14773  0.38077  0.23069 11.00000  0.06069   6.00
C009  1  0.16551  0.57974  0.28748 11.00000  0.04438   5.96
C00A  1  0.27483  0.35756  0.10589 11.00000  0.05582   5.88
C00B  1 -0.04318  0.33166  0.08551 11.00000  0.05816   5.86
C00C  1  0.11743  0.44705  0.13783 11.00000  0.05218   5.80
C00D  1  0.63011  0.85323  0.13387 11.00000  0.06973   5.64
C00E  1  0.73764  0.78354  0.21421 11.00000  0.06402   5.64
C00F  1  0.34577  0.74172  0.51886 11.00000  0.05733   5.59
C00G  1  0.47916  0.71827  0.09826 11.00000  0.06499   5.56
C00H  1  0.68554  0.57245  0.25816 11.00000  0.05909   5.55
C00I  1  0.44216  0.50121  0.14104 11.00000  0.05941   5.18
HKLF 4
END
