TITL 1_expF_0_8_expS_0_8_1_a.res in P2(1)
REM Old TITL 1 in P2
REM SHELXT solution in P2(1): R1 0.216, Rweak 0.224, Alpha 0.172
REM <I/s>   2.941 for    3 systematic absences,  Orientation as input
REM Formula found by SHELXT:  C15 N2 O

CELL  0.71073   8.0000   5.0200  16.0200   90.000  103.140   90.000
ZERR   12.000   0.0016   0.0010   0.0032    0.000    0.030    0.000
LATT -1
SYMM -X, 1/2+Y, -Z
SFAC C N O
UNIT 12 12 12
L.S. 10
BOND
LIST 6
FMAP 2
PLAN 20
O001  3  0.85237  0.14951  0.74730 11.00000  0.03475   7.37
N002  2  0.83898  0.36723  0.48884 11.00000  0.04004   7.02
N003  2  0.65560  0.74200  0.48181 11.00000  0.03944   6.62
C004  1  0.79839  0.56526  0.62163 11.00000  0.02595   6.43
C005  1  0.69764  0.76125  0.57327 11.00000  0.02510   6.09
C006  1  0.46041  0.42323  0.77694 11.00000  0.02858   5.97
C007  1  0.26556  0.78393  0.78500 11.00000  0.03790   5.79
C008  1  1.04971  0.33905  0.91389 11.00000  0.03220   5.75
C009  1  0.86937  0.36849  0.57872 11.00000  0.02777   5.75
C00A  1  0.88008  0.44991  0.86080 11.00000  0.01978   5.75
C00B  1  0.83613  0.58495  0.71163 11.00000  0.01651   5.69
C00C  1  0.72861  0.54468  0.44110 11.00000  0.02918   5.46
C00D  1  0.85852  0.38091  0.76833 11.00000  0.02787   5.41
C00E  1  0.51433  0.71368  0.90400 11.00000  0.03286   5.31
C00F  1  0.72798  0.35347  0.89497 11.00000  0.02440   5.29
C00G  1  0.31521  0.57493  0.74161 11.00000  0.03563   4.95
C00H  1  0.37076  0.85049  0.86587 11.00000  0.04359   4.60
C00I  1  0.55445  0.49786  0.85820 11.00000  0.02457   3.75
HKLF 4
END
