TITL 1_expF_1_1_expS_1_4_1_a.res in P2(1)
REM Old TITL 1 in P2
REM SHELXT solution in P2(1): R1 0.235, Rweak 0.090, Alpha 0.013
REM <I/s>   4.380 for    3 systematic absences,  Orientation as input
REM Formula found by SHELXT:  C17 O

CELL  0.71073   8.0000   5.0200  16.0200   90.000  103.140   90.000
ZERR   12.000   0.0016   0.0010   0.0032    0.000    0.030    0.000
LATT -1
SYMM -X, 1/2+Y, -Z
SFAC C N O
UNIT 12 12 12
L.S. 10
BOND
LIST 6
FMAP 2
PLAN 20
O001  3  0.85367  0.85269  0.74737 11.00000  0.05736   7.20
C002  1  0.45791  0.57668  0.77792 11.00000  0.04656   6.46
C003  1  0.79983  0.43791  0.62156 11.00000  0.04479   6.45
C004  1  0.72661  0.45637  0.44153 11.00000  0.04865   6.32
C005  1  0.69552  0.24349  0.57370 11.00000  0.04404   6.22
C006  1  0.83814  0.63914  0.48863 11.00000  0.04764   6.22
C007  1  0.87007  0.63008  0.57948 11.00000  0.04219   6.17
C008  1  0.83376  0.41812  0.71232 11.00000  0.03513   6.09
C009  1  0.85029  0.62160  0.76824 11.00000  0.04539   6.04
C00A  1  0.88134  0.55512  0.86102 11.00000  0.03744   5.84
C00B  1  1.04570  0.66764  0.91321 11.00000  0.05073   5.79
C00C  1  0.26808  0.21794  0.78548 11.00000  0.05233   5.61
C00D  1  0.72568  0.64926  0.89403 11.00000  0.04081   5.59
C00E  1  0.65456  0.25978  0.48131 11.00000  0.04640   5.52
C00F  1  0.31703  0.42831  0.74106 11.00000  0.04870   5.48
C00G  1  0.36695  0.14731  0.86568 11.00000  0.05869   5.44
C00H  1  0.55552  0.50513  0.85751 11.00000  0.04264   5.28
C00I  1  0.51889  0.28530  0.90244 11.00000  0.05397   4.93
HKLF 4
END
