TITL 1_expF_0_9_expS_1_2_1_a.res in P2(1)
REM Old TITL 1 in P2
REM SHELXT solution in P2(1): R1 0.215, Rweak 0.177, Alpha 0.039
REM <I/s>   3.290 for    3 systematic absences,  Orientation as input
REM Formula found by SHELXT:  C15 N2 O

CELL  0.71073   8.0000   5.0200  16.0200   90.000  103.140   90.000
ZERR   12.000   0.0016   0.0010   0.0032    0.000    0.030    0.000
LATT -1
SYMM -X, 1/2+Y, -Z
SFAC C N O
UNIT 12 12 12
L.S. 10
BOND
LIST 6
FMAP 2
PLAN 20
O001  3  0.14594  0.85152  0.25346 11.00000  0.04183   6.97
N002  2  0.54195  0.57755  0.22103 11.00000  0.04075   6.74
N003  2  0.20030  0.43990  0.37855 11.00000  0.04103   6.55
C004  1  0.16476  0.41520  0.28848 11.00000  0.02387   6.35
C005  1  0.27318  0.45772  0.55908 11.00000  0.03637   6.27
C006  1  0.14410  0.62173  0.23191 11.00000  0.03307   6.21
C007  1  0.12940  0.63136  0.42041 11.00000  0.03306   6.04
C008  1  0.16533  0.63522  0.51057 11.00000  0.03536   5.97
C009  1  0.30265  0.24226  0.42656 11.00000  0.02980   5.92
C00A  1  0.34568  0.25951  0.51873 11.00000  0.03444   5.84
C00B  1 -0.04880  0.66082  0.08663 11.00000  0.03985   5.74
C00C  1  0.11970  0.55473  0.13859 11.00000  0.02673   5.46
C00D  1  0.73385  0.21915  0.21390 11.00000  0.04307   5.40
C00E  1  0.68423  0.42950  0.25804 11.00000  0.03804   5.24
C00F  1  0.27069  0.64847  0.10488 11.00000  0.02883   5.22
C00G  1  0.44526  0.50364  0.14154 11.00000  0.03131   5.22
C00H  1  0.62737  0.14848  0.13333 11.00000  0.04838   5.09
C00I  1  0.48295  0.28937  0.09674 11.00000  0.04145   4.96
HKLF 4
END
