TITL 1_expF_1_5_expS_1_5_1_a.res in P2(1)
REM Old TITL 1 in P2
REM SHELXT solution in P2(1): R1 0.369, Rweak 0.034, Alpha 0.006
REM <I/s>   7.978 for    3 systematic absences,  Orientation as input
REM Formula found by SHELXT:  C15 N2 O2

CELL  0.71073   8.0000   5.0200  16.0200   90.000  103.140   90.000
ZERR   12.000   0.0016   0.0010   0.0032    0.000    0.030    0.000
LATT -1
SYMM -X, 1/2+Y, -Z
SFAC C N O
UNIT 12 12 12
L.S. 10
BOND
LIST 6
FMAP 2
PLAN 20
O001  3  0.15399  0.14391  0.24942 11.00000  0.08349   6.72
C002  1  0.13057  0.37700  0.42398 11.00000  0.06267   6.61
N003  2  0.19653  0.56814  0.37860 11.00000  0.07177   6.61
N004  2  0.15039  0.36911  0.51344 11.00000  0.07360   6.60
C005  1  0.46801  0.71398  0.09932 11.00000  0.08039   6.37
C006  1  0.27533  0.35669  0.10776 11.00000  0.06599   6.31
C007  1  0.27122  0.55282  0.55915 11.00000  0.06621   6.26
C008  1  0.53532  0.42004  0.22335 11.00000  0.06483   6.16
C009  1  0.12145  0.44596  0.13779 11.00000  0.05573   6.06
C00A  1  0.63076  0.85609  0.13718 11.00000  0.07837   5.93
C00B  1  0.30656  0.76302  0.42727 11.00000  0.06694   5.92
C00C  1  0.15292  0.37698  0.23162 11.00000  0.06237   5.84
C00D  1 -0.03580  0.32259  0.08555 11.00000  0.06982   5.69
C00E  1  0.16804  0.58020  0.28531 11.00000  0.05534   5.45
C00F  1  0.73381  0.78244  0.21363 11.00000  0.07898   5.44
C00G  1  0.68431  0.57499  0.25821 11.00000  0.06239   5.32
C00H  1  0.44509  0.49813  0.14092 11.00000  0.06786   5.13
C00I  1  0.34552  0.74225  0.51636 11.00000  0.06575   4.99
O00J  3  0.06384  0.25288  0.40645 11.00000  0.27759   3.26
HKLF 4
END
