TITL 1_expF_1_0_expS_0_9_1_a.res in P2(1)
REM Old TITL 1 in P2
REM SHELXT solution in P2(1): R1 0.211, Rweak 0.131, Alpha 0.030
REM <I/s>   3.968 for    3 systematic absences,  Orientation as input
REM Formula found by SHELXT:  C15 N2 O

CELL  0.71073   8.0000   5.0200  16.0200   90.000  103.140   90.000
ZERR   12.000   0.0016   0.0010   0.0032    0.000    0.030    0.000
LATT -1
SYMM -X, 1/2+Y, -Z
SFAC C N O
UNIT 12 12 12
L.S. 10
BOND
LIST 6
FMAP 2
PLAN 20
O001  3  0.85394  0.85253  0.74649 11.00000  0.05251   6.89
N002  2  0.79827  0.43763  0.62114 11.00000  0.04715   6.57
N003  2  0.45652  0.57784  0.77849 11.00000  0.05042   6.51
C004  1  0.83559  0.41766  0.71156 11.00000  0.02787   6.41
C005  1  0.72790  0.45321  0.44105 11.00000  0.04103   6.21
C006  1  0.69666  0.24082  0.57381 11.00000  0.03788   6.18
C007  1  0.85477  0.62131  0.76841 11.00000  0.03991   6.08
C008  1  0.83760  0.63469  0.48827 11.00000  0.04067   5.98
C009  1  0.86866  0.63158  0.57853 11.00000  0.03870   5.92
C00A  1  0.65554  0.25807  0.48151 11.00000  0.04114   5.89
C00B  1  1.04648  0.66613  0.91389 11.00000  0.04287   5.86
C00C  1  0.87974  0.55282  0.86171 11.00000  0.03230   5.78
C00D  1  0.72803  0.64780  0.89506 11.00000  0.03763   5.52
C00E  1  0.26378  0.21736  0.78583 11.00000  0.04777   5.47
C00F  1  0.37003  0.14747  0.86599 11.00000  0.05465   5.32
C00G  1  0.31337  0.42837  0.74213 11.00000  0.04495   5.32
C00H  1  0.51722  0.28247  0.90240 11.00000  0.04522   4.99
C00I  1  0.55573  0.50171  0.85838 11.00000  0.03711   4.89
HKLF 4
END
