TITL 1_expF_0_7_expS_0_7_1_a.res in P2(1)
REM Old TITL 1 in P2
REM SHELXT solution in P2(1): R1 0.228, Rweak 0.308, Alpha 0.112
REM <I/s>   2.553 for    3 systematic absences,  Orientation as input
REM Formula found by SHELXT:  C16 N O

CELL  0.71073   8.0000   5.0200  16.0200   90.000  103.140   90.000
ZERR   12.000   0.0016   0.0010   0.0032    0.000    0.030    0.000
LATT -1
SYMM -X, 1/2+Y, -Z
SFAC C N O
UNIT 12 12 12
L.S. 10
BOND
LIST 6
FMAP 2
PLAN 20
O001  3  0.14818  0.85065  0.25184 11.00000  0.02554   7.42
N002  2  0.16393  0.41422  0.28843 11.00000  0.01695   7.13
C003  1  0.14111  0.61978  0.23086 11.00000  0.02148   6.94
C004  1  0.20307  0.44005  0.37781 11.00000  0.01955   6.23
C005  1  0.27203  0.45937  0.55871 11.00000  0.02371   6.22
C006  1  0.16327  0.63324  0.51177 11.00000  0.02775   6.02
C007  1  0.11935  0.55138  0.13951 11.00000  0.01296   5.98
C008  1  0.30373  0.23941  0.42648 11.00000  0.01765   5.92
C009  1 -0.05047  0.65913  0.08587 11.00000  0.02642   5.87
C00A  1  0.13010  0.63313  0.42000 11.00000  0.01937   5.75
C00B  1  0.73499  0.21549  0.21493 11.00000  0.03064   5.66
C00C  1  0.44640  0.50541  0.14256 11.00000  0.01782   5.50
C00D  1  0.53699  0.57807  0.22330 11.00000  0.02157   5.45
C00E  1  0.34217  0.25869  0.51824 11.00000  0.02785   5.44
C00F  1  0.68250  0.42648  0.26029 11.00000  0.02925   5.41
C00G  1  0.62558  0.14935  0.13270 11.00000  0.03714   5.34
C00H  1  0.27116  0.64727  0.10446 11.00000  0.01729   4.88
C00I  1  0.48698  0.28905  0.09469 11.00000  0.02491   4.54
HKLF 4
END
