TITL 1_expF_1_4_expS_1_4_1_a.res in P2(1)
REM Old TITL 1 in P2
REM SHELXT solution in P2(1): R1 0.302, Rweak 0.038, Alpha 0.007
REM <I/s>   6.923 for    3 systematic absences,  Orientation as input
REM Formula found by SHELXT:  C15 N2 O

CELL  0.71073   8.0000   5.0200  16.0200   90.000  103.140   90.000
ZERR   12.000   0.0016   0.0010   0.0032    0.000    0.030    0.000
LATT -1
SYMM -X, 1/2+Y, -Z
SFAC C N O
UNIT 12 12 12
L.S. 10
BOND
LIST 6
FMAP 2
PLAN 20
O001  3  0.85495  0.85299  0.74923 11.00000  0.08350   6.92
N002  2  0.45812  0.58778  0.77817 11.00000  0.07082   6.70
N003  2  0.84684  0.64119  0.48748 11.00000  0.07467   6.51
C004  1  0.80006  0.43541  0.62227 11.00000  0.05979   6.36
C005  1  0.87248  0.62996  0.57759 11.00000  0.06216   6.33
C006  1  0.73329  0.45345  0.44038 11.00000  0.06272   6.07
C007  1  0.85031  0.62379  0.76833 11.00000  0.06135   5.96
C008  1  0.69865  0.24451  0.57137 11.00000  0.06588   5.94
C009  1  0.72825  0.64700  0.89374 11.00000  0.05790   5.80
C00A  1  1.04180  0.67750  0.91302 11.00000  0.06307   5.75
C00B  1  0.52166  0.28746  0.90127 11.00000  0.07158   5.75
C00C  1  0.83336  0.42253  0.71419 11.00000  0.04950   5.74
C00D  1  0.88221  0.55967  0.86144 11.00000  0.05404   5.66
C00E  1  0.36881  0.14701  0.86436 11.00000  0.07558   5.64
C00F  1  0.31348  0.42714  0.74200 11.00000  0.05933   5.53
C00G  1  0.26168  0.21965  0.78436 11.00000  0.07566   5.53
C00H  1  0.55507  0.50502  0.85791 11.00000  0.06069   5.30
C00I  1  0.65588  0.25959  0.48183 11.00000  0.06084   5.27
HKLF 4
END
