TITL 1_expF_1_5_expS_1_4_1_a.res in P2(1)
REM Old TITL 1 in P2
REM SHELXT solution in P2(1): R1 0.347, Rweak 0.034, Alpha 0.009
REM <I/s>   8.131 for    3 systematic absences,  Orientation as input
REM Formula found by SHELXT:  C15 N2 O

CELL  0.71073   8.0000   5.0200  16.0200   90.000  103.140   90.000
ZERR   12.000   0.0016   0.0010   0.0032    0.000    0.030    0.000
LATT -1
SYMM -X, 1/2+Y, -Z
SFAC C N O
UNIT 12 12 12
L.S. 10
BOND
LIST 6
FMAP 2
PLAN 20
O001  3  0.84832  0.14147  0.75006 11.00000  0.08760   6.78
N002  2  0.84608  0.36204  0.48677 11.00000  0.07655   6.59
C003  1  0.80368  0.56547  0.62173 11.00000  0.06739   6.58
N004  2  0.87020  0.37079  0.57658 11.00000  0.07411   6.55
C005  1  0.46213  0.41764  0.77711 11.00000  0.06916   6.43
C006  1  0.72755  0.35008  0.89241 11.00000  0.06919   6.22
C007  1  0.53198  0.70852  0.90044 11.00000  0.08114   6.15
C008  1  0.72941  0.54433  0.44125 11.00000  0.06977   6.08
C009  1  0.69473  0.75854  0.57184 11.00000  0.07226   6.05
C00A  1  0.87874  0.44114  0.86232 11.00000  0.05972   6.03
C00B  1  0.36895  0.85853  0.86141 11.00000  0.07747   5.88
C00C  1  0.84971  0.37592  0.76828 11.00000  0.06375   5.82
C00D  1  0.26355  0.77436  0.78551 11.00000  0.08269   5.72
C00E  1  1.04060  0.32284  0.91500 11.00000  0.07429   5.69
C00F  1  0.83482  0.58019  0.71633 11.00000  0.05774   5.38
C00G  1  0.55423  0.49712  0.85891 11.00000  0.07121   5.30
C00H  1  0.31557  0.57226  0.74166 11.00000  0.06385   5.21
C00I  1  0.65662  0.74300  0.48355 11.00000  0.06837   5.06
HKLF 4
END
