TITL 1_expF_0_8_expS_1_4_1_a.res in P2(1)
REM Old TITL 1 in P2
REM SHELXT solution in P2(1): R1 0.225, Rweak 0.243, Alpha 0.172
REM <I/s>   2.854 for    3 systematic absences,  Orientation as input
REM Formula found by SHELXT:  C15 N2 O

CELL  0.71073   8.0000   5.0200  16.0200   90.000  103.140   90.000
ZERR   12.000   0.0016   0.0010   0.0032    0.000    0.030    0.000
LATT -1
SYMM -X, 1/2+Y, -Z
SFAC C N O
UNIT 12 12 12
L.S. 10
BOND
LIST 6
FMAP 2
PLAN 20
O001  3  0.85286  0.15454  0.74769 11.00000  0.03763   7.37
N002  2  0.83338  0.36172  0.48927 11.00000  0.03769   7.02
N003  2  0.65297  0.74060  0.48044 11.00000  0.03958   6.62
C004  1  0.80013  0.55622  0.62211 11.00000  0.03045   6.43
C005  1  0.69937  0.75376  0.57274 11.00000  0.02575   6.09
C006  1  0.46198  0.42823  0.77804 11.00000  0.03067   5.97
C007  1  0.26886  0.77487  0.78383 11.00000  0.04131   5.79
C008  1  1.05271  0.34571  0.91198 11.00000  0.03517   5.75
C009  1  0.86958  0.36413  0.58069 11.00000  0.02949   5.75
C00A  1  0.88002  0.44333  0.86117 11.00000  0.02340   5.75
C00B  1  0.83461  0.58401  0.71255 11.00000  0.02074   5.69
C00C  1  0.72415  0.52938  0.43999 11.00000  0.03377   5.46
C00D  1  0.85901  0.37851  0.76708 11.00000  0.02721   5.41
C00E  1  0.51133  0.69880  0.90500 11.00000  0.03841   5.31
C00F  1  0.72796  0.34841  0.89492 11.00000  0.02546   5.29
C00G  1  0.31968  0.56492  0.74200 11.00000  0.03733   4.95
C00H  1  0.37186  0.84546  0.86548 11.00000  0.04312   4.60
C00I  1  0.55605  0.48944  0.85744 11.00000  0.03001   3.75
HKLF 4
END
