TITL 1_expF_1_2_expS_0_7_1_a.res in P2(1)
REM Old TITL 1 in P2
REM SHELXT solution in P2(1): R1 0.230, Rweak 0.068, Alpha 0.011
REM <I/s>   5.876 for    3 systematic absences,  Orientation as input
REM Formula found by SHELXT:  C16 N O

CELL  0.71073   8.0000   5.0200  16.0200   90.000  103.140   90.000
ZERR   12.000   0.0016   0.0010   0.0032    0.000    0.030    0.000
LATT -1
SYMM -X, 1/2+Y, -Z
SFAC C N O
UNIT 12 12 12
L.S. 10
BOND
LIST 6
FMAP 2
PLAN 20
O001  3  0.14945  0.85100  0.25330 11.00000  0.07715   7.11
N002  2  0.54562  0.58082  0.22241 11.00000  0.06367   6.71
C003  1  0.20432  0.43719  0.37872 11.00000  0.04947   6.42
C004  1  0.15675  0.63745  0.51383 11.00000  0.05458   6.31
C005  1  0.30572  0.24815  0.42600 11.00000  0.05908   6.24
C006  1  0.12946  0.62880  0.42165 11.00000  0.05329   6.19
C007  1  0.27086  0.44989  0.55934 11.00000  0.05697   6.16
C008  1  0.14426  0.62098  0.23157 11.00000  0.05643   6.07
C009  1  0.16378  0.41981  0.28811 11.00000  0.04228   5.91
C00A  1  0.11726  0.55408  0.13862 11.00000  0.04668   5.86
C00B  1 -0.04529  0.66794  0.08558 11.00000  0.05498   5.84
C00C  1  0.27379  0.64939  0.10472 11.00000  0.05620   5.82
C00D  1  0.73474  0.22468  0.21371 11.00000  0.06478   5.75
C00E  1  0.34648  0.25904  0.52013 11.00000  0.05859   5.63
C00F  1  0.68794  0.42378  0.25926 11.00000  0.05909   5.46
C00G  1  0.62668  0.14900  0.13481 11.00000  0.06593   5.46
C00H  1  0.48054  0.28033  0.09833 11.00000  0.06073   5.28
C00I  1  0.44248  0.50269  0.14161 11.00000  0.05437   5.24
HKLF 4
END
