TITL 1_expF_1_2_expS_0_8_1_a.res in P2(1)
REM Old TITL 1 in P2
REM SHELXT solution in P2(1): R1 0.229, Rweak 0.069, Alpha 0.016
REM <I/s>   5.696 for    3 systematic absences,  Orientation as input
REM Formula found by SHELXT:  C16 N O

CELL  0.71073   8.0000   5.0200  16.0200   90.000  103.140   90.000
ZERR   12.000   0.0016   0.0010   0.0032    0.000    0.030    0.000
LATT -1
SYMM -X, 1/2+Y, -Z
SFAC C N O
UNIT 12 12 12
L.S. 10
BOND
LIST 6
FMAP 2
PLAN 20
O001  3  0.85087  0.14877  0.74689 11.00000  0.07570   7.40
N002  2  0.45437  0.42015  0.77788 11.00000  0.06354   6.78
C003  1  0.84253  0.36286  0.48638 11.00000  0.05391   6.46
C004  1  0.79638  0.56230  0.62112 11.00000  0.04931   6.34
C005  1  0.69410  0.75333  0.57389 11.00000  0.05775   6.27
C006  1  0.87032  0.37078  0.57840 11.00000  0.05293   6.27
C007  1  0.72931  0.54987  0.44068 11.00000  0.05685   6.10
C008  1  0.85493  0.37900  0.76849 11.00000  0.05579   5.97
C009  1  0.88250  0.44602  0.86137 11.00000  0.04570   5.88
C00A  1  1.04546  0.33136  0.91445 11.00000  0.05426   5.78
C00B  1  0.83619  0.58075  0.71210 11.00000  0.04154   5.72
C00C  1  0.26555  0.77694  0.78631 11.00000  0.06341   5.72
C00D  1  0.55736  0.49800  0.85856 11.00000  0.05408   5.70
C00E  1  0.72677  0.35096  0.89525 11.00000  0.05456   5.69
C00F  1  0.37225  0.85123  0.86542 11.00000  0.06570   5.59
C00G  1  0.65369  0.74046  0.48000 11.00000  0.05709   5.51
C00H  1  0.31250  0.57534  0.74094 11.00000  0.05810   5.38
C00I  1  0.51967  0.71879  0.90169 11.00000  0.05948   5.24
HKLF 4
END
