TITL 1_expF_0_8_expS_1_2_1_a.res in P2(1)
REM Old TITL 1 in P2
REM SHELXT solution in P2(1): R1 0.220, Rweak 0.233, Alpha 0.172
REM <I/s>   2.844 for    3 systematic absences,  Orientation as input
REM Formula found by SHELXT:  C15 N2 O

CELL  0.71073   8.0000   5.0200  16.0200   90.000  103.140   90.000
ZERR   12.000   0.0016   0.0010   0.0032    0.000    0.030    0.000
LATT -1
SYMM -X, 1/2+Y, -Z
SFAC C N O
UNIT 12 12 12
L.S. 10
BOND
LIST 6
FMAP 2
PLAN 20
O001  3  0.85219  0.15228  0.74742 11.00000  0.03612   7.37
N002  2  0.83542  0.36435  0.48912 11.00000  0.03855   7.02
N003  2  0.65340  0.74055  0.48101 11.00000  0.03901   6.62
C004  1  0.79973  0.55920  0.62196 11.00000  0.02847   6.43
C005  1  0.69835  0.75649  0.57277 11.00000  0.02484   6.09
C006  1  0.46236  0.42535  0.77774 11.00000  0.02941   5.97
C007  1  0.26805  0.77749  0.78437 11.00000  0.03980   5.79
C008  1  1.05190  0.34384  0.91269 11.00000  0.03451   5.75
C009  1  0.87002  0.36602  0.58020 11.00000  0.02872   5.75
C00A  1  0.88019  0.44544  0.86097 11.00000  0.02230   5.75
C00B  1  0.83501  0.58494  0.71208 11.00000  0.01929   5.69
C00C  1  0.72603  0.53500  0.44052 11.00000  0.03222   5.46
C00D  1  0.85864  0.37944  0.76751 11.00000  0.02773   5.41
C00E  1  0.51282  0.70398  0.90490 11.00000  0.03589   5.31
C00F  1  0.72798  0.35025  0.89502 11.00000  0.02403   5.29
C00G  1  0.31805  0.56862  0.74187 11.00000  0.03700   4.95
C00H  1  0.37212  0.84772  0.86589 11.00000  0.04384   4.60
C00I  1  0.55499  0.49281  0.85790 11.00000  0.02791   3.75
HKLF 4
END
