TITL 1_expF_1_0_expS_1_2_1_a.res in P2(1)
REM Old TITL 1 in P2
REM SHELXT solution in P2(1): R1 0.216, Rweak 0.130, Alpha 0.016
REM <I/s>   3.819 for    3 systematic absences,  Orientation as input
REM Formula found by SHELXT:  C16 N O

CELL  0.71073   8.0000   5.0200  16.0200   90.000  103.140   90.000
ZERR   12.000   0.0016   0.0010   0.0032    0.000    0.030    0.000
LATT -1
SYMM -X, 1/2+Y, -Z
SFAC C N O
UNIT 12 12 12
L.S. 10
BOND
LIST 6
FMAP 2
PLAN 20
O001  3  0.14700  0.14846  0.25352 11.00000  0.05020   7.17
N002  2  0.20071  0.56120  0.37880 11.00000  0.04807   6.54
C003  1  0.30294  0.75842  0.42639 11.00000  0.03683   6.42
C004  1  0.54218  0.42379  0.22150 11.00000  0.04050   6.32
C005  1  0.16534  0.58347  0.28828 11.00000  0.02910   6.31
C006  1  0.27285  0.54408  0.55911 11.00000  0.04235   6.26
C007  1  0.14706  0.37858  0.23182 11.00000  0.03871   6.14
C008  1  0.16341  0.36430  0.51115 11.00000  0.04075   6.01
C009  1  0.13088  0.36954  0.42100 11.00000  0.03796   6.00
C00A  1 -0.04714  0.33535  0.08678 11.00000  0.04454   5.93
C00B  1  0.34571  0.74100  0.51837 11.00000  0.04048   5.88
C00C  1  0.11916  0.44669  0.13862 11.00000  0.03282   5.74
C00D  1  0.27246  0.35248  0.10523 11.00000  0.03607   5.49
C00E  1  0.73404  0.78271  0.21404 11.00000  0.04806   5.47
C00F  1  0.68436  0.57191  0.25804 11.00000  0.04403   5.42
C00G  1  0.63047  0.85154  0.13388 11.00000  0.05394   5.41
C00H  1  0.44325  0.49696  0.14156 11.00000  0.03652   5.25
C00I  1  0.48202  0.71609  0.09750 11.00000  0.04845   5.05
HKLF 4
END
