TITL 1_expF_1_4_expS_1_1_1_a.res in P2(1)
REM Old TITL 1 in P2
REM SHELXT solution in P2(1): R1 0.282, Rweak 0.041, Alpha 0.007
REM <I/s>   7.331 for    3 systematic absences,  Orientation as input
REM Formula found by SHELXT:  C15 N2 O

CELL  0.71073   8.0000   5.0200  16.0200   90.000  103.140   90.000
ZERR   12.000   0.0016   0.0010   0.0032    0.000    0.030    0.000
LATT -1
SYMM -X, 1/2+Y, -Z
SFAC C N O
UNIT 12 12 12
L.S. 10
BOND
LIST 6
FMAP 2
PLAN 20
O001  3  0.85432  0.85133  0.74906 11.00000  0.08895   6.92
N002  2  0.45693  0.58488  0.77841 11.00000  0.07083   6.70
N003  2  0.84682  0.63841  0.48686 11.00000  0.07777   6.51
C004  1  0.79943  0.43296  0.62161 11.00000  0.06068   6.36
C005  1  0.87101  0.63004  0.57717 11.00000  0.06600   6.33
C006  1  0.73275  0.45048  0.43989 11.00000  0.06560   6.07
C007  1  0.85078  0.61823  0.76877 11.00000  0.06499   5.96
C008  1  0.69824  0.24355  0.57209 11.00000  0.06938   5.94
C009  1  0.72861  0.64352  0.89401 11.00000  0.06038   5.80
C00A  1  1.04253  0.67490  0.91345 11.00000  0.06343   5.75
C00B  1  0.52345  0.28455  0.90113 11.00000  0.07136   5.75
C00C  1  0.83355  0.42352  0.71412 11.00000  0.05128   5.74
C00D  1  0.88116  0.56040  0.86136 11.00000  0.05634   5.66
C00E  1  0.36748  0.14867  0.86422 11.00000  0.07666   5.64
C00F  1  0.31304  0.42654  0.74221 11.00000  0.06110   5.53
C00G  1  0.26091  0.21669  0.78413 11.00000  0.07879   5.53
C00H  1  0.55491  0.50166  0.85874 11.00000  0.06447   5.30
C00I  1  0.65559  0.25721  0.48173 11.00000  0.06195   5.27
HKLF 4
END
