TITL 1_expF_0_5_expS_1_5_1_a.res in Pm
REM Old TITL 1 in P2
REM SHELXT solution in Pm: R1 0.210, Rweak 0.636, Alpha 0.196
REM <I/s>   0.000 for    0 systematic absences,  Orientation as input
REM Formula found by SHELXT:  C35 N17 O8 I

CELL  0.71073   8.0000   5.0200  16.0200   90.000  103.140   90.000
ZERR   12.000   0.0016   0.0010   0.0032    0.000    0.030    0.000
LATT -1
SYMM X, -Y, Z
SFAC C N O I
UNIT 12 12 12 0
L.S. 10
BOND
LIST 6
FMAP 2
PLAN 20
I001  4  0.49004  0.50000  0.18033 10.50000  0.00821  44.28
O002  3  0.46853  0.50000 -0.09092 10.50000  0.07785  26.08
N003  2  0.45351  0.50000  0.09205 10.50000  0.01099  21.89
O004  3  0.33957  1.50000  0.31172 10.50000  0.05130  12.70
O005  3  0.92052  1.00000  0.45738 10.50000  0.08755  12.38
O006  3 -0.07623  0.00000  0.16665 10.50000  0.09846  11.43
C007  1  0.79671  1.00000  0.82719 10.50000  0.04596  11.32
O008  3  0.60940  1.00000  0.62117 10.50000  0.03949  10.55
N009  2  0.37062  0.33816  0.03744 11.00000  0.03172  10.49
N00A  2  0.56196  1.00000  0.52092 10.50000  0.06788  10.18
N00B  2  0.54848  1.00000  0.34292 10.50000  0.06923   9.19
N00C  2  0.28013  0.14887 -0.10926 11.00000  0.05104   8.67
O00D  3  1.03740  1.00000  1.02053 10.50000  0.07172   8.64
N00E  2  0.24319  0.00000  0.18137 10.50000  0.08936   8.44
N00F  2  0.45053  1.27970  0.45131 11.00000  0.10578   8.20
N00G  2  0.51730  0.69478  0.22077 11.00000  0.04946   7.53
O00H  3  1.07623  0.50000  1.10926 10.50000  0.04835   7.49
N00I  2  0.82962  1.17113  0.67933 11.00000  0.14508   7.14
N00J  2  0.60399  1.00000  0.42114 10.50000  0.04915   7.00
N00K  2  0.43878  1.22368  0.39120 11.00000  0.10852   6.89
C00L  1  0.44222  0.00000  0.05973 10.50000  0.14170   6.37
C00M  1  0.51582  0.27210  0.04780 11.00000  0.06823   6.21
C00N  1  0.40268  0.50000  0.02706 10.50000  0.04150   6.18
C00O  1  0.99859  0.50000  1.01194 10.50000  0.05554   6.15
C00P  1  1.07609  1.00000  0.83304 10.50000  0.10935   6.13
C00Q  1  0.71534  1.00000  0.69777 10.50000  0.07374   6.12
O00R  3  0.77793  1.00000  0.91866 10.50000  0.06021   6.01
C00S  1  1.00446  1.00000  0.71790 10.50000  0.12768   5.80
C00T  1  0.89552  1.50000  0.50101 10.50000  0.04733   5.36
C00U  1  0.60197  1.25530  0.54458 11.00000  0.04929   5.34
C00V  1  0.61468  0.50000  0.66641 10.50000  0.06909   5.26
C00W  1  0.87424  1.00000  0.52683 10.50000  0.03534   4.97
C00X  1  0.54008  0.78624  0.28675 11.00000  0.03472   4.91
C00Y  1  0.66838  0.50000  0.33956 10.50000  0.07616   4.79
C00Z  1  0.68881  1.00000  0.39395 10.50000  0.16737   4.68
C010  1  0.51665  1.06576  0.82202 11.00000  0.05567   4.57
C011  1  0.50180  1.00000  0.27392 10.50000  0.13013   4.34
C012  1  0.38251  0.50000  0.58274 10.50000  0.03041   4.25
C013  1  0.36133  0.80186  0.67455 11.00000  0.05328   4.04
C014  1  0.34391  0.30999 -0.04715 11.00000  0.07746   4.03
C015  1  0.97722  1.32812  0.59104 11.00000  0.10714   4.02
C016  1  0.43695  1.00000  0.30160 10.50000  0.05258   4.01
C017  1  0.59527  1.00000  0.77997 11.00000  0.06208   4.00
C018  1  0.33926  1.00000  0.69675 10.50000  0.04079   3.92
C019  1  0.46225  0.13315  0.13603 11.00000  0.04859   3.90
C01A  1  0.67722  0.50000  0.11120 10.50000  0.02550   3.81
HKLF 4
END
