TITL 1_expF_0_9_expS_1_0_1_a.res in P2(1)
REM Old TITL 1 in P2
REM SHELXT solution in P2(1): R1 0.212, Rweak 0.168, Alpha 0.053
REM <I/s>   3.331 for    3 systematic absences,  Orientation as input
REM Formula found by SHELXT:  C16 N O

CELL  0.71073   8.0000   5.0200  16.0200   90.000  103.140   90.000
ZERR   12.000   0.0016   0.0010   0.0032    0.000    0.030    0.000
LATT -1
SYMM -X, 1/2+Y, -Z
SFAC C N O
UNIT 12 12 12
L.S. 10
BOND
LIST 6
FMAP 2
PLAN 20
O001  3  0.14663  0.85192  0.25297 11.00000  0.04416   7.68
N002  2  0.30284  0.23960  0.42673 11.00000  0.03929   6.71
C003  1  0.20166  0.43729  0.37863 11.00000  0.03154   6.69
C004  1  0.16484  0.41494  0.28827 11.00000  0.02333   6.35
C005  1  0.27266  0.45689  0.55912 11.00000  0.03711   6.26
C006  1  0.34540  0.25793  0.51789 11.00000  0.03747   6.26
C007  1 -0.04855  0.66253  0.08591 11.00000  0.03702   6.10
C008  1  0.54004  0.57793  0.22222 11.00000  0.03461   6.08
C009  1  0.14599  0.61960  0.23169 11.00000  0.03417   6.07
C00A  1  0.16233  0.63457  0.51155 11.00000  0.03758   6.02
C00B  1  0.11912  0.55179  0.13932 11.00000  0.02660   5.98
C00C  1  0.73455  0.21714  0.21415 11.00000  0.04284   5.49
C00D  1  0.12977  0.62964  0.42054 11.00000  0.03221   5.43
C00E  1  0.27253  0.64715  0.10496 11.00000  0.03008   5.39
C00F  1  0.68490  0.42807  0.25859 11.00000  0.03906   5.27
C00G  1  0.62897  0.14808  0.13337 11.00000  0.04778   5.04
C00H  1  0.44453  0.50134  0.14195 11.00000  0.03051   5.01
C00I  1  0.48412  0.28605  0.09774 11.00000  0.04179   4.63
HKLF 4
END
