TITL 1_expF_1_0_expS_0_6_1_a.res in P2(1)
REM Old TITL 1 in P2
REM SHELXT solution in P2(1): R1 0.210, Rweak 0.130, Alpha 0.019
REM <I/s>   4.305 for    3 systematic absences,  Orientation as input
REM Formula found by SHELXT:  C15 N2 O

CELL  0.71073   8.0000   5.0200  16.0200   90.000  103.140   90.000
ZERR   12.000   0.0016   0.0010   0.0032    0.000    0.030    0.000
LATT -1
SYMM -X, 1/2+Y, -Z
SFAC C N O
UNIT 12 12 12
L.S. 10
BOND
LIST 6
FMAP 2
PLAN 20
O001  3  0.14619  0.14779  0.25365 11.00000  0.05817   7.47
N002  2  0.54342  0.42176  0.22227 11.00000  0.05461   6.70
N003  2  0.20319  0.56435  0.37875 11.00000  0.04927   6.62
C004  1  0.30353  0.75977  0.42593 11.00000  0.04091   6.27
C005  1  0.16087  0.36612  0.51235 11.00000  0.04253   6.17
C006  1  0.27198  0.54831  0.55869 11.00000  0.04187   6.16
C007  1  0.16389  0.58190  0.28855 11.00000  0.02903   6.08
C008  1  0.13259  0.36961  0.42176 11.00000  0.04086   6.08
C009  1  0.14416  0.37989  0.23199 11.00000  0.04162   5.96
C00A  1 -0.04611  0.33393  0.08598 11.00000  0.04425   5.87
C00B  1  0.12038  0.44845  0.13826 11.00000  0.03370   5.78
C00C  1  0.34331  0.74311  0.51886 11.00000  0.04377   5.71
C00D  1  0.73763  0.78163  0.21467 11.00000  0.05014   5.57
C00E  1  0.27325  0.35261  0.10488 11.00000  0.04266   5.46
C00F  1  0.44312  0.49919  0.14223 11.00000  0.03874   5.43
C00G  1  0.62907  0.85221  0.13451 11.00000  0.05652   5.41
C00H  1  0.68784  0.57248  0.25784 11.00000  0.04765   5.35
C00I  1  0.48419  0.71991  0.09753 11.00000  0.04718   5.18
HKLF 4
END
