TITL 1_expF_1_4_expS_1_3_1_a.res in P2(1)
REM Old TITL 1 in P2
REM SHELXT solution in P2(1): R1 0.309, Rweak 0.043, Alpha 0.011
REM <I/s>   7.001 for    3 systematic absences,  Orientation as input
REM Formula found by SHELXT:  C16 N O

CELL  0.71073   8.0000   5.0200  16.0200   90.000  103.140   90.000
ZERR   12.000   0.0016   0.0010   0.0032    0.000    0.030    0.000
LATT -1
SYMM -X, 1/2+Y, -Z
SFAC C N O
UNIT 12 12 12
L.S. 10
BOND
LIST 6
FMAP 2
PLAN 20
O001  3  0.85351  0.85089  0.74854 11.00000  0.08360   6.93
N002  2  0.79835  0.43471  0.62225 11.00000  0.07217   6.71
C003  1  0.84600  0.63988  0.48686 11.00000  0.06569   6.47
C004  1  0.87157  0.62862  0.57748 11.00000  0.06331   6.43
C005  1  0.45796  0.58674  0.77795 11.00000  0.06159   6.41
C006  1  0.72804  0.64376  0.89284 11.00000  0.05667   6.16
C007  1  0.88226  0.56022  0.86176 11.00000  0.05427   6.10
C008  1  0.73278  0.45256  0.43956 11.00000  0.06291   6.09
C009  1  0.69986  0.24205  0.57145 11.00000  0.06675   6.08
C00A  1  0.52789  0.28494  0.90031 11.00000  0.07673   5.98
C00B  1  1.04119  0.67783  0.91275 11.00000  0.06358   5.91
C00C  1  0.36876  0.14911  0.86394 11.00000  0.07350   5.81
C00D  1  0.84757  0.62270  0.76813 11.00000  0.06280   5.79
C00E  1  0.83214  0.42424  0.71368 11.00000  0.04924   5.60
C00F  1  0.26519  0.21672  0.78368 11.00000  0.07542   5.52
C00G  1  0.31435  0.42683  0.74148 11.00000  0.05997   5.49
C00H  1  0.55917  0.50492  0.85748 11.00000  0.06224   5.35
C00I  1  0.65587  0.25672  0.48138 11.00000  0.06201   5.11
HKLF 4
END
