TITL 1_a.res in Pc
REM Old TITL 1_a.res in Pc
REM SHELXT solution in Pc: R1 0.334, Rweak 0.052, Alpha 0.061
REM <I/s>   1.224 for  243 systematic absences,  Orientation as input
REM Formula found by SHELXT:  C16 Cl2 N6 O16

CELL  0.71073  22.2300   4.6200  13.8900   90.000   92.510   90.000
ZERR   19.000   0.0044   0.0009   0.0028    0.000    0.030    0.000
LATT -1
SYMM X, -Y, 1/2+Z
SFAC C CL N O
UNIT 128 16 48 128
L.S. 10
BOND
LIST 6
FMAP 2
PLAN 20
CL01  2  0.62495  1.07938  0.54281 11.00000  0.11353  14.41
CL02  2  0.41232  0.37261  0.37973 11.00000  0.10025  11.08
O003  4  0.40736  0.62230  0.49070 11.00000  0.04351  10.26
O004  4  0.21684  1.39971  0.56111 11.00000  0.04742  10.23
O005  4  0.56935  0.72032  0.30727 11.00000  0.06203  10.12
O006  4  0.79279  0.13224  0.18217 11.00000  0.09951   9.95
O007  4  0.83383  0.05529  0.27468 11.00000  0.07204   9.66
O008  4  0.56381  0.84301  0.37914 11.00000  0.07557   9.45
O009  4  0.36250  0.75110  0.50593 11.00000  0.04421   9.41
C00A  1  0.41432  0.94447  0.66217 11.00000  0.01823   9.05
O00B  4  0.00134  1.59567  0.62404 11.00000  0.08657   8.86
N00C  3  0.88093 -0.21695  0.26588 11.00000  0.05524   8.75
O00D  4  0.91753 -0.26032  0.33755 11.00000  0.07399   8.39
O00E  4  0.23129  1.42746  0.82211 11.00000  0.07980   8.34
N00F  3  0.68793  0.58433  0.33120 11.00000  0.06688   8.27
C00G  1  0.26963  1.17908  0.54186 11.00000  0.03668   8.25
O00H  4  0.30051  1.16089  0.71977 11.00000  0.10061   8.06
N00I  3  0.73447  0.40962  0.32094 11.00000  0.07303   7.99
O00J  4  0.07003  1.97039  0.56689 11.00000  0.09607   7.60
O00K  4  0.61890  0.53023  0.27596 11.00000  0.09747   7.38
N00L  3  0.75085  0.30478  0.20557 11.00000  0.05426   7.19
N00M  3  0.68205  0.72822  0.41362 11.00000  0.07164   6.99
C00N  1  0.00793  1.79641  0.55283 11.00000  0.08721   6.95
O00O  4  0.46172  0.78858  0.65120 11.00000  0.06979   6.86
N00P  3  0.77869  0.27312  0.37753 11.00000  0.05105   6.55
C00Q  1  0.25736  1.39356  0.71426 11.00000  0.06706   6.50
O00R  4 -0.03839  1.93515  0.54019 11.00000  0.06465   6.43
C00S  1  0.36540  0.93501  0.58935 11.00000  0.03431   5.64
C00T  1  0.59669  0.65057  0.38664 11.00000  0.06078   5.52
C00U  1  0.89893 -0.35416  0.17789 11.00000  0.04690   5.38
C00V  1  0.12327  1.79268  0.56852 11.00000  0.05606   5.29
C00W  1  0.23143  1.43578  0.73616 11.00000  0.05340   5.03
C00X  1  0.14577  1.83036  0.71872 11.00000  0.09016   4.86
C00Y  1  0.30533  1.10269  0.61483 11.00000  0.06174   4.84
C00Z  1  0.52396  1.09234  0.59077 11.00000  0.09746   4.75
C010  1  0.46568  0.60733  0.55631 11.00000  0.05907   4.63
C011  1  0.54679  0.46567  0.39318 11.00000  0.12085   4.08
O012  4  1.03839 -0.30786  0.33750 11.00000  0.12223   3.92
C013  1  0.51183  0.96323  0.44731 11.00000  0.06735   3.09
C014  1  0.96482 -0.53159  0.33083 11.00000  0.07651   3.01
HKLF 4
END
