TITL 10_a.res in P2(1)/n
REM Old TITL shelx in P2(1)/c
REM SHELXT solution in P2(1)/n: R1 0.497, Rweak 0.157, Alpha 0.154
REM <I/s>   1.023 for  397 systematic absences,  Orientation as input
REM Formula found by SHELXT:  C18 N2 O2 Cl2

CELL  0.71073  20.2400   3.7900  22.2800   90.000  111.885   90.000
ZERR   21.000   0.0040   0.0008   0.0045    0.000    0.030    0.000
LATT  1
SYMM 1/2-X, 1/2+Y, 1/2-Z
SFAC C N O CL
UNIT 21 21 21 21
L.S. 10
BOND
LIST 6
FMAP 2
PLAN 20
CL01  4  0.83970 -0.15240  0.70716 11.00000  0.10560  11.20
CL02  4  0.54981 -0.15450  0.62447 11.00000  0.11566  10.45
N003  2  0.73605  0.40693  0.45372 11.00000  0.01447   6.64
N004  2  0.61325  0.43809  0.42239 11.00000  0.04026   6.58
C005  1  0.70954  0.49641  0.40305 11.00000  0.04623   6.29
C006  1  0.64062  0.04803  0.55885 11.00000  0.04249   6.23
C007  1  0.68087  0.17407  0.53396 11.00000  0.03039   6.17
C008  1  0.74118  0.66508  0.34847 11.00000  0.03019   6.09
C009  1  0.68186  0.81600  0.28317 11.00000  0.05543   6.00
C00A  1  0.64031  0.56992  0.38840 11.00000  0.07082   5.84
C00B  1  0.68969  0.33736  0.48669 11.00000  0.03553   5.78
C00C  1  0.56753  0.95542  0.20625 11.00000  0.03461   5.73
C00D  1  0.57427  0.74314  0.32336 11.00000  0.02764   5.72
O00E  3  0.50103  0.94405  0.18745 11.00000  0.09001   5.65
C00F  1  0.59861  1.06810  0.16398 11.00000  0.03939   5.64
C00G  1  0.59754 -0.03000  0.59587 11.00000  0.05919   5.61
C00H  1  0.61912  0.74918  0.27340 11.00000  0.09172   5.55
C00I  1  0.74836  0.11541  0.57300 11.00000  0.05021   5.49
O00J  3  0.37646  1.39146 -0.02025 11.00000  0.05444   5.37
C00K  1  0.40445  1.24597  0.02268 11.00000  0.05964   5.29
C00L  1  0.42158  1.15156  0.08524 11.00000  0.04230   5.28
C00M  1  0.70103 -0.16874  0.67539 11.00000  0.05278   5.18
C00N  1  0.76019 -0.04409  0.64717 11.00000  0.02753   5.14
C00O  1  0.47897  1.48390  0.00814 11.00000  0.06292   4.65
HKLF 4
END
