TITL 12_a.res in P2(1)
REM Old TITL 22 in P2(1)
REM SHELXT solution in P2(1): R1 0.302, Rweak 0.425, Alpha 0.119
REM <I/s>   0.000 for    0 systematic absences,  Orientation as input
REM Formula found by SHELXT:  C19 N7 O6 Cl

CELL  0.71073   4.8500  11.6000  19.5900   90.000   96.414   90.000
ZERR    2.000   0.0010   0.0023   0.0039    0.000    0.030    0.000
LATT -1
SYMM -X, 1/2+Y, -Z
SFAC C N O CL
UNIT 48 4 16 4
L.S. 10
BOND
LIST 6
FMAP 2
PLAN 20
O001  3 -0.16486  0.65649  1.11271 11.00000  0.01506  11.47
CL02  4 -0.53900  0.89396  0.88919 11.00000  0.08295  10.27
O003  3  0.04199  0.30149  0.27939 11.00000  0.04729   8.28
O004  3  0.72542  0.28073  0.62881 11.00000  0.05788   7.77
N005  2  0.35753  0.50019  0.89141 11.00000  0.04483   7.26
N006  2  0.02668  0.62948  0.98716 11.00000  0.04379   7.07
N007  2 -0.16691  0.72770  0.89106 11.00000  0.01392   7.01
O008  3  0.38724  0.36112  0.47971 11.00000  0.06355   7.00
N009  2  0.47523  0.47062  0.84370 11.00000  0.05627   6.97
N00A  2 -0.31739  0.75895  0.99608 11.00000  0.04133   6.71
N00B  2 -0.30489  0.79138  0.91915 11.00000  0.03253   6.67
C00C  1  0.23637  0.53865  0.24505 11.00000  0.03820   6.62
N00D  2  0.39434  0.25791  0.35831 11.00000  0.04476   6.55
C00E  1  0.56785  0.31147  0.42813 11.00000  0.03582   6.43
C00F  1  0.22108  0.34115  0.32229 11.00000  0.02706   6.32
C00G  1  0.11666  0.60796  0.80424 11.00000  0.04124   6.28
C00H  1  0.41403  0.50633  0.72561 11.00000  0.03401   6.16
C00I  1  0.73277  0.35646  0.78017 11.00000  0.05181   6.15
C00J  1 -0.17735  0.69283  1.02662 11.00000  0.01006   6.06
C00K  1  0.17963  0.57221  0.87027 11.00000  0.02985   5.99
C00L  1  0.31599  0.52382  0.78023 11.00000  0.07506   5.81
C00M  1  0.60090  0.41640  0.71858 11.00000  0.03845   5.79
C00N  1  0.72454  0.20720  0.46077 11.00000  0.04451   5.76
C00O  1  0.57555  0.50267  0.34278 11.00000  0.04496   5.67
C00P  1 -0.00739  0.63783  0.91557 11.00000  0.03430   5.57
C00Q  1  0.66007  0.38599  0.64946 11.00000  0.04360   5.54
C00R  1  1.11082  0.10604  0.54586 11.00000  0.05296   5.37
O00S  3  0.07284  0.58060  0.28004 11.00000  0.05274   5.17
C00T  1  0.69046  0.39435  0.83932 11.00000  0.02902   5.07
O00U  3  0.59238  0.44147  0.59729 11.00000  0.04460   5.02
C00V  1  0.22211  0.16407  0.37880 11.00000  0.04003   4.60
C00W  1  0.39171  0.44284  0.29270 11.00000  0.02940   4.59
C00X  1  0.92746  0.22084  0.52343 11.00000  0.05991   4.09
HKLF 4
END
