TITL 13_a.res in Pna2(1)
REM Old TITL 2 in Pna2(1)
REM SHELXT solution in Pna2(1): R1 0.244, Rweak 0.096, Alpha 0.025
REM <I/s>   1.158 for  173 systematic absences,  Orientation as input
REM Formula found by SHELXT:  C21 N5 O4 F3

CELL  0.71073   9.2900  14.6600  17.3100   90.000   90.000   90.000
ZERR   28.000   0.0019   0.0029   0.0035    0.000    0.000    0.000
LATT -1
SYMM -X, -Y, 1/2+Z
SYMM 1/2+X, 1/2-Y, Z
SYMM 1/2-X, 1/2+Y, 1/2+Z
SFAC C N O F S
UNIT 28 28 28 28 28
L.S. 10
BOND
LIST 6
FMAP 2
PLAN 20
O001  3  0.47846  0.23304  0.48678 11.00000  0.07555   8.00
O002  3  0.40808  0.52537  0.83828 11.00000  0.09578   7.34
N003  2  0.50100  0.13965  0.20545 11.00000  0.07847   7.32
C004  1  0.34393  0.45809  0.81140 11.00000  0.07091   7.23
C005  1  0.63569  0.25893  0.12756 11.00000  0.06342   6.91
N006  2  0.41852  0.11424  0.26191 11.00000  0.07307   6.74
N007  2  0.36304  0.18029  0.31444 11.00000  0.08986   6.64
N008  2  0.35907  0.33231  0.36569 11.00000  0.07008   6.51
N009  2  0.58550  0.01024  0.11236 11.00000  0.09407   6.39
C00A  1  0.46412  0.44555  0.59614 11.00000  0.05826   6.38
C00B  1  0.54776  0.07248  0.14906 11.00000  0.07678   6.35
F00C  4  0.74720  0.20754  0.11642 11.00000  0.11261   6.31
C00D  1  0.32900  0.39413  0.48240 11.00000  0.05759   6.30
C00E  1  0.34324  0.41161  0.56223 11.00000  0.06448   6.18
C00F  1  0.39183  0.32584  0.44420 11.00000  0.05948   6.15
C00G  1  0.26865  0.45567  0.42530 11.00000  0.06385   6.11
C00H  1  0.29316  0.41566  0.35718 11.00000  0.05873   6.09
O00I  3  0.26474  0.44086  0.28730 11.00000  0.08725   6.06
C00J  1  0.25959  0.39942  0.85626 11.00000  0.09054   6.06
F00K  4  0.56023  0.24992  0.05487 11.00000  0.12195   5.85
C00L  1  0.21974  0.40531  0.68530 11.00000  0.07269   5.66
C00M  1  0.11607  0.49178  0.43654 11.00000  0.06423   5.59
C00N  1  0.54437  0.22834  0.19376 11.00000  0.06341   5.51
C00O  1  0.40634  0.26801  0.31064 11.00000  0.07932   5.46
C00P  1  0.50091  0.29781  0.24924 11.00000  0.06676   5.45
F00Q  4  0.67555  0.34771  0.12682 11.00000  0.15677   5.37
C00R  1  0.46256  0.45335  0.68023 11.00000  0.07474   5.32
C00S  1  0.16101  0.59287  0.41149 11.00000  0.08688   5.27
C00T  1  0.34406  0.44116  0.72847 11.00000  0.06158   5.12
C00U  1  0.21820  0.39081  0.60970 11.00000  0.08829   4.98
C00V  1  0.31403  0.56905  0.42694 11.00000  0.07673   4.39
C00W  1  0.27050  0.41729  0.94513 11.00000  0.08694   4.23
O00X  3  0.09929  0.39295  0.72879 11.00000  0.17083   4.22
HKLF 4
END
