TITL 14_a.res in Pna2(1)
REM Old TITL shelx in Pna2(1)
REM SHELXT solution in Pna2(1): R1 0.266, Rweak 0.160, Alpha 0.031
REM <I/s>   1.185 for  183 systematic absences,  Orientation as input
REM Flack x =  0.430 ( 3.813 ) from   485 Parsons' quotients
REM Formula found by SHELXT:  C24 N2 O4 F3

CELL  0.71073   9.2840  14.6970  17.3150   90.000   90.000   90.000
ZERR   27.000   0.0019   0.0029   0.0035    0.000    0.000    0.000
LATT -1
SYMM -X, -Y, 1/2+Z
SYMM 1/2+X, 1/2-Y, Z
SYMM 1/2-X, 1/2+Y, 1/2+Z
SFAC C H N O F S
UNIT 27 27 27 27 27 27
L.S. 10
BOND
LIST 6
FMAP 2
PLAN 20
O001  4  0.47716  0.22848  0.48557 11.00000  0.08567   8.19
C002  1  0.34599  0.45824  0.81303 11.00000  0.08046   7.12
N003  3  0.50314  0.13785  0.20685 11.00000  0.08534   6.78
O004  4  0.41065  0.52798  0.83935 11.00000  0.09301   6.65
N005  3  0.58678  0.00964  0.10978 11.00000  0.10116   6.50
C006  1  0.63614  0.25350  0.12642 11.00000  0.06005   6.46
C007  1  0.29349  0.41510  0.35635 11.00000  0.06369   6.30
C008  1  0.32914  0.39205  0.48406 11.00000  0.06216   6.25
C009  1  0.36516  0.17881  0.31208 11.00000  0.06705   6.23
F00A  5  0.56118  0.25032  0.05570 11.00000  0.14333   6.20
C00B  1  0.41539  0.11347  0.26163 11.00000  0.05665   6.18
C00C  1  0.54888  0.06995  0.15121 11.00000  0.07702   5.98
C00D  1  0.39051  0.32792  0.44365 11.00000  0.07824   5.98
C00E  1  0.46638  0.44197  0.59598 11.00000  0.07746   5.93
C00F  1  0.26375  0.40074  0.85635 11.00000  0.08994   5.87
C00G  1  0.33908  0.40645  0.56197 11.00000  0.06594   5.84
C00H  1  0.22128  0.39672  0.68613 11.00000  0.07749   5.84
F00I  5  0.74789  0.20690  0.11689 11.00000  0.10907   5.78
C00J  1  0.36036  0.33389  0.36644 11.00000  0.06874   5.71
C00K  1  0.50295  0.29606  0.24920 11.00000  0.07643   5.70
C00L  1  0.34418  0.44184  0.72857 11.00000  0.06494   5.66
C00M  1  0.27074  0.46091  0.42607 11.00000  0.07423   5.66
O00N  4  0.26415  0.44304  0.28605 11.00000  0.10087   5.57
C00O  1  0.54630  0.23193  0.19367 11.00000  0.06276   5.49
F00P  5  0.67443  0.33933  0.12689 11.00000  0.17396   5.47
C00Q  1  0.15541  0.58719  0.41012 11.00000  0.09405   5.47
C00R  1  0.40728  0.25683  0.31154 11.00000  0.07366   5.31
C00S  1  0.26719  0.41802  0.94430 11.00000  0.08307   5.21
C00T  1  0.11540  0.49349  0.43842 11.00000  0.06941   5.08
C00U  1  0.46463  0.45829  0.68267 11.00000  0.07813   5.02
C00V  1  0.32091  0.57134  0.42711 11.00000  0.08946   4.80
C00W  1  0.21565  0.39069  0.61170 11.00000  0.09122   4.52
O00X  4  0.10714  0.37261  0.72875 11.00000  0.16310   4.49
HKLF 4
END
