TITL 15_a.res in Pna2(1)
REM Old TITL shelx in Pna2(1)
REM SHELXT solution in Pna2(1): R1 0.276, Rweak 0.184, Alpha 0.037
REM <I/s>   1.185 for  183 systematic absences,  Orientation as input
REM Flack x = -0.932 ( 3.346 ) from   485 Parsons' quotients
REM Formula found by SHELXT:  C24 N2 O3 F4

CELL  0.71073   9.2840  14.6970  17.3150   90.000   90.000   90.000
ZERR   27.000   0.0019   0.0029   0.0035    0.000    0.000    0.000
LATT -1
SYMM -X, -Y, 1/2+Z
SYMM 1/2+X, 1/2-Y, Z
SYMM 1/2-X, 1/2+Y, 1/2+Z
SFAC C H N O F S
UNIT 27 27 27 27 27 27
L.S. 10
BOND
LIST 6
FMAP 2
PLAN 20
F001  5  0.47813  0.76643  0.48434 11.00000  0.11469   8.36
C002  1  0.33481  0.53698  0.81469 11.00000  0.07028   7.51
O003  4  0.41102  0.47510  0.84031 11.00000  0.08349   7.06
N004  3  0.58257  0.98720  0.11069 11.00000  0.09920   6.76
N005  3  0.50750  0.86387  0.20668 11.00000  0.08850   6.70
F006  5  0.55820  0.75377  0.05655 11.00000  0.14114   6.64
C007  1  0.64017  0.74455  0.12465 11.00000  0.06256   6.58
C008  1  0.53895  0.92793  0.15342 11.00000  0.06882   6.43
C009  1  0.29293  0.58557  0.35403 11.00000  0.05483   6.38
C00A  1  0.41632  0.88976  0.25808 11.00000  0.07141   6.30
C00B  1  0.33501  0.60227  0.48495 11.00000  0.04707   6.28
C00C  1  0.35920  0.66739  0.36681 11.00000  0.05243   6.24
C00D  1  0.37016  0.81664  0.31247 11.00000  0.06509   6.20
C00E  1  0.22649  0.59560  0.68477 11.00000  0.08972   6.19
F00F  5  0.74924  0.79704  0.11862 11.00000  0.11569   6.08
O00G  4  0.27045  0.56161  0.28756 11.00000  0.10970   6.07
C00H  1  0.46692  0.56131  0.59628 11.00000  0.07359   6.01
C00I  1  0.33864  0.58791  0.56103 11.00000  0.06637   5.91
C00J  1  0.27011  0.60047  0.85215 11.00000  0.11040   5.90
C00K  1  0.33844  0.55692  0.72645 11.00000  0.05708   5.74
C00L  1  0.14777  0.41385  0.41323 11.00000  0.09631   5.66
C00M  1  0.49882  0.70310  0.25353 11.00000  0.07662   5.61
C00N  1  0.40537  0.74187  0.30808 11.00000  0.08758   5.56
F00O  5  0.67440  0.65243  0.12384 11.00000  0.18251   5.48
C00P  1  0.39398  0.67285  0.44659 11.00000  0.09125   5.47
C00Q  1  0.26682  0.54520  0.42619 11.00000  0.06989   5.46
C00R  1  0.46948  0.53996  0.68256 11.00000  0.06962   5.36
C00S  1  0.54861  0.76980  0.19379 11.00000  0.06035   5.30
C00T  1  0.10910  0.50553  0.44119 11.00000  0.06019   5.23
C00U  1  0.33303  0.43081  0.42334 11.00000  0.09528   4.97
C00V  1  0.26996  0.59003  0.94345 11.00000  0.10401   4.85
C00W  1  0.20124  0.60374  0.60922 11.00000  0.07070   4.75
O00X  4  0.09834  0.61992  0.73341 11.00000  0.25079   4.51
HKLF 4
END
