TITL 2_a.res in P2(1)
REM Old TITL 22 in P2(1)
REM SHELXT solution in P2(1): R1 0.287, Rweak 0.390, Alpha 0.129
REM <I/s>   0.000 for    0 systematic absences,  Orientation as input
REM Formula found by SHELXT:  C16 N8 O6 Cl2

CELL  0.71073   4.8500  11.6000  19.5900   90.000   96.414   90.000
ZERR    2.000   0.0010   0.0023   0.0039    0.000    0.030    0.000
LATT -1
SYMM -X, 1/2+Y, -Z
SFAC C N O CL
UNIT 48 4 16 4
L.S. 10
BOND
LIST 6
FMAP 2
PLAN 20
CL01  4  1.53314  0.89388  0.10708 11.00000  0.07120  11.68
CL02  4  1.16298  0.64948 -0.11175 11.00000  0.08571  10.76
O003  3  0.25594  0.26328  0.37104 11.00000  0.06695   8.20
O004  3  1.00940  0.61674  0.00945 11.00000  0.05381   7.98
O005  3  0.94174  0.29826  0.72352 11.00000  0.06144   7.24
N006  2  0.41296  0.49017  0.65931 11.00000  0.03903   7.15
C007  1  0.76394  0.33712  0.67811 11.00000  0.03514   6.98
N008  2  0.81064  0.58648  0.19005 11.00000  0.04786   6.95
N009  2  0.62939  0.49456  0.10113 11.00000  0.03659   6.93
N00A  2  1.16885  0.68022 -0.02579 11.00000  0.03668   6.92
N00B  2  0.61747  0.48170  0.28152 11.00000  0.03055   6.92
N00C  2  0.53796  0.45590  0.15925 11.00000  0.04197   6.79
N00D  2  0.82955  0.55908  0.12950 11.00000  0.05626   6.74
N00E  2  1.31482  0.75343  0.00215 11.00000  0.04496   6.71
C00F  1  0.78312  0.51248  0.75545 11.00000  0.05012   6.53
O00G  3  0.62335  0.34353  0.51963 11.00000  0.02499   6.43
C00H  1  1.16622  0.71735  0.10895 11.00000  0.02882   6.42
C00I  1  0.60520  0.26189  0.63903 11.00000  0.04016   6.05
C00J  1  0.45647  0.30509  0.56936 11.00000  0.02761   6.05
C00K  1  1.34051  0.78112  0.07700 11.00000  0.03529   6.00
C00L  1  0.62151  0.43286  0.70732 11.00000  0.02334   5.96
C00M  1  0.68485  0.51131  0.21202 11.00000  0.04765   5.51
C00N  1  0.30122  0.34473  0.23038 11.00000  0.05928   5.50
C00O  1  0.41178  0.40270  0.28258 11.00000  0.04139   5.47
C00P  1  0.33030  0.38519  0.15958 11.00000  0.05184   5.32
C00Q  1  0.36410  0.36414  0.35107 11.00000  0.03177   5.17
C00R  1  0.98443  0.63081  0.08098 11.00000  0.02817   5.13
C00S  1  0.28336  0.18732  0.53483 11.00000  0.04609   5.02
C00T  1 -0.04236  0.10612  0.46392 11.00000  0.03587   4.95
O00U  3  0.95013  0.57095  0.71847 11.00000  0.05456   4.87
C00V  1  0.79754  0.16739  0.62075 11.00000  0.02893   4.63
O00W  3  0.39451  0.44453  0.40209 11.00000  0.05695   3.95
HKLF 4
END
