TITL 3_a.res in P2(1)/n
REM Old TITL 2 in P2(1)/c
REM SHELXT solution in P2(1)/n: R1 0.295, Rweak 0.053, Alpha 0.165
REM <I/s>   1.448 for  332 systematic absences,  Orientation as input
REM Formula found by SHELXT:  C18 N2 O2 Cl2

CELL  0.71073  20.2400   3.7900  22.2800   90.000  111.885   90.000
ZERR   21.000   0.0040   0.0008   0.0045    0.000    0.030    0.000
LATT  1
SYMM 1/2-X, 1/2+Y, 1/2-Z
SFAC C N O CL
UNIT 21 21 21 21
L.S. 10
BOND
LIST 6
FMAP 2
PLAN 20
CL01  4  0.45179  1.15361  0.37777 11.00000  0.10600  11.13
CL02  4  0.15947  1.17534  0.29508 11.00000  0.10063  10.99
N003  2  0.26325  0.59980  0.54539 11.00000  0.02515   6.72
N004  2  0.31257  0.82142  0.46191 11.00000  0.06025   6.64
C005  1  0.42933  0.04172  0.79185 11.00000  0.03813   6.60
C006  1  0.29123  0.46055  0.60464 11.00000  0.03453   6.56
C007  1  0.38434  0.55667  0.57101 11.00000  0.03019   6.47
C008  1  0.37892  0.90522  0.45233 11.00000  0.04045   6.01
O009  3  0.50004  0.02941  0.80387 11.00000  0.08542   5.98
C00A  1  0.26146  0.33727  0.65077 11.00000  0.03015   5.97
C00B  1  0.36453  0.43242  0.62187 11.00000  0.04857   5.86
C00C  1  0.41615  0.29623  0.68189 11.00000  0.04401   5.85
C00D  1  0.31373  0.65997  0.52380 11.00000  0.03164   5.84
O00E  3  0.62899 -0.38747  1.02514 11.00000  0.08581   5.79
C00F  1  0.58072 -0.15732  0.92241 11.00000  0.06775   5.68
C00G  1  0.40365 -0.06837  0.83124 11.00000  0.05657   5.60
C00H  1  0.37533  1.03788  0.39295 11.00000  0.04440   5.57
C00I  1  0.24403  0.89170  0.41383 11.00000  0.05476   5.56
C00J  1  0.38433  0.18490  0.72618 11.00000  0.04555   5.50
C00K  1  0.30631  1.13685  0.33855 11.00000  0.04960   5.44
C00L  1  0.31109  0.19613  0.71158 11.00000  0.05109   5.40
C00M  1  0.24006  1.06125  0.35180 11.00000  0.04828   5.07
C00N  1  0.50311 -0.42874  0.97340 11.00000  0.06857   4.95
C00O  1  0.57431 -0.32904  0.96851 11.00000  0.09614   4.42
HKLF 4
END
