TITL 4_a.res in P2(1)
REM Old TITL 22_a.res in P2(1)
REM SHELXT solution in P2(1): R1 0.319, Rweak 0.227, Alpha 0.093
REM <I/s>   0.000 for    0 systematic absences,  Orientation as input
REM Flack x = -0.940 ( 0.774 ) from   298 Parsons' quotients
REM Formula found by SHELXT:  C21 Cl O8 N7

CELL  0.02510   4.9140  11.6240  19.8300   90.000   95.639   90.000
ZERR    1.000   0.0010   0.0023   0.0040    0.000    0.030    0.000
LATT -1
SYMM -X, 1/2+Y, -Z
SFAC C CL O N H
UNIT 42 4 16 4 48
L.S. 10
BOND
LIST 6
FMAP 2
PLAN 20
O001  3 -0.54767  0.09906  0.38917 11.00000  0.02186  12.08
CL02  2 -0.16802  0.34002  0.61188 11.00000  0.08420  10.02
O003  3 -0.15894  0.27129  0.39227 11.00000  0.04668  10.00
N004  4 -0.33434  0.20002  0.42946 11.00000  0.04045   9.25
N005  4  0.18747  0.41853  0.37339 11.00000  0.03469   8.68
O006  3  0.33640  0.49048  0.39849 11.00000  0.05530   8.65
N007  4  0.31883  0.47912  0.28571 11.00000  0.02852   8.04
N008  4  0.01382  0.36984  0.42384 11.00000  0.03606   8.01
O009  3  0.02561  0.36867  0.48891 11.00000  0.08569   8.00
N00A  4 -0.33559  0.23817  0.49041 11.00000  0.04333   7.46
N00B  4  0.23016  0.64169  0.82787 11.00000  0.04159   7.10
N00C  4  0.36840  0.73182  0.86098 11.00000  0.03750   7.05
C00D  1  0.18595  0.47626  0.74610 11.00000  0.05850   6.95
C00E  1  0.60542  0.58515  0.21526 11.00000  0.03249   6.66
C00F  1  0.65210  0.62015  0.14720 11.00000  0.04325   6.52
O00G  3  0.37563  0.65403  0.98083 11.00000  0.04500   6.47
C00H  1  0.57190  0.69823  0.92776 11.00000  0.06088   6.38
C00I  1  0.15167  0.40149  0.30836 11.00000  0.04679   6.35
C00J  1  0.03986  0.69820  0.77589 11.00000  0.03676   6.30
O00K  3  0.77444  0.71389  0.14111 11.00000  0.06827   6.04
O00L  3  0.03872  0.41277  0.77369 11.00000  0.05868   5.94
C00M  1  0.91531  0.77800  1.00808 11.00000  0.06590   5.77
C00N  1  0.23291  0.83346  0.88787 11.00000  0.05993   5.71
C00O  1  0.74284  0.63705  0.27728 11.00000  0.06279   5.26
C00P  1 -0.16573  0.31717  0.52896 11.00000  0.02839   5.12
C00Q  1  0.60522  0.48939  0.84393 11.00000  0.05866   5.08
C00R  1  0.58352  0.54155  0.08941 11.00000  0.04283   4.99
C00S  1  0.70440  0.80854  0.96710 11.00000  0.03989   4.89
C00T  1  0.47938  0.53223  0.34607 11.00000  0.04232   4.67
C00U  1  0.41030  0.56221  0.79256 11.00000  0.04014   4.52
C00V  1  0.42069  0.49563  0.22198 11.00000  0.04863   4.16
C00W  1  0.66865  0.61168  0.33196 11.00000  0.02307   3.86
C00X  1  0.57092  0.40622  0.75571 11.00000  0.12926   3.75
C00Y  1 -0.52650  0.24029  0.47063 11.00000  0.14695   3.52
C00Z  1  1.04777  0.90094  1.05363 11.00000  0.07761   3.23
O010  3  0.14423  0.37676  0.71252 11.00000  0.24139   3.19
C011  1  0.45857  0.39769  0.69186 11.00000  0.19212   3.04
HKLF 4
END
