TITL 6_a.res in P2(1)/c
REM Old TITL 2 in P2(1)
REM SHELXT solution in P2(1)/c: R1 0.316, Rweak 0.056, Alpha 0.154
REM <I/s>   1.263 for  221 systematic absences,  Orientation a'=c, b'=-b, c'=a
REM Formula found by SHELXT:  C16 N2 O2 Cl

CELL  0.71073  22.3400   4.6590  13.8070   90.000   92.042   90.000
ZERR    4.000   0.0045   0.0009   0.0028    0.000    0.030    0.000
LATT  1
SYMM -X, 1/2+Y, 1/2-Z
SFAC C N O CL
UNIT 52 8 12 4
L.S. 10
BOND
LIST 6
FMAP 2
PLAN 20
CL01  4  0.89351 -0.35248  0.41671 11.00000  0.14085  10.72
N002  2  0.89733  0.19314  0.69391 11.00000  0.09715   6.61
N003  2  0.84028 -0.00374  0.54881 11.00000  0.09527   6.60
C004  1  0.60148  1.01109  0.61225 11.00000  0.08702   6.17
C005  1  0.68825  0.74250  0.68730 11.00000  0.07570   6.17
C006  1  0.78472  0.35816  0.65506 11.00000  0.07394   6.11
C007  1  0.89408 -0.14967  0.52443 11.00000  0.07860   6.09
C008  1  0.72310  0.63123  0.76579 11.00000  0.07449   6.05
C009  1  0.83979  0.17602  0.62902 11.00000  0.07433   5.94
C00A  1  0.74379  0.45846  0.58032 11.00000  0.07590   5.91
C00B  1  0.63954  0.95766  0.69949 11.00000  0.08646   5.81
C00C  1  0.94972  0.04252  0.66555 11.00000  0.08326   5.71
C00D  1  0.76986  0.45298  0.75696 11.00000  0.09363   5.63
C00E  1  0.94899 -0.14867  0.58362 11.00000  0.08099   5.61
C00F  1  0.69763  0.63754  0.59349 11.00000  0.08086   5.59
C00G  1  0.71333  0.72332  0.85674 11.00000  0.09980   5.32
C00H  1  0.48709  0.84033  0.66593 11.00000  0.09040   5.08
C00I  1  0.54758  1.23005  0.60630 11.00000  0.11564   5.00
O00J  3  0.62670  1.07202  0.77818 11.00000  0.14828   4.83
C00K  1  0.48619  1.08515  0.62006 11.00000  0.10662   4.60
O00L  3  0.43627  1.19117  0.57846 11.00000  0.19136   4.20
HKLF 4
END
