TITL 7_a.res in P2(1)/n
REM Old TITL 1_a.res in P2(1)/n
REM SHELXT solution in P2(1)/n: R1 0.338, Rweak 0.116, Alpha 0.161
REM <I/s>   1.212 for  198 systematic absences,  Orientation as input
REM Formula found by SHELXT:  C20 Cl2 O2

CELL  0.02510  19.9840   3.7870  21.8490   90.000  111.004   90.000
ZERR    2.000   0.0040   0.0008   0.0044    0.000    0.030    0.000
LATT  1
SYMM 1/2-X, 1/2+Y, 1/2-Z
SFAC C CL O N H
UNIT 64 8 20 4 36
L.S. 10
BOND
LIST 6
FMAP 2
PLAN 20
CL01  2  0.16226  1.18039  0.29913 11.00000  0.14534  12.22
CL02  2  0.45068  1.15006  0.37839 11.00000  0.14914  10.80
C003  1  0.30981  0.82707  0.45608 11.00000  0.08570   6.49
C004  1  0.26320  0.61501  0.54349 11.00000  0.06728   6.47
C005  1  0.37424  0.91571  0.45054 11.00000  0.10201   6.45
C006  1  0.37697  0.55216  0.56490 11.00000  0.07473   6.44
C007  1  0.36196  0.43511  0.62036 11.00000  0.10259   6.36
C008  1  0.43101  0.02708  0.78800 11.00000  0.09126   6.19
C009  1  0.29717  0.45097  0.60904 11.00000  0.07945   6.15
C00A  1  0.31078  0.21559  0.71404 11.00000  0.08858   6.08
C00B  1  0.24649  0.88592  0.41735 11.00000  0.09668   5.93
C00C  1  0.25655  0.35709  0.65020 11.00000  0.08200   5.91
C00D  1  0.41383  0.30076  0.68055 11.00000  0.09345   5.81
C00E  1  0.37485  1.05161  0.39563 11.00000  0.09534   5.76
C00F  1  0.31164  0.65317  0.51744 11.00000  0.07754   5.68
C00G  1  0.38156  0.19955  0.72244 11.00000  0.06779   5.53
C00H  1  0.49560  0.01614  0.80362 11.00000  0.10882   5.45
C00I  1  0.62514 -0.39171  1.02342 11.00000  0.09175   5.38
O00J  3  0.40187 -0.08091  0.82206 11.00000  0.13911   5.30
C00K  1  0.24220  1.07039  0.35503 11.00000  0.08839   5.20
C00L  1  0.29993  1.15725  0.33691 11.00000  0.09808   5.09
O00M  3  0.57897 -0.16629  0.91870 11.00000  0.15006   5.08
C00N  1  0.57664 -0.29773  0.97605 11.00000  0.10319   4.77
C00O  1  0.50143 -0.44726  0.97182 11.00000  0.14978   4.48
HKLF 4
END
