TITL 8_a.res in P2(1)/c
REM Old TITL 1_a.res in P2(1)/c
REM SHELXT solution in P2(1)/c: R1 0.486, Rweak 0.130, Alpha 0.124
REM <I/s>   0.975 for  276 systematic absences,  Orientation as input
REM Formula found by SHELXT:  C17 N O2 Cl

CELL  0.02510  22.3400   4.6800  13.7600   90.000   91.576   90.000
ZERR   19.000   0.0045   0.0009   0.0028    0.000    0.030    0.000
LATT  1
SYMM -X, 1/2+Y, 1/2-Z
SFAC C N O CL H
UNIT 19 19 19 19 19
L.S. 10
BOND
LIST 6
FMAP 2
PLAN 20
CL01  4  0.89493  1.35683  0.41315 11.00000  0.12460  10.42
N002  2  0.94929  1.17010  0.58638 11.00000  0.11057   6.55
C003  1  0.89551  0.81173  0.69206 11.00000  0.05044   6.49
C004  1  0.89209  1.14196  0.52820 11.00000  0.06745   6.25
C005  1  0.78772  0.63407  0.66381 11.00000  0.11557   6.21
C006  1  0.84238  1.00690  0.56227 11.00000  0.07751   6.05
C007  1  0.77387  0.55794  0.76899 11.00000  0.06197   6.02
C008  1  0.83817  0.79590  0.64368 11.00000  0.06872   5.98
C009  1  0.68450  0.25780  0.69952 11.00000  0.07159   5.92
C00A  1  0.68503  0.45019  0.59717 11.00000  0.17144   5.86
C00B  1  0.72537  0.35627  0.76570 11.00000  0.08688   5.76
C00C  1  0.94137  0.94005  0.66839 11.00000  0.09602   5.74
C00D  1  0.65098  0.01154  0.69197 11.00000  0.11180   5.72
C00E  1  0.59451 -0.02538  0.60602 11.00000  0.07760   5.72
C00F  1  0.74191  0.54533  0.58095 11.00000  0.07136   5.71
C00G  1  0.71786  0.29246  0.86940 11.00000  0.07532   5.46
C00H  1  0.49082 -0.10537  0.61423 11.00000  0.08430   5.36
C00I  1  0.48742  0.19407  0.66814 11.00000  0.07312   5.22
O00J  3  0.62243 -0.07693  0.76220 11.00000  0.18992   5.15
O00K  3  0.43204 -0.16760  0.58966 11.00000  0.21608   4.73
C00L  1  0.55552 -0.22327  0.60596 11.00000  0.09043   4.67
HKLF 4
END
